Displacement:0,Displacement:1,Displacement:2,Strain vectors:0,Strain vectors:1,Strain vectors:2,Stress vectors:0,Stress vectors:1,Stress vectors:2,Max shear stress (Tresca),Maximum Principal stress,Median Principal stress,Minimum Principal stress,Von Mises stress,Temperature,Points:0,Points:1,Points:2,Point ID
7.79978e-07,8.17356e-07,-9.67228e-07,-0.000248514,-0.000243166,-0.00440762,11.518,11.8906,10.4719,2.24663,13.0678,12.2382,8.57451,4.14128,213,0,0,0,0
0,0,0,-0.000292231,-0.000273962,-0.0106544,27.9993,28.025,13.4155,13.0431,33.8533,27.8195,7.76703,23.6538,213,0,0,-0.1,1
-7.9941e-07,8.33655e-07,-1.06757e-06,-0.000259879,-0.000249781,-0.00472556,9.01946,9.7446,9.07081,2.59455,11.2948,10.4344,6.10568,4.81689,213,20.1,0,0,2
0,0,0,-0.000285568,-0.000267305,-0.0111767,27.1729,27.1986,11.8446,13.4524,33.0626,26.9957,6.1578,24.4427,213,20.1,0,-0.1,3
4.85848e-07,-7.69209e-07,-1.43739e-06,-0.000239331,-0.000222731,-0.00603739,6.63533,7.51472,0.798565,4.39184,8.39319,6.94592,-0.390496,8.15692,213,0,21.1,0,4
0,0,0,-0.000219108,-0.000205557,-0.0144426,22.1145,22.1336,2.0963,13.3463,25.5276,21.9819,-1.16505,25.1083,213,0,21.1,-0.1,5
-4.83073e-07,-7.77371e-07,-1.44652e-06,-0.000240065,-0.000220154,-0.00605756,6.5729,7.7011,0.673864,4.45857,8.3783,7.10842,-0.538853,8.35491,213,20.1,21.1,0,6
0,0,0,-0.000219787,-0.00020393,-0.0144469,22.1081,22.1304,2.08479,13.3904,25.563,21.978,-1.21772,25.1804,213,20.1,21.1,-0.1,7
1.96841e-06,1.95689e-06,-1.85997e-06,-0.0015921,-0.00156553,-0.00177326,2.03691,2.55658,-0.104971,2.2294,4.30951,0.328309,-0.1493,4.24023,213,-0.1,0,0.5025,8
1.99014e-06,1.97715e-06,-1.90322e-06,-0.0016178,-0.00158963,-0.00188244,0.777285,0.861358,-0.0127099,0.580401,1.14699,0.492745,-0.0138069,1.00799,213,-0.1,0,0.525,9
-1.92869e-06,1.92226e-06,-2.01084e-06,-0.00157503,-0.00155424,-0.00178896,2.62177,3.02868,-0.169651,2.66798,5.13117,0.554424,-0.204796,4.99978,213,20.2,0,0.5025,10
-1.94547e-06,1.93814e-06,-2.0544e-06,-0.00159654,-0.00157484,-0.0019035,0.888299,0.953079,-0.0279849,0.662888,1.29707,0.545034,-0.0287081,1.15161,213,20.2,0,0.525,11
1.82849e-06,-1.71853e-06,-2.21983e-06,-0.00158336,-0.00154174,-0.00183455,2.08422,2.66871,0.0067627,2.01727,4.01046,0.773309,-0.0240782,3.70084,213,-0.1,19.5,0.5025,12
1.84497e-06,-1.72981e-06,-2.26351e-06,-0.00160549,-0.00156058,-0.00190162,0.884403,1.01846,0.000438211,0.66266,1.32537,0.577882,5.02378e-05,1.15089,213,-0.1,19.5,0.525,13
-1.82035e-06,-1.70158e-06,-2.26252e-06,-0.00158,-0.0015397,-0.00181809,2.35971,3.03812,-0.158371,2.4848,4.77681,0.655438,-0.192792,4.60447,213,20.2,19.5,0.5025,14
-1.8353e-06,-1.71201e-06,-2.3063e-06,-0.0016003,-0.00155759,-0.00190585,0.912403,1.03989,0.00029123,0.686124,1.37214,0.580554,-0.000108947,1.19307,213,20.2,19.5,0.525,15
1.95192e-06,1.94156e-06,-1.82986e-06,-0.00157113,-0.00154535,-0.00179037,2.63959,3.06794,0.22647,3.0798,5.41621,1.26118,-0.743394,5.44166,213,-0.1,0,0.485,16
-1.91605e-06,1.91036e-06,-1.98053e-06,-0.00155653,-0.0015357,-0.00183014,2.68438,2.96883,0.180575,3.19591,5.4664,1.29281,-0.925426,5.62115,213,20.2,0,0.485,17
1.81608e-06,-1.71014e-06,-2.18942e-06,-0.00156408,-0.00152523,-0.00178881,3.2499,4.01464,0.0319314,3.69911,6.56959,1.55551,-0.828627,6.54059,213,-0.1,19.5,0.485,18
-1.80908e-06,-1.6938e-06,-2.23208e-06,-0.00156228,-0.00152363,-0.00180476,3.05404,3.70174,0.235939,3.55303,6.3138,1.47017,-0.792253,6.2879,213,20.2,19.5,0.485,19
1.79028e-06,1.78552e-06,-1.6961e-06,-0.00140997,-0.00138537,-0.00177275,3.77497,4.6404,0.870236,4.41288,8.07042,1.97052,-0.755333,7.82729,213,-0.1,0,0.415,20
-1.76479e-06,1.76299e-06,-1.84612e-06,-0.00140087,-0.0013791,-0.00169619,4.58542,5.52409,1.13799,5.19445,9.94548,1.74544,-0.443421,9.48581,213,20.2,0,0.415,21
1.66723e-06,-1.57127e-06,-2.05531e-06,-0.00140628,-0.0013718,-0.00177873,4.25807,5.45316,0.921846,4.89235,9.01169,2.39439,-0.773,8.64758,213,-0.1,19.5,0.415,22
-1.66345e-06,-1.55808e-06,-2.09741e-06,-0.00140704,-0.00136826,-0.00173339,4.13214,5.8003,0.0381748,5.564,9.69835,1.70191,-1.42965,9.93937,213,20.2,19.5,0.415,23
1.77384e-06,1.77034e-06,-1.67e-06,-0.00138192,-0.00135742,-0.00170195,5.51152,6.5278,0.547039,8.79599,13.3562,3.46596,-4.23579,15.2744,213,-0.1,0,0.3975,24
-1.7522e-06,1.75121e-06,-1.81998e-06,-0.00138145,-0.00135977,-0.001615,6.2243,7.3038,0.662877,9.29186,14.8359,3.10293,-3.74784,16.2781,213,20.2,0,0.3975,25
1.65496e-06,-1.5629e-06,-2.02906e-06,-0.00138066,-0.00134856,-0.00161703,6.58417,8.20026,0.721459,9.54047,15.2348,4.11723,-3.84614,16.5997,213,-0.1,19.5,0.3975,26
-1.65228e-06,-1.55037e-06,-2.07116e-06,-0.00138384,-0.00134559,-0.00174366,5.48235,6.7797,1.46839,9.34341,14.3548,3.70766,-4.33202,16.2357,213,20.2,19.5,0.3975,27
1.66314e-06,1.66105e-06,-1.62965e-06,-0.00127535,-0.0012445,-0.00879758,12.9443,13.0055,2.02877,10.2399,17.7844,12.8895,-2.69535,18.5239,213,-0.1,0,0.375,28
-1.64191e-06,1.64205e-06,-1.7796e-06,-0.00127739,-0.00125054,-0.00770157,11.2356,11.2926,1.6721,10.2091,16.7385,11.1415,-3.67972,18.2743,213,20.2,0,0.375,29
1.54599e-06,-1.454e-06,-1.98902e-06,-0.00127558,-0.00123759,-0.00768461,11.3086,11.3904,1.76916,10.4092,17.0185,11.2496,-3.79996,18.6169,213,-0.1,19.5,0.375,30
-1.54411e-06,-1.44209e-06,-2.03076e-06,-0.00127879,-0.00122991,-0.00878,13.0048,13.1025,2.13611,10.8389,18.4839,12.9535,-3.19392,19.5096,213,20.2,19.5,0.375,31
1.03054e-06,1.03662e-06,-9.69937e-07,-0.000317112,-0.000309695,-0.00539999,-5.74372,-5.12685,6.02841,14.2988,14.6478,-5.54013,-13.9499,25.4569,213,-0.1,0,0.325,32
-1.00645e-06,1.01672e-06,-1.11809e-06,-0.000306366,-0.000301708,-0.00539514,-4.42972,-4.04417,4.89385,14.1759,14.7392,-4.70662,-13.6126,25.1126,213,20.2,0,0.325,33
9.05777e-07,-8.10926e-07,-1.33092e-06,-0.000309915,-0.000279236,-0.00538402,-3.92141,-1.22745,5.36956,14.5035,16.2174,-3.20704,-12.7897,25.5983,213,-0.1,19.5,0.325,34
-9.0204e-07,-7.95876e-07,-1.37268e-06,-0.000311989,-0.000265183,-0.0053856,-3.95174,0.0875627,4.62514,14.5798,16.3392,-2.75783,-12.8204,25.6538,213,20.2,19.5,0.325,35
9.16698e-07,9.31015e-07,-9.53961e-07,-0.000189094,-0.000185984,-0.000135249,-1.12678,-0.66995,6.78169,4.69317,6.7841,0.803105,-2.60224,8.23019,213,-0.1,0,0.175,36
-9.2326e-07,9.38717e-07,-1.09899e-06,-0.000192754,-0.000189882,-0.00013459,-2.3091,-1.88729,6.23375,4.42552,6.25532,-1.62224,-2.59572,8.40668,213,20.2,0,0.175,37
8.25746e-07,-7.62417e-07,-1.31179e-06,-0.000193691,-0.00017866,-0.00013385,-1.41613,0.791493,7.37301,4.63898,7.37657,1.27321,-1.9014,8.16731,213,-0.1,19.5,0.175,38
-8.31178e-07,-7.52945e-07,-1.35161e-06,-0.000201758,-0.000172795,-0.000135069,-2.92083,1.33306,6.8741,4.91127,6.88872,1.33143,-2.93383,8.53107,213,20.2,19.5,0.175,39
8.88498e-07,8.98887e-07,-1.14242e-06,-0.000202352,-0.000204863,-0.00105727,6.69396,6.30736,5.58711,2.48422,7.96261,7.63165,2.99417,4.8115,213,0.05,0.15,0.175,40
-8.94326e-07,9.05255e-07,-1.23097e-06,-0.000219909,-0.000219533,-0.00085555,0.0701918,0.0588448,5.23634,5.25475,6.91728,2.04032,-3.59222,9.10933,213,20.05,0.15,0.175,41
-8.14116e-07,-7.0519e-07,-1.43507e-06,-0.000235167,-0.000191622,-0.000846036,-1.11793,2.73921,6.02359,8.81435,10.895,3.48366,-6.73375,15.3312,213,20.05,19.35,0.175,42
8.09698e-07,-7.13597e-07,-1.40983e-06,-0.000221475,-0.000196668,-0.00100723,4.35205,5.8899,6.51975,7.85946,12.5968,7.28704,-3.12213,13.8497,213,0.05,19.35,0.175,43
8.53082e-07,8.64438e-07,-1.08341e-06,-0.00020905,-0.00021409,-0.000714948,3.49228,2.57754,7.41169,4.46631,10.1174,2.17935,1.18477,8.47919,213,0.05,0.15,0.15,44
-8.51342e-07,8.61033e-07,-1.15584e-06,-0.000207934,-0.000208485,-0.00115767,5.64493,5.20512,4.72642,5.48423,11.4774,3.59005,0.508978,9.79825,213,20.05,0.15,0.15,45
7.563e-07,-6.15614e-07,-1.35923e-06,-0.000217503,-4.50107e-05,-0.00068388,11.1265,30.9916,11.3044,15.6462,35.2733,14.1681,3.98102,27.6443,213,0.05,19.35,0.15,46
-7.60706e-07,-6.23086e-07,-1.36055e-06,-0.000226938,-6.26001e-05,-0.0011126,8.38361,26.6648,6.24588,15.3271,30.4915,10.9653,-0.162563,26.8773,213,20.05,19.35,0.15,47
8.57652e-07,8.91818e-07,-9.91163e-07,-0.000199164,-0.000197881,-0.000154081,-6.41917,-6.23072,0.202438,5.27483,0.253426,-2.40464,-10.2962,9.50364,213,0,0,0.15,48
-8.5599e-07,8.87666e-07,-1.09017e-06,-0.000196634,-0.000194912,-0.000157436,-5.84704,-5.59413,-0.0898644,4.60041,-0.0840121,-2.16218,-9.28484,8.35782,213,20.1,0,0.15,49
5.07278e-07,-7.70539e-07,-1.46045e-06,-0.000209689,-0.00017998,-0.000147743,-6.68293,-2.31948,2.41535,7.87242,5.83593,-2.51408,-9.90891,13.6438,213,0,21.1,0.15,50
-5.04751e-07,-7.73829e-07,-1.46955e-06,-0.000211998,-0.00017649,-0.000154154,-7.51091,-2.29566,0.98492,7.29726,4.17877,-2.58468,-10.4157,12.6505,213,20.1,21.1,0.15,51
4.94279e-07,5.08043e-07,-4.72214e-07,-0.000528061,-0.000502627,-0.00967215,28.5175,28.5533,15.6481,10.0673,32.2992,28.2551,12.1646,18.448,213,0,0,-0.05,52
5.25607e-07,8.37638e-07,-1.33424e-06,-0.000127671,-0.000249679,-0.00591401,15.6798,9.13688,4.75987,7.05183,16.61,10.4602,2.50634,12.2474,213,1.82727,0,0,53
2.96285e-07,8.94635e-07,-1.26878e-06,-9.853e-05,-0.000276325,-0.00670471,19.7245,10.126,5.96584,7.62556,20.1203,10.8268,4.86922,13.3128,213,3.65455,0,0,54
1.62439e-07,9.30331e-07,-1.28476e-06,-5.3903e-05,-0.000303592,-0.00771098,22.8953,10.7371,3.52946,10.6414,23.7966,10.8514,2.51385,18.5748,213,5.48182,0,0,55
8.17275e-08,9.52301e-07,-1.28329e-06,-3.40418e-05,-0.000307809,-0.00688592,25.0643,9.70629,4.22194,11.2376,25.8565,9.75468,3.38135,20.0627,213,7.30909,0,0,56
2.57493e-08,9.63539e-07,-1.26401e-06,-2.98604e-05,-0.000288556,-0.00623456,26.2475,8.71657,6.08926,10.9886,27.1505,8.72967,5.1732,20.4325,213,9.13636,0,0,57
-2.52772e-08,9.62004e-07,-1.27208e-06,-2.61672e-05,-0.000281929,-0.00630651,26.0247,8.55297,4.28721,11.7262,26.8789,8.55955,3.42646,21.3537,213,10.9636,0,0,58
-8.24442e-08,9.50958e-07,-1.27778e-06,-3.57683e-05,-0.000300927,-0.00689723,25.1283,10.111,4.61385,11.0619,25.9056,10.1656,3.78194,19.7226,213,12.7909,0,0,59
-1.61567e-07,9.28738e-07,-1.2806e-06,-5.39188e-05,-0.000288495,-0.00701974,22.9567,9.76037,3.58084,10.5532,23.7494,9.90548,2.64301,18.5725,213,14.6182,0,0,60
-2.96898e-07,8.93808e-07,-1.2722e-06,-9.76432e-05,-0.00027382,-0.00672541,19.782,10.272,5.6892,7.7921,20.1871,10.9532,4.6029,13.5731,213,16.4455,0,0,61
-5.22201e-07,8.37027e-07,-1.32482e-06,-0.000129915,-0.000227874,-0.00588966,15.5008,9.05427,4.91188,6.82746,16.2456,10.6308,2.59064,11.8875,213,18.2727,0,0,62
6.3268e-07,8.14986e-07,-1.27157e-06,-0.000139207,-0.000203919,-0.00660566,16.1759,11.378,6.22253,6.39653,16.4962,13.5771,3.70311,11.6121,213,0.913636,0,0,63
3.99763e-07,8.66647e-07,-1.28084e-06,-0.000125498,-0.00022236,-0.00665053,17.078,9.89652,6.33721,6.25582,17.2648,11.2937,4.75318,10.8391,213,2.74091,0,0,64
2.20217e-07,9.15628e-07,-1.27876e-06,-7.32485e-05,-0.000234883,-0.00663808,22.1475,10.1637,6.41935,8.2649,22.2676,10.7252,5.7378,14.6856,213,4.56818,0,0,65
1.18276e-07,9.45219e-07,-1.2861e-06,-4.41701e-05,-0.000238115,-0.00673392,24.8515,10.4721,6.00307,9.51841,24.8789,10.6058,5.84203,17.1583,213,6.39545,0,0,66
5.30019e-08,9.61402e-07,-1.27363e-06,-3.06346e-05,-0.000246308,-0.00662712,26.3663,10.376,6.79423,9.9414,26.5086,10.402,6.62585,18.2895,213,8.22273,0,0,67
-6.73271e-10,9.6545e-07,-1.2638e-06,-2.79247e-05,-0.000244239,-0.00650578,26.9496,10.9118,7.27748,10.252,27.3656,10.9117,6.86153,18.8089,213,10.05,0,0,68
-5.14355e-08,9.58991e-07,-1.27246e-06,-3.12851e-05,-0.000240248,-0.00661447,26.2448,10.7519,6.1821,10.2141,26.4083,10.7904,5.98005,18.4983,213,11.8773,0,0,69
-1.18538e-07,9.43294e-07,-1.28178e-06,-4.33008e-05,-0.000236815,-0.00670098,25.1445,10.797,6.39075,9.4641,25.1687,10.923,6.24053,17.0755,213,13.7045,0,0,70
-2.20456e-07,9.14843e-07,-1.27642e-06,-7.40608e-05,-0.000232962,-0.0066381,21.9777,10.1965,6.05261,8.35044,22.097,10.7337,5.3961,14.7738,213,15.5318,0,0,71
-3.9846e-07,8.62944e-07,-1.28466e-06,-0.000123299,-0.000215609,-0.00668275,17.5471,10.7031,6.49227,6.57069,18.0414,11.8011,4.90001,11.3856,213,17.3591,0,0,72
-6.40361e-07,8.24676e-07,-1.28173e-06,-0.000151705,-0.000213274,-0.00669598,14.3425,9.77763,5.63328,5.94998,14.844,11.9654,2.94403,10.7536,213,19.1864,0,0,73
0,0,0,1.57739e-06,-0.000166314,-0.0143334,23.0312,22.7949,2.85603,12.7851,25.6974,22.8575,0.127161,24.2752,213,1.82727,0,-0.1,74
0,0,0,-1.65228e-06,7.60265e-11,-0.0125168,26.2773,26.2796,8.66338,13.7498,31.2201,26.2796,3.72058,25.3923,213,3.65455,0,-0.1,75
0,0,0,7.66903e-07,-0.000107166,-0.0127389,25.7439,25.592,7.814,12.696,29.475,25.5919,4.08298,23.6904,213,5.48182,0,-0.1,76
0,0,0,-8.86735e-07,-5.46432e-05,-0.0126652,25.9461,25.8705,8.12227,13.4152,30.4488,25.8716,3.61844,24.8599,213,7.30909,0,-0.1,77
0,0,0,-1.14464e-06,-5.07931e-05,-0.0124787,26.2579,26.188,8.69688,12.8671,30.3442,26.1885,4.61003,23.9285,213,9.13636,0,-0.1,78
0,0,0,-5.12101e-07,-4.85567e-05,-0.0125504,26.1459,26.0782,8.48313,12.8584,30.1727,26.0786,4.45584,23.9339,213,10.9636,0,-0.1,79
0,0,0,-1.24522e-06,-5.06714e-05,-0.0126037,26.0526,25.983,8.31575,13.338,30.5215,25.9842,3.84562,24.7215,213,12.7909,0,-0.1,80
0,0,0,2.36599e-06,-0.000148502,-0.0132575,24.8294,24.6171,6.16733,12.4201,27.9146,24.6247,3.07445,23.3696,213,14.6182,0,-0.1,81
0,0,0,-3.28607e-07,6.17906e-08,-0.0126047,26.137,26.1375,8.39742,13.7046,30.973,26.1351,3.56382,25.339,213,16.4455,0,-0.1,82
0,0,0,2.88912e-06,-0.000141046,-0.0139544,23.6989,23.4963,4.05529,12.8506,26.6946,23.5625,0.993444,24.287,213,18.2727,0,-0.1,83
0,0,0,1.32239e-10,3.07097e-09,-0.0121454,26.8921,26.8921,9.79855,16.1274,34.4727,26.8921,2.21792,29.2118,213,0.913636,0,-0.1,84
0,0,0,1.79238e-10,1.50333e-09,-0.0126016,26.143,26.143,8.4074,14.2417,31.5169,26.143,3.0335,26.2129,213,2.74091,0,-0.1,85
0,0,0,9.96494e-11,1.51416e-09,-0.0124803,26.3422,26.3422,8.77728,14.3037,31.8634,26.3422,3.25605,26.2853,213,4.56818,0,-0.1,86
0,0,0,5.36585e-11,2.05487e-09,-0.0124362,26.4146,26.4146,8.91184,15.1586,32.8218,26.4146,2.50466,27.6755,213,6.39545,0,-0.1,87
0,0,0,3.51065e-11,1.67218e-09,-0.0123395,26.5734,26.5734,9.20663,14.6499,32.5399,26.5734,3.24013,26.819,213,8.22273,0,-0.1,88
0,0,0,3.26343e-11,1.10788e-09,-0.0123097,26.6223,26.6223,9.29754,13.7167,31.6766,26.6223,4.24319,25.288,213,10.05,0,-0.1,89
0,0,0,3.72185e-11,1.58301e-09,-0.0123323,26.5853,26.5853,9.22873,14.5058,32.4128,26.5853,3.40126,26.5813,213,11.8773,0,-0.1,90
0,0,0,5.1021e-11,2.01328e-09,-0.0123864,26.4963,26.4963,9.06356,15.0758,32.8557,26.4963,2.70413,27.5284,213,13.7045,0,-0.1,91
0,0,0,1.10372e-10,1.5137e-09,-0.0124804,26.342,26.342,8.77696,14.2523,31.8118,26.342,3.30717,26.2015,213,15.5318,0,-0.1,92
0,0,0,1.74719e-10,1.02729e-09,-0.0128359,25.7584,25.7584,7.6931,13.3994,30.1252,25.7584,3.32632,24.9043,213,17.3591,0,-0.1,93
0,0,0,1.65551e-10,3.08682e-09,-0.0123296,26.5896,26.5896,9.23674,16.2971,34.2102,26.5896,1.61609,29.5307,213,19.1864,0,-0.1,94
-5.02918e-07,5.15073e-07,-5.22437e-07,-0.000523953,-0.000495204,-0.0106756,26.8947,26.9351,12.6072,10.7469,30.6431,26.6446,9.14931,19.7997,213,20.1,0,-0.05,95
3.25514e-07,-4.67136e-07,-7.1133e-07,-0.000422268,-0.000392475,-0.0143737,21.3012,21.3431,1.6658,11.7884,23.3754,21.1361,-0.201423,22.5408,213,0,21.1,-0.05,96
7.48372e-07,-5.95217e-07,-1.32751e-06,-0.000268894,-7.21048e-05,-0.0056501,9.16336,22.6308,6.97463,9.94025,23.3707,11.9079,3.49017,17.2842,213,0,19.1818,0,97
8.78849e-07,-3.72192e-07,-1.30374e-06,-0.000259959,-0.000123234,-0.00519854,5.6437,15.2732,6.23555,6.61653,16.0762,8.23316,2.84311,11.5256,213,0,17.2636,0,98
9.37877e-07,-1.94374e-07,-1.31147e-06,-0.000254528,-6.59468e-05,-0.00505408,6.16242,22.3725,7.13604,9.10624,22.9488,7.9859,4.73629,16.8247,213,0,15.3455,0,99
9.54456e-07,-9.05929e-08,-1.26643e-06,-0.000295149,-4.04773e-05,-0.00691942,9.96196,24.9164,5.59985,10.2591,25.4724,10.0516,4.95422,18.5038,213,0,13.4273,0,100
9.70938e-07,-3.74659e-08,-1.26641e-06,-0.00026844,-2.60034e-05,-0.00469239,6.24899,27.6188,7.74966,10.8999,27.9831,7.45117,6.18322,21.1943,213,0,11.5091,0,101
9.76169e-07,1.83204e-08,-1.25005e-06,-0.000276993,-2.83047e-05,-0.00537609,7.69049,27.3089,8.41224,10.0256,27.6072,8.24835,7.55606,19.7141,213,0,9.59091,0,102
9.60995e-07,7.75024e-08,-1.27624e-06,-0.000262855,-3.38514e-05,-0.00474462,6.45322,26.5893,7.47339,10.2589,26.849,7.33561,6.33128,20.0345,213,0,7.67273,0,103
9.46038e-07,1.52295e-07,-1.31727e-06,-0.000281033,-4.79788e-05,-0.00650969,7.96454,23.1356,3.05913,10.9644,23.9022,8.28365,1.97337,19.5529,213,0,5.75455,0,104
9.09945e-07,2.95852e-07,-1.2796e-06,-0.000235966,-9.58261e-05,-0.00384086,3.72443,18.4531,8.05888,8.01889,19.0684,8.13738,3.03062,14.1911,213,0,3.83636,0,105
8.39918e-07,5.41032e-07,-1.32742e-06,-0.000257443,-0.000141157,-0.00515198,5.81149,12.2573,3.27414,6.73646,13.5282,7.75936,0.0553236,11.7079,213,0,1.91818,0,106
6.0949e-07,-6.58797e-07,-1.38548e-06,-0.000234419,-9.07057e-05,-0.0072223,8.56116,19.2163,4.167,9.54688,19.341,12.3563,0.247185,16.733,213,0,20.1409,0,107
8.31526e-07,-4.9101e-07,-1.34359e-06,-0.000221558,-0.000116268,-0.00465249,5.49872,15.7078,5.94803,7.00583,16.0271,9.11209,2.0154,12.1348,213,0,18.2227,0,108
9.13863e-07,-2.71885e-07,-1.29986e-06,-0.000229671,-9.27007e-05,-0.0044858,7.64104,21.0154,11.9825,7.85412,22.4968,11.3536,6.78856,13.9957,213,0,16.3045,0,109
9.53358e-07,-1.37324e-07,-1.27597e-06,-0.00024566,-5.41034e-05,-0.00665322,9.9936,24.1959,7.43217,8.74051,24.3285,10.4457,6.84749,15.9885,213,0,14.3864,0,110
9.62317e-07,-5.90011e-08,-1.27203e-06,-0.000238382,-2.76963e-05,-0.00658532,11.4415,27.0621,7.16082,10.1269,27.2251,11.468,6.97137,18.4217,213,0,12.4682,0,111
9.74172e-07,-8.11062e-09,-1.24759e-06,-0.000256422,-2.90827e-05,-0.00647979,9.63775,26.493,7.29326,9.81989,26.711,9.64173,7.07125,18.489,213,0,10.55,0,112
9.70593e-07,4.78512e-08,-1.255e-06,-0.000253539,-3.08529e-05,-0.00653088,9.64103,26.1513,6.72672,9.91372,26.3323,9.68193,6.50484,18.4453,213,0,8.63182,0,113
9.55122e-07,1.13928e-07,-1.28525e-06,-0.000236116,-3.89908e-05,-0.00454742,6.01541,25.3505,4.93894,10.8271,25.527,6.90517,3.87272,20.3085,213,0,6.71364,0,114
9.30548e-07,2.14747e-07,-1.29835e-06,-0.000238313,-7.48395e-05,-0.00451522,7.32952,23.3244,12.5384,9.15554,25.0449,11.4136,6.73382,16.4774,213,0,4.79545,0,115
8.76511e-07,4.03936e-07,-1.28032e-06,-0.000223523,-0.000127818,-0.00448416,3.93219,13.2628,3.77572,6.56222,14.1777,5.73975,1.05326,11.5198,213,0,2.87727,0,116
8.02119e-07,6.66731e-07,-1.27733e-06,-0.000198395,-0.000144054,-0.00663148,12.0062,16.0352,6.76743,6.27653,16.7742,13.8134,4.22118,11.3657,213,0,0.959091,0,117
0,0,0,-0.000129635,-7.32724e-06,-0.0138663,23.6591,23.8312,4.32597,12.4463,26.4849,23.7391,1.59224,23.6397,213,0,19.1818,-0.1,118
0,0,0,-1.70931e-08,-4.1552e-06,-0.0130122,25.4619,25.4561,7.1485,13.7358,30.0373,25.4635,2.56567,25.4943,213,0,17.2636,-0.1,119
0,0,0,-0.000100392,3.25101e-07,-0.0137865,23.8919,24.0337,4.63003,12.5176,26.8517,23.8876,1.81642,23.6927,213,0,15.3455,-0.1,120
0,0,0,-4.6423e-05,-1.04794e-06,-0.0124948,26.1751,26.239,8.65525,13.1632,30.6097,26.1763,4.28335,24.4134,213,0,13.4273,-0.1,121
0,0,0,-0.000127152,4.64073e-07,-0.0135704,24.1654,24.345,5.24529,12.5095,27.3046,24.1656,2.28555,23.6066,213,0,11.5091,-0.1,122
0,0,0,-0.000132815,2.20445e-07,-0.0133219,24.5557,24.7429,5.99324,12.4223,27.7903,24.5558,2.94575,23.3956,213,0,9.59091,-0.1,123
0,0,0,-0.00014151,4.44322e-07,-0.0134869,24.2585,24.4583,5.47611,12.5839,27.5503,24.2601,2.38253,23.6946,213,0,7.67273,-0.1,124
0,0,0,-0.000133959,3.10148e-06,-0.013507,24.2529,24.4458,5.43152,12.571,27.5063,24.2595,2.36441,23.686,213,0,5.75455,-0.1,125
0,0,0,-0.000101114,-2.29819e-06,-0.0131038,25.0062,25.1453,6.70611,12.912,28.8341,25.0134,3.0101,24.1415,213,0,3.83636,-0.1,126
0,0,0,-0.000150425,-9.34627e-07,-0.0141771,23.0959,23.3063,3.35463,12.9042,26.1976,23.17,0.389209,24.4357,213,0,1.91818,-0.1,127
0,0,0,2.64308e-09,1.1166e-10,-0.0136971,24.3443,24.3443,5.06693,15.2696,29.9752,24.3443,-0.563985,28.1494,213,0,20.1409,-0.1,128
0,0,0,1.35551e-09,1.4439e-10,-0.0131645,25.2188,25.2188,6.691,14.2117,30.1666,25.2188,1.74323,26.3008,213,0,18.2227,-0.1,129
0,0,0,9.40661e-10,1.2443e-10,-0.0129792,25.523,25.523,7.25591,13.3475,29.737,25.523,3.04195,24.8574,213,0,16.3045,-0.1,130
0,0,0,1.82135e-09,7.69751e-11,-0.0123791,26.5084,26.5084,9.08601,14.8264,32.6236,26.5084,2.97078,27.1174,213,0,14.3864,-0.1,131
0,0,0,1.43046e-09,3.33794e-11,-0.0123232,26.6001,26.6001,9.25638,14.247,32.1753,26.6001,3.68121,26.156,213,0,12.4682,-0.1,132
0,0,0,1.46893e-09,4.65778e-11,-0.0121226,26.9295,26.9295,9.86808,14.255,32.6538,26.9295,4.14378,26.1226,213,0,10.55,-0.1,133
0,0,0,1.53568e-09,4.75791e-11,-0.0121957,26.8095,26.8095,9.64511,14.3776,32.6049,26.8095,3.84974,26.34,213,0,8.63182,-0.1,134
0,0,0,1.83683e-09,5.76761e-11,-0.0124653,26.3668,26.3668,8.82308,14.9013,32.4963,26.3668,2.69361,27.2598,213,0,6.71364,-0.1,135
0,0,0,1.4088e-09,1.06683e-10,-0.0126994,25.9824,25.9824,8.10916,14.2477,31.2935,25.9824,2.79811,26.246,213,0,4.79545,-0.1,136
0,0,0,1.39585e-09,1.75538e-10,-0.0126031,26.1405,26.1405,8.40272,14.1634,31.4351,26.1405,3.10817,26.0858,213,0,2.87727,-0.1,137
0,0,0,3.25655e-09,1.35338e-10,-0.0121802,26.835,26.835,9.69252,16.3092,34.573,26.835,1.95453,29.5202,213,0,0.959091,-0.1,138
-8.36429e-07,5.38561e-07,-1.31901e-06,-0.000249379,-0.000142873,-0.00512841,6.61701,12.7456,5.13141,5.94814,13.5849,9.22051,1.68861,10.4235,213,20.1,1.91818,0,139
-9.09946e-07,2.95465e-07,-1.28076e-06,-0.000269749,-9.65663e-05,-0.00509141,6.03273,19.0723,7.81206,7.52705,19.8507,8.26972,4.79663,13.653,213,20.1,3.83636,0,140
-9.48668e-07,1.52739e-07,-1.32291e-06,-0.000293109,-4.91792e-05,-0.00719311,8.94973,22.9974,3.16546,10.9227,23.8971,9.16384,2.05165,19.2986,213,20.1,5.75455,0,141
-9.67847e-07,7.75893e-08,-1.30383e-06,-0.000265471,-3.18296e-05,-0.00484653,5.74133,26.3956,6.77767,10.5263,26.6827,6.60187,5.63004,20.5839,213,20.1,7.67273,0,142
-9.84529e-07,1.75111e-08,-1.27807e-06,-0.000294699,-2.95021e-05,-0.00694827,9.03368,25.7194,5.96617,10.6883,26.5272,9.04147,5.15063,19.7211,213,20.1,9.59091,0,143
-9.77828e-07,-3.83612e-08,-1.31375e-06,-0.000281441,-2.21449e-05,-0.00644018,8.07725,26.4596,4.91613,11.4859,27.1648,8.09522,4.19296,21.2906,213,20.1,11.5091,0,144
-9.59713e-07,-8.83007e-08,-1.27871e-06,-0.000258205,-4.11464e-05,-0.00475881,6.26441,25.4653,6.52058,10.0269,25.7574,6.78934,5.70358,19.5336,213,20.1,13.4273,0,145
-9.35237e-07,-1.95082e-07,-1.30705e-06,-0.000280246,-6.4984e-05,-0.00641964,8.01557,21.9258,4.97428,9.57509,22.766,8.53389,3.61579,17.226,213,20.1,15.3455,0,146
-8.76619e-07,-3.71892e-07,-1.29421e-06,-0.000229528,-0.000124103,-0.00453408,4.74698,15.1481,7.6523,6.3693,15.5718,9.14228,2.83325,11.0321,213,20.1,17.2636,0,147
-7.48116e-07,-5.96005e-07,-1.33127e-06,-0.000235201,-7.54619e-05,-0.00518861,8.56671,21.9029,7.21228,10.1675,22.6093,12.7983,2.27429,17.6142,213,20.1,19.1818,0,148
-8.12207e-07,6.72356e-07,-1.28818e-06,-0.000210856,-0.000153839,-0.00673212,10.0135,14.241,5.80159,6.23687,15.3506,11.8286,2.8769,11.1385,213,20.1,0.959091,0,149
-8.7478e-07,4.03193e-07,-1.27671e-06,-0.000223213,-0.000126731,-0.00447167,3.83053,13.2353,3.27206,6.64824,14.095,5.44446,0.798473,11.6879,213,20.1,2.87727,0,150
-9.32088e-07,2.14481e-07,-1.30256e-06,-0.0002399,-7.44065e-05,-0.0045234,7.55858,23.7461,13.6368,9.24802,25.5412,12.3551,7.04518,16.495,213,20.1,4.79545,0,151
-9.59799e-07,1.12482e-07,-1.3042e-06,-0.000238823,-3.91771e-05,-0.00461166,5.31158,24.8938,4.1702,10.9153,25.1313,5.94354,3.30071,20.6365,213,20.1,6.71364,0,152
-9.79871e-07,4.84038e-08,-1.28353e-06,-0.000256355,-3.13201e-05,-0.00667065,8.97783,25.6623,5.96667,10.0994,25.8933,9.01909,5.6944,18.7588,213,20.1,8.63182,0,153
-9.83753e-07,-1.0308e-08,-1.28509e-06,-0.000251222,-2.91274e-05,-0.00447474,3.85002,25.6545,3.66474,11.6964,26.3561,3.84973,2.9634,22.9624,213,20.1,10.55,0,154
-9.68336e-07,-5.69024e-08,-1.30472e-06,-0.000237207,-2.60346e-05,-0.00457805,5.20088,25.9162,1.96002,12.3274,26.267,5.19798,1.61212,23.0719,213,20.1,12.4682,0,155
-9.53808e-07,-1.35537e-07,-1.27453e-06,-0.000247391,-5.56676e-05,-0.00665342,9.73767,23.9523,7.35094,8.65848,24.0798,10.1982,6.76288,15.8805,213,20.1,14.3864,0,156
-9.13533e-07,-2.71543e-07,-1.28928e-06,-0.000231042,-9.21746e-05,-0.00449493,7.13427,20.6657,11.0104,7.69079,21.7502,10.6916,6.36858,13.7399,213,20.1,16.3045,0,157
-8.27136e-07,-4.93189e-07,-1.34534e-06,-0.000218038,-0.000116835,-0.00676908,10.2375,17.7408,5.55352,7.41582,18.1486,12.0663,3.31691,12.9136,213,20.1,18.2227,0,158
-6.12957e-07,-6.65959e-07,-1.37397e-06,-0.00023568,-9.45502e-05,-0.00718227,8.19322,18.6569,3.7946,9.41523,18.7919,11.8914,-0.0385529,16.5004,213,20.1,20.1409,0,159
-2.72454e-07,-7.12301e-07,-1.50262e-06,-7.75083e-05,-0.000231779,-0.00585267,18.3925,4.87939,-1.16339,10.2038,18.7994,4.9173,-1.60823,18.0523,213,18.2727,21.1,0,160
-1.65607e-07,-7.47297e-07,-1.50706e-06,-4.12124e-05,-0.000238247,-0.00525212,22.8411,3.27052,-0.245666,11.7533,22.9538,3.46502,-0.552858,21.7775,213,16.4455,21.1,0,161
-8.67869e-08,-7.66617e-07,-1.51863e-06,-2.78723e-05,-0.000259388,-0.00757911,24.4717,10.7355,-0.2647,12.5977,24.6928,10.7522,-0.502538,21.8611,213,14.6182,21.1,0,162
-4.37676e-08,-7.91997e-07,-1.49455e-06,-1.84756e-05,-0.000336463,-0.00969339,23.6329,10.7835,0.210232,12.002,23.9195,10.7916,-0.0844721,20.8185,213,12.7909,21.1,0,163
-1.40702e-08,-7.97672e-07,-1.51185e-06,-1.45928e-05,-0.000326632,-0.0100405,24.0562,13.26,-0.0211847,12.4526,24.4699,13.2604,-0.435307,21.6043,213,10.9636,21.1,0,164
1.36345e-08,-8.00964e-07,-1.48771e-06,-1.49858e-05,-0.000354392,-0.00887716,24.0077,8.82111,-0.0957515,12.2293,24.1853,8.82109,-0.273301,21.4125,213,9.13636,21.1,0,165
4.41143e-08,-7.91652e-07,-1.48812e-06,-1.93846e-05,-0.000348686,-0.00967277,23.603,10.9561,0.292689,11.9318,23.8749,10.9657,0.0112287,20.6896,213,7.30909,21.1,0,166
8.76587e-08,-7.66805e-07,-1.51802e-06,-2.76783e-05,-0.000274803,-0.00822564,24.2602,11.6246,-0.15834,12.489,24.5321,11.6402,-0.44585,21.6353,213,5.48182,21.1,0,167
1.65062e-07,-7.47548e-07,-1.50932e-06,-4.25566e-05,-0.000274821,-0.00659473,22.6299,5.65038,-0.043443,11.5754,22.8056,5.77644,-0.345248,20.7778,213,3.65455,21.1,0,168
2.72564e-07,-7.107e-07,-1.5014e-06,-7.8241e-05,-0.000250076,-0.00583878,18.2006,5.04496,-1.36511,10.2062,18.6371,5.0187,-1.77532,18.0039,213,1.82727,21.1,0,169
-3.58212e-07,-7.21662e-07,-1.50838e-06,-0.000115263,-0.000224826,-0.00785949,15.0002,6.87701,-0.135204,8.00428,15.0403,7.66995,-0.968253,13.8783,213,19.1864,21.1,0,170
-2.06341e-07,-7.19811e-07,-1.50542e-06,-5.84726e-05,-0.000227539,-0.00519766,21.4227,4.87543,1.57696,10.7422,22.1139,5.13171,0.629464,19.6246,213,17.3591,21.1,0,171
-1.21685e-07,-7.62617e-07,-1.51289e-06,-4.31351e-05,-0.00023406,-0.00530173,22.8099,4.04011,0.580367,11.539,22.9761,4.5561,-0.101869,21.1375,213,15.5318,21.1,0,172
-6.27747e-08,-7.86433e-07,-1.50396e-06,-2.35426e-05,-0.00024422,-0.00785837,23.6806,7.31924,-0.726656,12.2429,23.7021,7.35485,-0.783771,21.5989,213,13.7045,21.1,0,173
-2.8403e-08,-7.99617e-07,-1.50072e-06,-1.62522e-05,-0.000249453,-0.00788211,24.1696,6.87978,-0.986517,12.5789,24.1699,6.88099,-0.988004,22.2906,213,11.8773,21.1,0,174
-2.62588e-10,-8.05687e-07,-1.49778e-06,-1.51616e-05,-0.000250058,-0.00791678,24.18,6.76445,-1.16363,12.682,24.1895,6.76581,-1.17447,22.4718,213,10.05,21.1,0,175
2.7705e-08,-7.99905e-07,-1.48268e-06,-1.66804e-05,-0.000256421,-0.00781086,24.1268,6.35205,-0.542969,12.3462,24.1347,6.35899,-0.557788,22.0628,213,8.22273,21.1,0,176
6.36986e-08,-7.86933e-07,-1.50074e-06,-2.383e-05,-0.000243981,-0.00784749,23.6803,7.35803,-0.681608,12.2159,23.6962,7.39621,-0.735675,21.5492,213,6.39545,21.1,0,177
1.21919e-07,-7.61921e-07,-1.51366e-06,-4.23594e-05,-0.000235154,-0.00530191,22.7475,3.79746,0.250212,11.6825,22.9187,4.32288,-0.446357,21.3831,213,4.56818,21.1,0,178
2.06313e-07,-7.20612e-07,-1.5063e-06,-5.88315e-05,-0.000228236,-0.00526177,21.368,4.80332,1.69263,10.6233,22.0261,5.05818,0.779635,19.4632,213,2.74091,21.1,0,179
3.59626e-07,-7.1861e-07,-1.50276e-06,-0.000116721,-0.000224862,-0.0078306,14.8526,6.8348,-0.159287,7.93499,14.9024,7.59328,-0.967576,13.7581,213,0.913636,21.1,0,180
0,0,0,-0.000165756,-6.74033e-07,-0.0142868,22.8693,23.1017,2.99523,12.7804,25.7956,22.9359,0.234737,24.2578,213,20.1,1.91818,-0.1,181
0,0,0,1.54457e-08,-1.30809e-06,-0.0126305,26.0934,26.0916,8.3171,13.7451,30.9494,26.0936,3.45914,25.4127,213,20.1,3.83636,-0.1,182
0,0,0,-9.58489e-05,1.5804e-06,-0.0130986,25.0373,25.1745,6.73724,12.8386,28.7943,25.0376,3.11718,24.0201,213,20.1,5.75455,-0.1,183
0,0,0,-0.000134888,6.06465e-07,-0.0136387,24.0298,24.2205,5.0244,12.6969,27.3187,24.0313,1.92477,23.9202,213,20.1,7.67273,-0.1,184
0,0,0,-4.20791e-05,-7.83358e-07,-0.0126152,25.9911,26.0492,8.29554,12.9203,30.0925,25.9914,4.25193,24.0537,213,20.1,9.59091,-0.1,185
0,0,0,-4.03528e-05,5.57053e-07,-0.0129644,25.4252,25.4828,7.23583,13.0136,29.3726,25.4259,3.34538,24.2955,213,20.1,11.5091,-0.1,186
0,0,0,-0.000130981,-1.50479e-06,-0.013596,24.1083,24.2905,5.15753,12.6157,27.3388,24.11,2.10751,23.7819,213,20.1,13.4273,-0.1,187
0,0,0,-0.000131426,3.20469e-06,-0.0133963,24.4427,24.6322,5.77368,12.5073,27.7054,24.4523,2.69082,23.5571,213,20.1,15.3455,-0.1,188
0,0,0,-9.82228e-05,-7.37956e-06,-0.0133986,24.5228,24.6506,5.80374,12.9343,28.1584,24.5291,2.28968,24.2585,213,20.1,17.2636,-0.1,189
0,0,0,-0.000123757,-6.17535e-06,-0.0137799,23.8207,23.9862,4.60093,12.5054,26.7612,23.8963,1.75033,23.7086,213,20.1,19.1818,-0.1,190
0,0,0,3.27516e-09,1.65219e-10,-0.0123811,26.5051,26.5051,9.0799,16.4838,34.2763,26.5051,1.30868,29.8506,213,20.1,0.959091,-0.1,191
0,0,0,1.41262e-09,1.79967e-10,-0.0125605,26.2105,26.2105,8.53271,14.1212,31.4928,26.2105,3.25037,26.0068,213,20.1,2.87727,-0.1,192
0,0,0,1.41406e-09,1.00605e-10,-0.0127349,25.9241,25.9241,8.00092,14.3222,31.2848,25.9241,2.64026,26.3759,213,20.1,4.79545,-0.1,193
0,0,0,1.7868e-09,5.70291e-11,-0.0126637,26.041,26.041,8.21803,14.933,32.0625,26.041,2.19654,27.3568,213,20.1,6.71364,-0.1,194
0,0,0,1.5099e-09,4.36195e-11,-0.0124763,26.3487,26.3487,8.78942,14.525,32.094,26.3487,3.04409,26.6459,213,20.1,8.63182,-0.1,195
0,0,0,9.93482e-10,3.82046e-11,-0.0125631,26.2063,26.2063,8.5249,13.6872,31.0528,26.2063,3.67836,25.3018,213,20.1,10.55,-0.1,196
0,0,0,1.42201e-09,3.06997e-11,-0.0126382,26.083,26.083,8.29589,14.3995,31.5889,26.083,2.78998,26.4788,213,20.1,12.4682,-0.1,197
0,0,0,1.78382e-09,8.09089e-11,-0.0123916,26.4879,26.4879,9.04785,14.7884,32.5563,26.4879,2.97944,27.0579,213,20.1,14.3864,-0.1,198
0,0,0,1.38733e-09,1.34034e-10,-0.0126551,26.0551,26.0551,8.24415,14.153,31.3027,26.0551,2.9966,26.0813,213,20.1,16.3045,-0.1,199
0,0,0,9.15814e-10,1.29075e-10,-0.0132974,25.0005,25.0005,6.28567,13.3584,29.0015,25.0005,2.28469,24.958,213,20.1,18.2227,-0.1,200
0,0,0,2.65801e-09,1.24607e-10,-0.0136162,24.477,24.477,5.31339,15.2809,30.1761,24.477,-0.385662,28.1483,213,20.1,20.1409,-0.1,201
0,0,0,3.10857e-06,-0.000120132,-0.0149036,22.1754,22.002,1.19567,12.4631,24.1353,22.0288,-0.790998,23.9426,213,18.2727,21.1,-0.1,202
0,0,0,3.49215e-07,-0.000112485,-0.0148662,22.241,22.0822,1.31771,13.029,24.8075,22.084,-1.25055,24.8086,213,16.4455,21.1,-0.1,203
0,0,0,2.13764e-06,-0.000146492,-0.0150432,21.9,21.6908,0.725108,12.7368,24.0474,21.6948,-1.4263,24.3827,213,14.6182,21.1,-0.1,204
0,0,0,-5.98127e-07,-4.19121e-05,-0.0148203,22.4294,22.3713,1.57211,13.9484,25.9493,22.371,-1.94744,26.2908,213,12.7909,21.1,-0.1,205
0,0,0,1.19947e-06,-0.000118374,-0.0150159,21.988,21.8197,0.852795,13.6239,25.0444,21.8196,-2.20347,25.7871,213,10.9636,21.1,-0.1,206
0,0,0,-2.66255e-08,-0.000204069,-0.0147516,22.2777,21.9905,1.51625,13.3236,25.2205,21.9908,-1.4268,25.1882,213,9.13636,21.1,-0.1,207
0,0,0,-3.58065e-07,-5.87219e-05,-0.0147495,22.5186,22.4365,1.76051,13.9545,26.0943,22.436,-1.81466,26.2715,213,7.30909,21.1,-0.1,208
0,0,0,1.48166e-06,-9.9282e-05,-0.0151267,21.8383,21.6965,0.546786,13.2078,24.4005,21.6963,-2.01512,25.1726,213,5.48182,21.1,-0.1,209
0,0,0,-1.07586e-07,-3.61261e-09,-0.0149496,22.2873,22.2874,1.24726,14.0329,25.8003,22.2872,-2.26552,26.4846,213,3.65455,21.1,-0.1,210
0,0,0,2.35095e-06,-0.000162652,-0.0148407,22.2066,21.9743,1.31635,12.1691,23.918,21.9994,-0.420159,23.4378,213,1.82727,21.1,-0.1,211
0,0,0,1.40706e-10,2.33721e-09,-0.014823,22.4956,22.4956,1.63366,15.5287,27.5933,22.4956,-3.46406,28.8483,213,19.1864,21.1,-0.1,212
0,0,0,8.80204e-11,9.66107e-10,-0.0149403,22.303,22.303,1.27593,13.6016,25.391,22.303,-1.81211,25.7981,213,17.3591,21.1,-0.1,213
0,0,0,5.9037e-11,1.42722e-09,-0.0149613,22.2685,22.2685,1.21182,14.5235,26.2636,22.2685,-2.78333,27.2698,213,15.5318,21.1,-0.1,214
0,0,0,3.54054e-11,1.78654e-09,-0.0148206,22.4995,22.4995,1.64084,14.9881,27.0582,22.4995,-2.91789,27.9767,213,13.7045,21.1,-0.1,215
0,0,0,2.49028e-11,2.12312e-09,-0.014748,22.6187,22.6187,1.8623,15.3997,27.6402,22.6187,-3.15916,28.6209,213,11.8773,21.1,-0.1,216
0,0,0,2.22648e-11,2.61171e-09,-0.0146729,22.742,22.742,2.09131,15.9102,28.3269,22.742,-3.49357,29.4282,213,10.05,21.1,-0.1,217
0,0,0,2.42349e-11,2.4103e-09,-0.0145441,22.9534,22.9534,2.48387,15.6273,28.3459,22.9534,-2.90862,28.9376,213,8.22273,21.1,-0.1,218
0,0,0,3.55971e-11,1.85103e-09,-0.0147799,22.5663,22.5663,1.76487,15.0463,27.2119,22.5663,-2.88074,28.0598,213,6.39545,21.1,-0.1,219
0,0,0,6.05495e-11,1.42845e-09,-0.0149597,22.2711,22.2711,1.21668,14.5114,26.2553,22.2711,-2.76747,27.25,213,4.56818,21.1,-0.1,220
0,0,0,8.38701e-11,1.42726e-09,-0.0149096,22.3534,22.3534,1.36949,14.3795,26.241,22.3534,-2.51808,27.0258,213,2.74091,21.1,-0.1,221
0,0,0,1.42358e-10,2.34099e-09,-0.0147718,22.5797,22.5797,1.7898,15.4881,27.6728,22.5797,-3.3033,28.7697,213,0.913636,21.1,-0.1,222
-3.23933e-07,-4.71676e-07,-7.15855e-07,-0.000422775,-0.00038931,-0.014465,21.1549,21.202,1.39175,11.8718,23.2491,20.994,-0.494444,22.7002,213,20.1,21.1,-0.05,223
1.97963e-06,1.96738e-06,-1.88164e-06,-0.00160619,-0.00157877,-0.00192236,0.756572,0.83844,-0.187207,0.653141,1.11682,0.480445,-0.189461,1.1314,213,-0.1,0,0.51375,224
6.38457e-07,2.08335e-06,-2.49171e-06,-0.000208337,-0.00161552,-0.0024775,43.7549,15.6359,-0.83769,22.3034,43.7643,15.6313,-0.842503,39.068,213,1.74545,0,0.5025,225
3.32924e-07,2.25038e-06,-2.41804e-06,-9.84807e-05,-0.00165012,-0.00256224,38.9576,12.8326,-0.522519,19.7439,38.9646,12.8261,-0.523077,34.7901,213,3.59091,0,0.5025,226
1.7096e-07,2.21938e-06,-2.4574e-06,-6.72196e-05,-0.00155213,-0.0025501,51.6381,20.008,-0.608947,26.1352,51.6504,20.0067,-0.620005,45.6014,213,5.43636,0,0.5025,227
9.62851e-08,2.29252e-06,-2.43202e-06,-4.96621e-05,-0.00175791,-0.00250517,39.2655,10.5448,-0.563581,19.9156,39.2666,10.5448,-0.564658,35.6012,213,7.28182,0,0.5025,228
3.72783e-08,2.25031e-06,-2.43355e-06,-3.1934e-05,-0.00157548,-0.00260796,41.4064,15.443,-0.362647,20.8872,41.4092,15.4428,-0.365212,36.5325,213,9.12727,0,0.5025,229
-3.54308e-08,2.2662e-06,-2.43206e-06,-3.23679e-05,-0.00159894,-0.00259966,37.3086,13.4906,0.292903,18.5285,37.3291,13.491,0.272011,32.5286,213,10.9727,0,0.5025,230
-9.31468e-08,2.31773e-06,-2.42252e-06,-4.42093e-05,-0.00175344,-0.00251002,39.3582,10.617,-0.718879,20.0396,39.3593,10.6169,-0.719904,35.7841,213,12.8182,0,0.5025,231
-1.69291e-07,2.21845e-06,-2.44839e-06,-6.55732e-05,-0.00152303,-0.00261249,43.9832,17.7811,-0.511099,22.2495,43.9856,17.781,-0.513439,38.7398,213,14.6636,0,0.5025,232
-3.34617e-07,2.28792e-06,-2.40483e-06,-9.90971e-05,-0.00177355,-0.00248838,31.9757,8.454,-0.0431068,16.0207,31.994,8.43995,-0.0474036,28.7531,213,16.5091,0,0.5025,233
-6.31277e-07,2.05815e-06,-2.48633e-06,-0.000212367,-0.00158896,-0.00251497,36.5132,13.3781,-0.702031,18.6178,36.5297,13.3655,-0.705965,32.5659,213,18.3545,0,0.5025,234
1.01729e-06,2.1626e-06,-2.29052e-06,-0.000720659,-0.00186863,-0.00209438,21.3678,2.06248,-0.199694,10.7972,21.3874,2.05029,-0.207064,20.5589,213,0.822727,0,0.5025,235
4.56194e-07,2.21397e-06,-2.42582e-06,-0.000165559,-0.00164577,-0.00249768,37.5054,12.6128,-0.131436,18.8217,37.5116,12.6069,-0.131767,33.1628,213,2.66818,0,0.5025,236
2.48424e-07,2.21732e-06,-2.44479e-06,-8.77626e-05,-0.00156005,-0.00260387,40.1133,15.354,-0.369034,20.2722,40.1452,15.3523,-0.399275,35.4024,213,4.51364,0,0.5025,237
1.37109e-07,2.35137e-06,-2.41162e-06,-4.0464e-05,-0.00181187,-0.00245053,49.2943,11.332,-1.16831,25.2499,49.3117,11.3345,-1.18819,45.5485,213,6.35909,0,0.5025,238
5.87243e-08,2.3446e-06,-2.42018e-06,-3.19738e-05,-0.00170075,-0.00247443,52.0104,16.2453,1.16857,25.46,52.0511,16.2422,1.13106,45.2961,213,8.20455,0,0.5025,239
7.78055e-10,2.33298e-06,-2.42696e-06,-3.93988e-05,-0.00155448,-0.00259745,41.6675,16.1885,0.156733,20.7589,41.6711,16.1884,0.153273,36.2645,213,10.05,0,0.5025,240
-6.02896e-08,2.33675e-06,-2.41969e-06,-3.12744e-05,-0.00169807,-0.00247157,52.2192,16.4944,1.47266,25.4088,52.2574,16.489,1.43983,45.2122,213,11.8955,0,0.5025,241
-1.3802e-07,2.33649e-06,-2.41991e-06,-4.12601e-05,-0.00179063,-0.00245078,49.8673,12.3725,-0.461496,25.2017,49.9017,12.3783,-0.501645,45.3563,213,13.7409,0,0.5025,242
-2.51621e-07,2.22321e-06,-2.4489e-06,-8.95846e-05,-0.00161978,-0.0025423,39.7307,13.9975,-0.0139361,19.8809,39.7432,13.9896,-0.0185479,34.9319,213,15.5864,0,0.5025,243
-4.5864e-07,2.24481e-06,-2.40964e-06,-0.000160751,-0.00172652,-0.00245271,36.9501,10.6186,-0.0838747,18.5285,36.9691,10.6036,-0.0879217,33.0354,213,17.4318,0,0.5025,244
-9.99548e-07,2.14498e-06,-2.31364e-06,-0.000703022,-0.00186276,-0.00210691,21.8662,2.36294,-0.204948,11.0539,21.8956,2.34068,-0.212102,20.9483,213,19.2773,0,0.5025,245
6.37733e-07,2.09898e-06,-2.55066e-06,-0.000220399,-0.00159975,-0.00261879,7.01312,2.89564,-0.146265,3.58023,7.01385,2.89525,-0.146609,6.22446,213,1.74545,0,0.525,246
3.342e-07,2.25682e-06,-2.47911e-06,-9.77854e-05,-0.00162669,-0.00264426,7.60183,3.03794,0.000412843,3.8019,7.60401,3.03597,0.000204508,6.6295,213,3.59091,0,0.525,247
1.71143e-07,2.23914e-06,-2.51822e-06,-6.68931e-05,-0.00157241,-0.00273281,7.68333,3.18926,-0.274627,3.98153,7.68596,3.18909,-0.277093,6.91544,213,5.43636,0,0.525,248
9.62851e-08,2.30968e-06,-2.49084e-06,-4.89928e-05,-0.00177935,-0.00259197,7.58386,2.41861,-0.007131,3.79561,7.58398,2.41858,-0.00722833,6.71537,213,7.28182,0,0.525,249
3.70523e-08,2.26601e-06,-2.49447e-06,-3.02416e-05,-0.00159691,-0.0026995,7.9369,3.26026,-0.0310432,3.98405,7.93697,3.26028,-0.0311274,6.93525,213,9.12727,0,0.525,250
-3.51145e-08,2.28211e-06,-2.49276e-06,-3.30373e-05,-0.00160863,-0.00269129,7.90857,3.20532,-0.026511,3.96765,7.9087,3.20527,-0.0265932,6.91144,213,10.9727,0,0.525,251
-9.30361e-08,2.33456e-06,-2.48148e-06,-4.50447e-05,-0.00177082,-0.00259721,7.61863,2.46706,0.000230259,3.80939,7.61891,2.46689,0.000120684,6.73328,213,12.8182,0,0.525,252
-1.69477e-07,2.23291e-06,-2.5099e-06,-6.84148e-05,-0.00153283,-0.00272531,7.82328,3.4519,-0.10775,3.9659,7.82402,3.45119,-0.107779,6.88118,213,14.6636,0,0.525,253
-3.36166e-07,2.30445e-06,-2.4627e-06,-9.74888e-05,-0.00178501,-0.00256287,7.35965,2.32228,0.00030727,3.68136,7.36291,2.31914,0.000183471,6.52023,213,16.5091,0,0.525,254
-6.30725e-07,2.0739e-06,-2.54538e-06,-0.000207517,-0.00163149,-0.00261383,7.00755,2.75689,-0.175466,3.59271,7.00959,2.75522,-0.17583,6.25783,213,18.3545,0,0.525,255
1.02461e-06,2.18931e-06,-2.33939e-06,-0.000732824,-0.00189992,-0.00218207,4.29139,0.807517,-0.0347105,2.16456,4.29374,0.805842,-0.0353832,3.97582,213,0.822727,0,0.525,256
4.55127e-07,2.22769e-06,-2.48435e-06,-0.000164475,-0.00164005,-0.00261821,7.23148,2.82679,-0.0931057,3.66803,7.23764,2.82594,-0.0984196,6.39659,213,2.66818,0,0.525,257
2.48209e-07,2.22291e-06,-2.50657e-06,-8.83549e-05,-0.0015398,-0.00276122,7.56449,3.2318,-0.414223,3.98955,7.56476,3.23164,-0.414334,6.91863,213,4.51364,0,0.525,258
1.36747e-07,2.36917e-06,-2.4691e-06,-4.05631e-05,-0.00182444,-0.00257349,7.55141,2.22641,-0.00955432,3.78057,7.5515,2.22641,-0.00964314,6.72783,213,6.35909,0,0.525,259
5.89029e-08,2.36168e-06,-2.4793e-06,-3.20963e-05,-0.00171212,-0.00263179,7.77485,2.75984,0.0145724,3.8805,7.77555,2.75916,0.014553,6.81653,213,8.20455,0,0.525,260
7.92834e-10,2.34863e-06,-2.48787e-06,-3.91049e-05,-0.00156466,-0.00270266,7.97464,3.42075,0.0237345,3.97547,7.97467,3.42073,0.0237288,6.90997,213,10.05,0,0.525,261
-6.05383e-08,2.35415e-06,-2.47888e-06,-3.13858e-05,-0.00170971,-0.002634,7.77985,2.76993,0.0108454,3.88493,7.78069,2.76909,0.0108393,6.82256,213,11.8955,0,0.525,262
-1.37512e-07,2.35504e-06,-2.47757e-06,-4.14206e-05,-0.00180468,-0.00258548,7.57073,2.30725,-0.0234862,3.79722,7.57091,2.30711,-0.0235294,6.73851,213,13.7409,0,0.525,263
-2.52243e-07,2.23944e-06,-2.50851e-06,-9.03236e-05,-0.00163228,-0.0026462,7.62389,3.02103,-0.00559053,3.81554,7.62545,3.0195,-0.00561936,6.6558,213,15.5864,0,0.525,264
-4.57351e-07,2.26227e-06,-2.46702e-06,-0.000159612,-0.00173957,-0.00255697,7.13999,2.42368,-0.0163149,3.57955,7.14276,2.42095,-0.0163533,6.30431,213,17.4318,0,0.525,265
-1.00512e-06,2.16872e-06,-2.36285e-06,-0.000712418,-0.0018894,-0.00219908,4.39644,0.883057,-0.0413411,2.22145,4.4009,0.879249,-0.0419951,4.06141,213,19.2773,0,0.525,266
-1.93745e-06,1.93058e-06,-2.03266e-06,-0.00158687,-0.00156557,-0.00193586,0.874593,0.938154,-0.167195,0.722938,1.27468,0.542059,-0.171191,1.2522,213,20.2,0,0.51375,267
1.83711e-06,-1.72457e-06,-2.2417e-06,-0.00159473,-0.0015515,-0.00194171,0.852222,0.981268,-0.183543,0.732997,1.27983,0.556276,-0.186162,1.26962,213,-0.1,19.5,0.51375,268
2.16832e-06,-4.86349e-07,-2.41631e-06,-0.00172613,-0.000128719,-0.00248703,10.6017,37.4523,-0.699531,19.0804,37.4571,10.6009,-0.703626,33.9507,213,-0.1,17.55,0.5025,269
2.24572e-06,-2.39298e-07,-2.42833e-06,-0.00164957,-8.15075e-05,-0.00255647,11.945,35.5891,-0.194311,17.9005,35.5997,11.9413,-0.201259,31.5347,213,-0.1,15.6,0.5025,270
2.31033e-06,-9.78822e-08,-2.37983e-06,-0.00166297,-4.76832e-05,-0.00254933,13.1623,40.3296,-0.18926,20.2642,40.3352,13.1606,-0.19315,35.7724,213,-0.1,13.65,0.5025,271
2.27757e-06,-4.81026e-08,-2.42687e-06,-0.00155962,-3.24941e-05,-0.00258613,15.1828,38.3191,1.64592,18.3673,38.3497,15.183,1.61514,32.173,213,-0.1,11.7,0.5025,272
2.35688e-06,1.689e-08,-2.37612e-06,-0.00153339,-2.78635e-05,-0.00261962,15.4298,38.1621,0.69373,18.7606,38.1885,15.4298,0.667333,32.7393,213,-0.1,9.75,0.5025,273
2.28197e-06,8.03556e-08,-2.42084e-06,-0.00157068,-3.7068e-05,-0.00262504,13.8921,36.9712,-0.721923,18.8472,36.9725,13.8909,-0.722002,32.9179,213,-0.1,7.8,0.5025,274
2.2866e-06,1.5032e-07,-2.42057e-06,-0.00167636,-6.1396e-05,-0.00257082,9.78218,30.6415,-0.166246,15.4066,30.6442,9.78221,-0.169007,27.237,213,-0.1,5.85,0.5025,275
2.2354e-06,3.25475e-07,-2.3957e-06,-0.00163376,-8.75662e-05,-0.00252132,15.3457,44.9146,-0.198752,22.5616,44.9204,15.344,-0.202853,39.7025,213,-0.1,3.9,0.5025,276
2.18498e-06,6.2855e-07,-2.41526e-06,-0.00168785,-0.000184622,-0.00243756,14.36,46.2223,-0.725841,23.4785,46.227,14.3595,-0.730051,41.5222,213,-0.1,1.95,0.5025,277
2.15787e-06,-7.99904e-07,-2.33524e-06,-0.00191389,-0.000631882,-0.00211619,1.68764,23.2471,-0.184524,11.7317,23.2731,1.66746,-0.190308,22.5918,213,-0.1,18.525,0.5025,278
2.2937e-06,-3.39732e-07,-2.39289e-06,-0.0017265,-0.000126692,-0.00247412,10.7384,37.6422,-0.426128,19.0382,37.6481,10.7346,-0.428281,33.9025,213,-0.1,16.575,0.5025,279
2.35654e-06,-1.63935e-07,-2.38872e-06,-0.00162867,-7.25205e-05,-0.00250448,17.7009,51.0473,0.305413,25.3811,51.058,17.6999,0.295757,44.6793,213,-0.1,14.625,0.5025,280
2.35294e-06,-7.33611e-08,-2.4027e-06,-0.00171412,-2.55277e-05,-0.00255534,13.1779,49.3466,-4.11919,26.8119,49.4259,13.1773,-4.1979,47.3887,213,-0.1,12.675,0.5025,281
2.34481e-06,-1.32246e-08,-2.38834e-06,-0.00150952,-3.33292e-05,-0.00262176,17.4888,42.3138,0.35062,20.9896,42.3235,17.4854,0.344324,36.5582,213,-0.1,10.725,0.5025,282
2.34341e-06,4.64028e-08,-2.38613e-06,-0.00152313,-3.25462e-05,-0.00253531,23.0076,54.9702,3.13492,26.0552,55.1088,23.0055,2.99839,45.5325,213,-0.1,8.775,0.5025,283
2.347e-06,1.17708e-07,-2.40515e-06,-0.00173643,-3.58787e-05,-0.0025175,11.2303,39.8284,-0.512316,20.1714,39.8299,11.2294,-0.512883,35.9403,213,-0.1,6.825,0.5025,284
2.32715e-06,2.34621e-07,-2.39854e-06,-0.00162124,-8.98225e-05,-0.00253943,13.9808,39.7344,0.0296212,19.8554,39.7375,13.9806,0.0266933,34.8932,213,-0.1,4.875,0.5025,285
2.23792e-06,4.38883e-07,-2.38303e-06,-0.00164161,-0.000155422,-0.00246956,15.8821,47.7281,-0.624258,24.1815,47.7356,15.8777,-0.627375,42.5813,213,-0.1,2.925,0.5025,286
2.19097e-06,9.92592e-07,-2.2586e-06,-0.00190741,-0.000681194,-0.00209361,1.4362,22.0575,-0.16096,11.1211,22.0763,1.4223,-0.165897,21.4922,213,-0.1,0.975,0.5025,287
2.1846e-06,-4.85855e-07,-2.4751e-06,-0.00167695,-0.000146183,-0.00261228,2.67642,7.24587,-0.115616,3.68112,7.24641,2.67611,-0.115843,6.4376,213,-0.1,17.55,0.525,288
2.26113e-06,-2.39187e-07,-2.48785e-06,-0.00166831,-8.21479e-05,-0.00263227,2.86927,7.6041,-0.00822038,3.80627,7.6042,2.86928,-0.00833445,6.65774,213,-0.1,15.6,0.525,289
2.32741e-06,-9.86053e-08,-2.43964e-06,-0.00168537,-4.52438e-05,-0.00264522,2.84027,7.73616,-0.0249597,3.8807,7.73635,2.84018,-0.0250524,6.79784,213,-0.1,13.65,0.525,290
2.29356e-06,-4.74782e-08,-2.48803e-06,-0.00157845,-3.35884e-05,-0.00270759,3.33766,7.9492,-0.0328916,3.99119,7.94936,3.33764,-0.0330278,6.94075,213,-0.1,11.7,0.525,291
2.37238e-06,1.68776e-08,-2.43741e-06,-0.00154225,-2.73958e-05,-0.00272503,3.5249,8.04684,-0.00579206,4.02638,8.04691,3.52489,-0.00585483,6.99149,213,-0.1,9.75,0.525,292
2.2975e-06,7.9671e-08,-2.48187e-06,-0.00159441,-3.8201e-05,-0.00269885,3.25248,7.89789,-0.0443406,3.97122,7.89796,3.25254,-0.0444717,6.91131,213,-0.1,7.8,0.525,293
2.30247e-06,1.50754e-07,-2.48012e-06,-0.0016961,-6.03615e-05,-0.00263236,2.76702,7.64983,-0.0277764,3.8389,7.64991,2.76705,-0.0278905,6.73062,213,-0.1,5.85,0.525,294
2.25135e-06,3.25505e-07,-2.45524e-06,-0.00164014,-8.89111e-05,-0.00265463,2.95036,7.5809,-0.0779643,3.82995,7.58179,2.94961,-0.0781037,6.682,213,-0.1,3.9,0.525,295
2.20148e-06,6.27563e-07,-2.47332e-06,-0.00169031,-0.000189727,-0.00258221,2.55142,7.03077,-0.110968,3.57117,7.03101,2.55155,-0.111336,6.25179,213,-0.1,1.95,0.525,296
2.18351e-06,-8.01889e-07,-2.38471e-06,-0.00194486,-0.000637922,-0.00220711,0.752435,4.65373,-0.030407,2.34441,4.65773,0.749106,-0.0310811,4.3515,213,-0.1,18.525,0.525,297
2.31066e-06,-3.39992e-07,-2.4505e-06,-0.00173878,-0.000126495,-0.00257132,2.48813,7.30092,0.00294573,3.64935,7.30164,2.48742,0.00294032,6.4273,213,-0.1,16.575,0.525,298
2.37287e-06,-1.63337e-07,-2.44839e-06,-0.00163923,-7.20929e-05,-0.00264904,3.02706,7.70508,0.0127092,3.8463,7.70528,3.02689,0.0126808,6.71375,213,-0.1,14.625,0.525,299
2.37141e-06,-7.39563e-08,-2.46156e-06,-0.00173102,-2.62187e-05,-0.00262981,2.66838,7.75735,-0.0145724,3.88609,7.75758,2.66816,-0.0145875,6.83762,213,-0.1,12.675,0.525,300
2.36125e-06,-1.26194e-08,-2.44988e-06,-0.00152114,-3.30027e-05,-0.00273118,3.6176,8.05978,0.00553363,4.02742,8.06038,3.617,0.00553117,6.98809,213,-0.1,10.725,0.525,301
2.35926e-06,4.59565e-08,-2.44756e-06,-0.00153044,-3.22014e-05,-0.00272609,3.57895,8.05131,0.00983804,4.02098,8.05179,3.57848,0.00982857,6.97922,213,-0.1,8.775,0.525,302
2.3651e-06,1.17704e-07,-2.46358e-06,-0.00175125,-3.64524e-05,-0.00261195,2.56809,7.68687,-0.00116523,3.84411,7.68705,2.56792,-0.00117119,6.77918,213,-0.1,6.825,0.525,303
2.343e-06,2.34978e-07,-2.45809e-06,-0.00163156,-8.96154e-05,-0.00264344,3.03642,7.63925,0.015882,3.8117,7.63928,3.03639,0.0158788,6.6493,213,-0.1,4.875,0.525,304
2.25514e-06,4.38798e-07,-2.44154e-06,-0.00165386,-0.0001549,-0.00259935,2.83196,7.30646,0.00958846,3.64876,7.30711,2.83131,0.00958732,6.37373,213,-0.1,2.925,0.525,305
2.21965e-06,9.98547e-07,-2.30757e-06,-0.00194096,-0.000692089,-0.0021809,0.687761,4.41573,-0.0284632,2.22342,4.41804,0.685777,-0.028793,4.13611,213,-0.1,0.975,0.525,306
-2.17331e-06,6.28066e-07,-2.40365e-06,-0.00167506,-0.000187003,-0.00247981,11.4681,36.4778,-0.565301,18.5275,36.4862,11.4633,-0.568844,32.7414,213,20.2,1.95,0.5025,307
-2.23578e-06,3.27659e-07,-2.3953e-06,-0.00163345,-8.96533e-05,-0.00255654,12.2491,35.5837,-0.0797699,17.8351,35.5869,12.2493,-0.0832408,31.3775,213,20.2,3.9,0.5025,308
-2.28627e-06,1.58047e-07,-2.43601e-06,-0.00165496,-5.96791e-05,-0.00254368,13.3025,40.1293,-0.1273,20.1345,40.1378,13.2979,-0.131135,35.5127,213,20.2,5.85,0.5025,309
-2.24913e-06,7.82943e-08,-2.47641e-06,-0.00151538,-3.7677e-05,-0.00262923,16.8611,41.7064,-0.519315,21.1162,41.7127,16.8552,-0.51972,36.7653,213,20.2,7.8,0.5025,310
-2.34566e-06,1.53595e-08,-2.42921e-06,-0.00150473,-2.67395e-05,-0.00263124,17.6913,42.5434,0.388526,21.0936,42.5596,17.6913,0.37231,36.7297,213,20.2,9.75,0.5025,311
-2.24992e-06,-4.43732e-08,-2.48588e-06,-0.00152639,-3.36324e-05,-0.0026112,17.7389,42.8377,1.65305,20.6185,42.8644,17.7379,1.62742,35.9956,213,20.2,11.7,0.5025,312
-2.31394e-06,-1.03045e-07,-2.39219e-06,-0.00164411,-4.60225e-05,-0.00256534,13.5223,40.3897,-0.479319,20.4424,40.4025,13.5124,-0.482199,35.9895,213,20.2,13.65,0.5025,313
-2.24957e-06,-2.39924e-07,-2.42157e-06,-0.00165085,-8.14263e-05,-0.00255593,11.8886,35.5497,-0.262654,17.9137,35.5585,11.8861,-0.268931,31.5573,213,20.2,15.6,0.5025,314
-2.16806e-06,-4.84856e-07,-2.41416e-06,-0.00172457,-0.000126111,-0.00248935,10.6589,37.5277,-0.708033,19.1229,37.5344,10.6557,-0.711478,34.0178,213,20.2,17.55,0.5025,315
-2.17144e-06,9.7907e-07,-2.28634e-06,-0.00190462,-0.000663685,-0.00210455,1.65631,22.5251,-0.167563,11.3629,22.5534,1.63284,-0.172375,21.8791,213,20.2,0.975,0.5025,316
-2.25435e-06,4.40222e-07,-2.36866e-06,-0.00164983,-0.000154054,-0.00246421,15.6907,47.742,-0.507347,24.1295,47.7487,15.6869,-0.510254,42.5395,213,20.2,2.925,0.5025,317
-2.32373e-06,2.38039e-07,-2.40804e-06,-0.00161532,-8.69798e-05,-0.00254371,14.1594,39.8614,0.0355131,19.9157,39.8642,14.1594,0.032707,34.9775,213,20.2,4.875,0.5025,318
-2.30459e-06,1.18335e-07,-2.46245e-06,-0.00167603,-4.08982e-05,-0.00255372,12.7688,40.2666,-0.433523,20.3525,40.2702,12.7663,-0.434678,35.9696,213,20.2,6.825,0.5025,319
-2.32401e-06,4.44148e-08,-2.44059e-06,-0.00148662,-3.2274e-05,-0.00263175,18.512,42.9633,1.16223,20.9503,43.0158,18.5067,1.11512,36.4611,213,20.2,8.775,0.5025,320
-2.32501e-06,-1.24201e-08,-2.44425e-06,-0.00148125,-3.06319e-05,-0.00263624,18.2123,42.6073,0.309725,21.1558,42.6171,18.2067,0.305509,36.7872,213,20.2,10.725,0.5025,321
-2.3073e-06,-7.48717e-08,-2.46499e-06,-0.00166148,-3.00877e-05,-0.00258721,11.9988,39.4255,-2.84455,21.1697,39.462,11.9952,-2.87745,37.2038,213,20.2,12.675,0.5025,322
-2.35732e-06,-1.66056e-07,-2.3878e-06,-0.00162332,-7.01942e-05,-0.00256281,13.9974,40.1107,-0.181905,20.1525,40.1172,13.9968,-0.187816,35.4117,213,20.2,14.625,0.5025,323
-2.29856e-06,-3.3963e-07,-2.38136e-06,-0.00172808,-0.000125605,-0.00247412,10.7019,37.6506,-0.43693,19.0475,37.6562,10.6982,-0.438811,33.9264,213,20.2,16.575,0.5025,324
-2.14875e-06,-7.93592e-07,-2.35775e-06,-0.00191297,-0.000623953,-0.00212025,1.79328,23.4706,-0.159233,11.8321,23.5004,1.76794,-0.163703,22.7599,213,20.2,18.525,0.5025,325
-5.57661e-07,-1.77128e-06,-2.67465e-06,-0.000197204,-0.00156673,-0.0025768,26.9953,9.77806,-0.657243,13.8349,27.0087,9.76856,-0.661144,24.2035,213,18.3545,19.5,0.5025,326
-2.71836e-07,-1.94614e-06,-2.63076e-06,-8.10719e-05,-0.00174658,-0.00248059,38.8563,10.8496,0.0140742,19.4283,38.8654,10.8458,0.00880208,34.7302,213,16.5091,19.5,0.5025,327
-1.25417e-07,-1.85486e-06,-2.68006e-06,-5.85459e-05,-0.00149239,-0.00265751,37.57,15.7541,-0.694119,19.1386,37.5819,15.7435,-0.695402,33.2589,213,14.6636,19.5,0.5025,328
-7.72406e-08,-1.93839e-06,-2.65191e-06,-4.081e-05,-0.00175047,-0.00252349,34.4908,9.80742,-0.0593497,17.2795,34.4952,9.80736,-0.0637216,30.8322,213,12.8182,19.5,0.5025,329
-3.4377e-08,-1.87518e-06,-2.68822e-06,-2.92312e-05,-0.00151931,-0.0026,51.7733,21.0505,-0.272681,26.0383,51.7901,21.0476,-0.286546,45.3443,213,10.9727,19.5,0.5025,330
3.14077e-08,-1.89235e-06,-2.67635e-06,-2.65635e-05,-0.00153969,-0.00261711,42.1481,16.8183,0.168922,21.0104,42.1696,16.8171,0.148669,36.6493,213,9.12727,19.5,0.5025,331
7.46073e-08,-1.96223e-06,-2.64828e-06,-3.80758e-05,-0.00172352,-0.00255844,30.7932,9.06552,-0.0826108,15.4414,30.7969,9.06511,-0.0859453,27.4752,213,7.28182,19.5,0.5025,332
1.25998e-07,-1.84583e-06,-2.68222e-06,-5.47778e-05,-0.00147633,-0.00265446,41.5186,17.6179,-0.696367,21.1105,41.523,17.615,-0.697863,36.6712,213,5.43636,19.5,0.5025,333
2.75607e-07,-1.9527e-06,-2.62645e-06,-7.65177e-05,-0.00172434,-0.00252463,32.8173,9.6708,-0.0398727,16.4333,32.8222,9.67055,-0.0445077,29.2455,213,3.59091,19.5,0.5025,334
5.6626e-07,-1.81508e-06,-2.65763e-06,-0.000185716,-0.00161542,-0.00251388,36.9823,12.9509,-0.661092,18.8287,36.9902,12.949,-0.667129,33.0261,213,1.74545,19.5,0.5025,335
-9.08646e-07,-1.87391e-06,-2.50782e-06,-0.000684208,-0.00186047,-0.00211896,22.3483,2.56725,-0.239461,11.317,22.3888,2.53257,-0.245251,21.3809,213,19.2773,19.5,0.5025,336
-3.81512e-07,-1.89504e-06,-2.63853e-06,-0.000154879,-0.00167519,-0.00248087,37.5697,12.0028,-0.0390315,18.8212,37.5991,11.9776,-0.0432811,33.301,213,17.4318,19.5,0.5025,337
-1.98627e-07,-1.86939e-06,-2.67059e-06,-7.93394e-05,-0.0015866,-0.00256497,40.279,14.9316,-0.0171369,20.156,40.2896,14.9262,-0.0223136,35.2974,213,15.5864,19.5,0.5025,338
-1.07243e-07,-2.00044e-06,-2.62404e-06,-2.61055e-05,-0.00179201,-0.00254954,28.7948,7.25208,-0.661125,14.7286,28.7955,7.25177,-0.661564,26.4053,213,13.7409,19.5,0.5025,339
-4.62077e-08,-1.99019e-06,-2.6501e-06,-2.32264e-05,-0.00166674,-0.00255073,41.1165,13.4777,0.181509,20.4766,41.1282,13.4725,0.175058,36.1858,213,11.8955,19.5,0.5025,340
-2.96552e-10,-1.96836e-06,-2.67239e-06,-3.56467e-05,-0.00150009,-0.00262546,42.2834,17.656,0.247682,21.022,42.2876,17.6559,0.243619,36.5897,213,10.05,19.5,0.5025,341
4.76293e-08,-1.97394e-06,-2.65632e-06,-2.34084e-05,-0.00165974,-0.00258808,30.0968,10.1227,0.158816,14.98,30.1099,10.1184,0.149976,26.4257,213,8.20455,19.5,0.5025,342
1.09389e-07,-1.97672e-06,-2.64134e-06,-2.78472e-05,-0.00176019,-0.00252417,39.6755,10.5428,-0.804803,20.2419,39.6784,10.5405,-0.805412,36.171,213,6.35909,19.5,0.5025,343
1.98018e-07,-1.88357e-06,-2.66843e-06,-8.10679e-05,-0.00157738,-0.00256861,40.3139,15.1506,-0.0194281,20.1764,40.3282,15.1415,-0.0245704,35.3038,213,4.51364,19.5,0.5025,344
3.78751e-07,-1.86409e-06,-2.64413e-06,-0.000157495,-0.00160609,-0.00251253,38.1493,13.7884,0.0484216,19.0645,38.1723,13.7705,0.0433737,33.4492,213,2.66818,19.5,0.5025,345
9.14452e-07,-1.88051e-06,-2.49163e-06,-0.000683961,-0.00186943,-0.00211521,22.2508,2.31493,-0.289443,11.2947,22.2931,2.27938,-0.296217,21.418,213,0.822727,19.5,0.5025,346
-2.19047e-06,6.27072e-07,-2.46173e-06,-0.00173436,-0.000173437,-0.00256576,2.38409,7.04355,-0.0977047,3.57113,7.04393,2.38432,-0.0983192,6.28042,213,20.2,1.95,0.525,347
-2.25167e-06,3.27914e-07,-2.45479e-06,-0.00164665,-8.91044e-05,-0.00263952,2.95763,7.607,-0.00618139,3.8067,7.6071,2.95765,-0.00629974,6.64703,213,20.2,3.9,0.525,348
-2.30122e-06,1.58923e-07,-2.49572e-06,-0.00165663,-6.03021e-05,-0.00265445,2.94016,7.70531,-0.0384207,3.87255,7.70664,2.93888,-0.0384675,6.76693,213,20.2,5.85,0.525,349
-2.26375e-06,7.77377e-08,-2.53757e-06,-0.00154946,-3.9217e-05,-0.00267454,3.60312,8.11132,0.244689,3.93601,8.11406,3.60302,0.242045,6.84158,213,20.2,7.8,0.525,350
-2.35882e-06,1.54034e-08,-2.49099e-06,-0.00151108,-2.58983e-05,-0.00274343,3.66316,8.09655,-0.0154677,4.05645,8.09699,3.66316,-0.0159101,7.0361,213,20.2,9.75,0.525,351
-2.26184e-06,-4.32697e-08,-2.54767e-06,-0.00151189,-3.47916e-05,-0.00274677,3.61939,8.02863,-0.0668411,4.04835,8.02985,3.61818,-0.0668482,7.02135,213,20.2,11.7,0.525,352
-2.32982e-06,-1.04312e-07,-2.45218e-06,-0.00166208,-4.35928e-05,-0.00265663,2.95272,7.78402,-0.0160818,3.90092,7.78561,2.95128,-0.0162286,6.82076,213,20.2,13.65,0.525,353
-2.26531e-06,-2.39853e-07,-2.48106e-06,-0.00167013,-8.19002e-05,-0.00263141,2.86162,7.6026,-0.00787772,3.80534,7.60268,2.86167,-0.00800222,6.65713,213,20.2,15.6,0.525,354
-2.18451e-06,-4.84069e-07,-2.47299e-06,-0.00167467,-0.000143229,-0.0026153,2.69025,7.26172,-0.117581,3.69022,7.26262,2.68958,-0.11781,6.45232,213,20.2,17.55,0.525,355
-2.19694e-06,9.83291e-07,-2.33562e-06,-0.00193338,-0.000672336,-0.00219621,0.74854,4.51284,-0.0360356,2.27681,4.51728,0.744395,-0.0363314,4.21779,213,20.2,0.975,0.525,356
-2.27207e-06,4.40284e-07,-2.42707e-06,-0.00166217,-0.000153413,-0.00259581,2.79673,7.30049,0.00976266,3.64569,7.30113,2.79609,0.00975676,6.37272,213,20.2,2.925,0.525,357
-2.33895e-06,2.38572e-07,-2.46771e-06,-0.00162489,-8.66611e-05,-0.00264818,3.07185,7.66358,0.0172616,3.82317,7.66359,3.07185,0.0172548,6.66637,213,20.2,4.875,0.525,358
-2.31865e-06,1.18664e-07,-2.52216e-06,-0.00168872,-4.16333e-05,-0.00270342,2.64645,7.56314,-0.382493,3.98097,7.57152,2.646,-0.390419,6.95964,213,20.2,6.825,0.525,359
-2.3388e-06,4.39326e-08,-2.50218e-06,-0.00149996,-3.1966e-05,-0.00273446,3.74082,8.1229,0.0557525,4.03413,8.12391,3.7399,0.0556606,6.99607,213,20.2,8.775,0.525,360
-2.33795e-06,-1.17812e-08,-2.506e-06,-0.00148683,-3.00885e-05,-0.00273076,3.83935,8.18784,0.126118,4.03581,8.1933,3.83832,0.121688,6.99751,213,20.2,10.725,0.525,361
-2.32302e-06,-7.60958e-08,-2.52453e-06,-0.00167115,-3.13033e-05,-0.00266497,2.90936,7.80443,-0.057271,3.93141,7.80535,2.90864,-0.0574745,6.87749,213,20.2,12.675,0.525,362
-2.37345e-06,-1.65744e-07,-2.44759e-06,-0.00163347,-6.9508e-05,-0.00265546,3.05034,7.71889,-0.000366704,3.85975,7.71901,3.05036,-0.00050291,6.73405,213,20.2,14.625,0.525,363
-2.31598e-06,-3.39869e-07,-2.43896e-06,-0.00174079,-0.000125238,-0.00257098,2.48078,7.30333,0.00260725,3.65072,7.30404,2.48008,0.00260482,6.43115,213,20.2,16.575,0.525,364
-2.17292e-06,-7.95104e-07,-2.40735e-06,-0.00194155,-0.000629706,-0.00221319,0.779573,4.69552,-0.0312918,2.36611,4.70028,0.775452,-0.031935,4.38464,213,20.2,18.525,0.525,365
-5.57947e-07,-1.78116e-06,-2.73426e-06,-0.000187947,-0.00162298,-0.00262695,7.11339,2.82972,-0.167224,3.64187,7.11571,2.82819,-0.168016,6.34085,213,18.3545,19.5,0.525,366
-2.7277e-07,-1.95694e-06,-2.68916e-06,-7.96321e-05,-0.00175534,-0.00260393,7.43346,2.43136,-0.101768,3.76805,7.43425,2.43065,-0.101847,6.64238,213,16.5091,19.5,0.525,367
-1.25226e-07,-1.86357e-06,-2.74217e-06,-6.00412e-05,-0.00149523,-0.00275237,7.90826,3.62411,-0.128548,4.01966,7.91069,3.62175,-0.128624,6.96746,213,14.6636,19.5,0.525,368
-7.74013e-08,-1.94969e-06,-2.71097e-06,-4.32556e-05,-0.00173032,-0.00259937,7.75124,2.71521,0.121061,3.81656,7.75284,2.71495,0.119724,6.72235,213,12.8182,19.5,0.525,369
-3.43843e-08,-1.88428e-06,-2.74978e-06,-2.81463e-05,-0.0015304,-0.00275258,7.99241,3.50806,-0.140226,4.06633,7.99243,3.50806,-0.14024,7.05549,213,10.9727,19.5,0.525,370
3.12505e-08,-1.90173e-06,-2.73777e-06,-2.83666e-05,-0.00153759,-0.00274409,7.9952,3.49006,-0.111423,4.05379,7.99611,3.4892,-0.111465,7.03597,213,9.12727,19.5,0.525,371
7.48623e-08,-1.97292e-06,-2.70754e-06,-4.06875e-05,-0.00174652,-0.00261185,7.6761,2.58408,0.000985625,3.83847,7.67734,2.58344,0.000390459,6.76593,213,7.28182,19.5,0.525,372
1.2592e-07,-1.85443e-06,-2.7444e-06,-5.2841e-05,-0.00149159,-0.00276576,7.92165,3.62687,-0.176625,4.04937,7.92186,3.62691,-0.176874,7.018,213,5.43636,19.5,0.525,373
2.76129e-07,-1.96376e-06,-2.68495e-06,-7.5194e-05,-0.00173345,-0.00260097,7.53958,2.58955,-6.00283e-05,3.76998,7.53976,2.58951,-0.000199344,6.63561,213,3.59091,19.5,0.525,374
5.66651e-07,-1.82522e-06,-2.71688e-06,-0.00020028,-0.0015848,-0.00263679,7.12736,2.99448,-0.145805,3.63792,7.12966,2.99255,-0.146177,6.32081,213,1.74545,19.5,0.525,375
-9.13483e-07,-1.89268e-06,-2.55726e-06,-0.000692156,-0.00188482,-0.00221328,4.49067,0.930478,-0.0499861,2.27401,4.49717,0.924844,-0.0508484,4.14716,213,19.2773,19.5,0.525,376
-3.80858e-07,-1.90635e-06,-2.69659e-06,-0.000154528,-0.00168449,-0.00258683,7.25131,2.68426,-0.00928009,3.63258,7.25586,2.67973,-0.00929816,6.36217,213,17.4318,19.5,0.525,377
-1.99415e-07,-1.88007e-06,-2.73074e-06,-7.99488e-05,-0.00159627,-0.00267051,7.72484,3.19851,-0.0081887,3.86706,7.72592,3.19744,-0.00819933,6.73052,213,15.5864,19.5,0.525,378
-1.0666e-07,-2.01458e-06,-2.68154e-06,-2.59149e-05,-0.00180819,-0.00259879,7.61287,2.29266,-0.0673584,3.84019,7.61299,2.29257,-0.0673853,6.81412,213,13.7409,19.5,0.525,379
-4.67628e-08,-2.00087e-06,-2.70981e-06,-2.33095e-05,-0.00167701,-0.00271208,7.68567,2.74926,-0.340504,4.01585,7.68892,2.74827,-0.34277,7.01686,213,11.8955,19.5,0.525,380
-2.12308e-10,-1.97755e-06,-2.73398e-06,-3.55655e-05,-0.0015066,-0.0027331,8.08403,3.69289,0.0316938,4.0262,8.08408,3.69287,0.0316698,6.98314,213,10.05,19.5,0.525,381
4.80121e-08,-1.9846e-06,-2.71616e-06,-2.36318e-05,-0.00166565,-0.00266674,7.86349,2.96195,-0.0263943,3.94559,7.86472,2.96079,-0.0264593,6.90083,213,8.20455,19.5,0.525,382
1.08818e-07,-1.98814e-06,-2.69978e-06,-2.76667e-05,-0.00176861,-0.00264216,7.59008,2.39324,-0.21437,3.90266,7.59062,2.39302,-0.214695,6.88252,213,6.35909,19.5,0.525,383
1.98893e-07,-1.8941e-06,-2.72864e-06,-8.13928e-05,-0.00158709,-0.00267396,7.73416,3.23955,-0.00484593,3.87041,7.73595,3.23778,-0.00486535,6.73307,213,4.51364,19.5,0.525,384
3.78286e-07,-1.87533e-06,-2.70315e-06,-0.000157424,-0.00161572,-0.00261826,7.3519,2.99878,0.00613434,3.67453,7.35516,2.99554,0.00610875,6.40123,213,2.66818,19.5,0.525,385
9.19467e-07,-1.90057e-06,-2.54099e-06,-0.000692679,-0.00189605,-0.00220683,4.47226,0.880103,-0.0476042,2.26383,4.47919,0.874024,-0.0484575,4.14414,213,0.822727,19.5,0.525,386
-1.82821e-06,-1.70719e-06,-2.28444e-06,-0.00159058,-0.00154914,-0.00194591,0.871977,0.995678,-0.188695,0.756206,1.32021,0.550957,-0.192205,1.30985,213,20.2,19.5,0.51375,387
1.96034e-06,1.94941e-06,-1.84494e-06,-0.00158251,-0.00155652,-0.00172065,2.49884,3.29556,-1.73478,3.82533,5.90587,-0.101461,-1.74479,6.97571,213,-0.1,0,0.49375,388
6.39062e-07,2.07189e-06,-2.44958e-06,-0.000212204,-0.00158567,-0.00253084,33.1495,11.9157,-0.790113,17.0685,33.2496,11.9129,-0.887434,29.8701,213,1.74545,0,0.485,389
3.32206e-07,2.2396e-06,-2.37549e-06,-9.90459e-05,-0.00165204,-0.00257112,32.6808,10.9028,-0.420008,16.6721,32.8046,10.8984,-0.539478,29.3474,213,3.59091,0,0.485,390
1.70961e-07,2.20713e-06,-2.41376e-06,-6.63468e-05,-0.00154945,-0.00258269,36.0721,13.835,-0.143476,18.2965,36.2631,13.8304,-0.329844,31.9592,213,5.43636,0,0.485,391
9.62929e-08,2.27957e-06,-2.3901e-06,-4.94953e-05,-0.0017577,-0.0024784,39.5934,10.872,0.0591452,19.918,39.7444,10.8717,-0.0915351,35.6422,213,7.28182,0,0.485,392
3.74796e-08,2.2382e-06,-2.38997e-06,-2.95708e-05,-0.00158046,-0.00258588,41.5583,15.4811,-0.0962094,20.9668,41.6978,15.4812,-0.235832,36.6931,213,9.12727,0,0.485,393
-3.56993e-08,2.25389e-06,-2.38866e-06,-3.40681e-05,-0.00158082,-0.00256854,50.5834,18.6076,-1.01028,25.8419,50.6308,18.6028,-1.05297,45.185,213,10.9727,0,0.485,394
-9.32679e-08,2.30432e-06,-2.38061e-06,-4.56286e-05,-0.00173511,-0.00255041,30.5363,8.67589,-0.0842118,15.4703,30.6967,8.67531,-0.243996,27.5846,213,12.8182,0,0.485,395
-1.69203e-07,2.20738e-06,-2.40434e-06,-6.306e-05,-0.00153822,-0.00261531,40.7102,15.8339,-0.697879,20.8138,40.8213,15.8312,-0.806271,36.2916,213,14.6636,0,0.485,396
-3.33435e-07,2.27554e-06,-2.36359e-06,-0.000100169,-0.00176134,-0.00246412,37.992,10.0087,-0.410974,19.3443,38.143,9.99232,-0.545573,34.6433,213,16.5091,0,0.485,397
-6.31661e-07,2.04633e-06,-2.44411e-06,-0.000203642,-0.00160047,-0.00251761,36.5008,12.9421,-0.919745,18.8097,36.6067,12.9292,-1.01278,32.9411,213,18.3545,0,0.485,398
1.01175e-06,2.1426e-06,-2.25602e-06,-0.000711392,-0.00184592,-0.00211853,21.7632,2.684,-0.274567,11.2167,21.9327,2.74065,-0.500714,21.0012,213,0.822727,0,0.485,399
4.56982e-07,2.20212e-06,-2.38425e-06,-0.000166275,-0.00163967,-0.00250289,37.5494,12.7715,-0.113637,18.982,37.7023,12.7667,-0.261785,33.4126,213,2.66818,0,0.485,400
2.4816e-07,2.20742e-06,-2.40145e-06,-8.73731e-05,-0.00155706,-0.00261076,40.1507,15.4352,-0.366414,20.3456,40.2391,15.4326,-0.452141,35.5208,213,4.51364,0,0.485,401
1.37347e-07,2.33804e-06,-2.37049e-06,-4.04602e-05,-0.00180314,-0.00247339,39.0986,9.4557,-0.575071,19.9893,39.251,9.45586,-0.727647,35.9844,213,6.35909,0,0.485,402
5.85893e-08,2.33216e-06,-2.37783e-06,-3.1869e-05,-0.00169379,-0.00253363,40.502,12.5537,-0.125005,20.4677,40.6578,12.5506,-0.27767,36.2649,213,8.20455,0,0.485,403
7.89843e-10,2.32136e-06,-2.38329e-06,-3.96533e-05,-0.00154719,-0.00259015,41.7725,16.4204,0.249944,20.9252,41.9365,16.4203,0.0860576,36.5332,213,10.05,0,0.485,404
-5.99791e-08,2.32508e-06,-2.37705e-06,-3.11945e-05,-0.00169393,-0.00253645,40.383,12.421,-0.385845,20.5077,40.5083,12.4171,-0.50717,36.3209,213,11.8955,0,0.485,405
-1.3839e-07,2.3231e-06,-2.37861e-06,-4.11466e-05,-0.00178232,-0.00249162,39.2322,9.95098,-0.633123,20.0722,39.372,9.95049,-0.772395,36.0012,213,13.7409,0,0.485,406
-2.51181e-07,2.21114e-06,-2.40625e-06,-8.89921e-05,-0.00161079,-0.00255377,39.8251,14.2331,-0.0118893,20.1741,40.0837,14.2271,-0.264505,35.4016,213,15.5864,0,0.485,407
-4.59617e-07,2.2318e-06,-2.36876e-06,-0.000161599,-0.00171719,-0.00245681,37.0228,10.8626,-0.0585362,18.7169,37.2061,10.8485,-0.227677,33.3068,213,17.4318,0,0.485,408
-9.95352e-07,2.12733e-06,-2.27893e-06,-0.000695967,-0.00184344,-0.00212671,22.1845,2.88753,-0.262586,11.4416,22.3756,2.94154,-0.507669,21.3685,213,19.2773,0,0.485,409
-1.92255e-06,1.9165e-06,-1.99571e-06,-0.00156708,-0.00154663,-0.00173198,3.43166,4.05861,-1.62208,4.43824,7.2281,0.288468,-1.64838,8.08399,213,20.2,0,0.49375,410
1.82247e-06,-1.71453e-06,-2.20464e-06,-0.00157364,-0.00153334,-0.0017373,3.27703,4.51225,-1.73889,4.52566,7.29655,0.5086,-1.75476,8.1586,213,-0.1,19.5,0.49375,411
2.15611e-06,-4.86744e-07,-2.37437e-06,-0.00166063,-0.000146652,-0.00248588,14.3403,43.8052,-0.607217,22.2777,43.8792,14.3354,-0.676272,39.2644,213,-0.1,17.55,0.485,412
2.23403e-06,-2.39413e-07,-2.38585e-06,-0.00163739,-8.0091e-05,-0.00256684,11.9573,35.6063,-0.222059,18.0342,35.7263,11.9573,-0.342038,31.7582,213,-0.1,15.6,0.485,413
2.29698e-06,-9.72768e-08,-2.33724e-06,-0.00166797,-4.69793e-05,-0.00253396,13.1146,40.3572,-0.123678,20.384,40.5009,13.1143,-0.267082,35.9939,213,-0.1,13.65,0.485,414
2.26412e-06,-4.8562e-08,-2.38347e-06,-0.00153059,-3.29255e-05,-0.0026702,15.0478,37.6529,-0.106441,19.0052,37.7792,15.0463,-0.231164,33.1283,213,-0.1,11.7,0.485,415
2.34434e-06,1.68845e-08,-2.33235e-06,-0.00152894,-2.84139e-05,-0.00256886,20.6813,51.7928,-0.107105,26.0213,51.8641,20.6814,-0.178505,45.3648,213,-0.1,9.75,0.485,416
2.27155e-06,8.09394e-08,-2.37676e-06,-0.00158582,-3.76245e-05,-0.00264558,13.1215,36.4982,-1.32802,18.9717,36.5569,13.1214,-1.38659,33.1618,213,-0.1,7.8,0.485,417
2.27466e-06,1.49964e-07,-2.37801e-06,-0.00166718,-6.15351e-05,-0.00250194,15.6922,48.96,-0.668587,24.8953,49.0414,15.6913,-0.749142,43.941,213,-0.1,5.85,0.485,418
2.22332e-06,3.25434e-07,-2.35317e-06,-0.00162313,-8.92435e-05,-0.00252311,15.563,44.8487,-0.411493,22.715,44.9375,15.5552,-0.49254,39.9045,213,-0.1,3.9,0.485,419
2.1725e-06,6.29372e-07,-2.37384e-06,-0.00169579,-0.000176493,-0.00245987,10.9782,36.6383,-0.394376,18.6364,36.7587,10.9776,-0.514098,33.0604,213,-0.1,1.95,0.485,420
2.13878e-06,-7.98521e-07,-2.30033e-06,-0.0018915,-0.000627376,-0.00213783,2.26171,23.5204,-0.255145,12.0917,23.6868,2.33669,-0.496537,22.8986,213,-0.1,18.525,0.485,421
2.28117e-06,-3.39571e-07,-2.35169e-06,-0.00171834,-0.000126836,-0.00245343,13.2746,47.3792,-1.44893,24.5134,47.481,13.2697,-1.54581,43.5519,213,-0.1,16.575,0.485,422
2.34436e-06,-1.64351e-07,-2.34602e-06,-0.00162121,-7.28897e-05,-0.00254015,14.1864,40.2245,0.141489,20.2086,40.3915,14.1865,-0.0256613,35.5122,213,-0.1,14.625,0.485,423
2.34104e-06,-7.30147e-08,-2.35995e-06,-0.00170328,-2.49817e-05,-0.00264143,11.7045,39.9282,-1.41667,20.771,40.0272,11.7037,-1.51483,36.7606,213,-0.1,12.675,0.485,424
2.33257e-06,-1.36646e-08,-2.34426e-06,-0.00149875,-3.3562e-05,-0.00264062,20.8906,52.3027,-2.48494,27.4028,52.3129,20.8881,-2.49265,47.6331,213,-0.1,10.725,0.485,425
2.33397e-06,4.68234e-08,-2.34168e-06,-0.00152627,-3.28484e-05,-0.00268417,16.398,41.5127,-0.941187,21.2838,41.5707,16.3956,-0.996823,37.0694,213,-0.1,8.775,0.485,426
2.33354e-06,1.17737e-07,-2.36332e-06,-0.00173017,-3.53968e-05,-0.00252058,15.4054,51.7066,1.40382,25.4708,52.0265,15.4045,1.08482,45.5043,213,-0.1,6.825,0.485,427
2.31529e-06,2.34347e-07,-2.35595e-06,-0.00161348,-8.99838e-05,-0.00251301,17.4117,50.0616,-0.82422,25.498,50.1161,17.413,-0.879975,44.7478,213,-0.1,4.875,0.485,428
2.22517e-06,4.38998e-07,-2.3412e-06,-0.00163277,-0.000155864,-0.0024912,13.0945,37.9315,-0.0038935,19.2006,38.166,13.0914,-0.235221,33.7712,213,-0.1,2.925,0.485,429
2.16947e-06,9.88077e-07,-2.224e-06,-0.00188283,-0.000672912,-0.00211862,2.09719,22.4442,-0.235524,11.5402,22.604,2.17827,-0.47637,21.8742,213,-0.1,0.975,0.485,430
-2.16026e-06,6.28893e-07,-2.36223e-06,-0.00167648,-0.000178478,-0.00250188,8.92225,29.2992,-0.329219,14.9559,29.4427,8.91852,-0.469028,26.4961,213,20.2,1.95,0.485,431
-2.22377e-06,3.27451e-07,-2.35279e-06,-0.00161484,-9.12002e-05,-0.00257568,12.3914,35.4735,-0.390948,18.0264,35.5687,12.3893,-0.48404,31.6449,213,20.2,3.9,0.485,432
-2.2753e-06,1.57408e-07,-2.39326e-06,-0.00163218,-6.153e-05,-0.00253909,14.9625,44.2236,-0.319066,22.3707,44.3268,14.9548,-0.414524,39.3746,213,20.2,5.85,0.485,433
-2.24014e-06,7.89603e-08,-2.43219e-06,-0.00153007,-3.73584e-05,-0.00264215,16.1279,41.2696,-1.07859,21.2273,41.3231,16.1273,-1.13149,36.9803,213,20.2,7.8,0.485,434
-2.33527e-06,1.53194e-08,-2.38509e-06,-0.00149748,-2.70444e-05,-0.00262859,19.2934,46.5702,-0.222308,23.4778,46.6518,19.2934,-0.303912,40.8496,213,20.2,9.75,0.485,435
-2.2387e-06,-4.50939e-08,-2.442e-06,-0.00149207,-3.32257e-05,-0.00264716,17.6881,42.2784,0.0416539,21.2508,42.4143,17.6811,-0.0872442,36.9718,213,20.2,11.7,0.485,436
-2.30158e-06,-1.0199e-07,-2.34936e-06,-0.00163975,-4.52827e-05,-0.00258626,11.9046,35.0804,-0.192323,17.7927,35.2398,11.8985,-0.345668,31.3134,213,20.2,13.65,0.485,437
-2.23766e-06,-2.39973e-07,-2.37909e-06,-0.00163863,-7.98695e-05,-0.00256601,11.931,35.6034,-0.216057,18.0293,35.723,11.9309,-0.335522,31.7549,213,20.2,15.6,0.485,438
-2.15572e-06,-4.85468e-07,-2.37218e-06,-0.00164,-0.000146228,-0.00252239,12.5397,37.8033,-0.56494,19.2667,37.889,12.5333,-0.644304,33.9218,213,20.2,17.55,0.485,439
-2.15242e-06,9.75904e-07,-2.25156e-06,-0.0018837,-0.000657155,-0.00212166,2.22928,22.8561,-0.201624,11.75,23.0355,2.31293,-0.464632,22.2418,213,20.2,0.975,0.485,440
-2.24122e-06,4.40221e-07,-2.32691e-06,-0.00164085,-0.000154584,-0.00248889,12.8862,37.8806,-0.0295828,19.1848,38.1117,12.8835,-0.25796,33.7741,213,20.2,2.925,0.485,441
-2.31234e-06,2.37627e-07,-2.36538e-06,-0.00160188,-8.72006e-05,-0.0025632,14.2224,39.7851,-0.23679,20.0794,39.8533,14.2229,-0.305549,35.2188,213,20.2,4.875,0.485,442
-2.29317e-06,1.17975e-07,-2.42009e-06,-0.00167118,-4.02294e-05,-0.00250628,17.3946,52.3301,1.65158,25.6873,52.6794,17.392,1.30484,45.5156,213,20.2,6.825,0.485,443
-2.31523e-06,4.48857e-08,-2.39609e-06,-0.00148543,-3.26361e-05,-0.0026586,17.8051,42.2365,-0.238262,21.3582,42.36,17.7998,-0.356435,37.1318,213,20.2,8.775,0.485,444
-2.3146e-06,-1.29009e-08,-2.39992e-06,-0.00146829,-3.09809e-05,-0.00267424,17.7438,41.9776,-1.04545,21.5371,42.006,17.7382,-1.06827,37.4032,213,20.2,10.725,0.485,445
-2.29715e-06,-7.40246e-08,-2.422e-06,-0.00165207,-2.91772e-05,-0.00261725,13.2608,40.5529,-0.862175,20.8452,40.6921,13.2578,-0.99837,36.7013,213,20.2,12.675,0.485,446
-2.34528e-06,-1.66332e-07,-2.34501e-06,-0.0016156,-7.07602e-05,-0.00254858,14.3155,40.295,0.0784076,20.2713,40.4578,14.3159,-0.084863,35.5984,213,20.2,14.625,0.485,447
-2.28567e-06,-3.395e-07,-2.34016e-06,-0.00171962,-0.000125894,-0.00245436,13.2423,47.3945,-1.45117,24.519,47.4931,13.2375,-1.54493,43.57,213,20.2,16.575,0.485,448
-2.13083e-06,-7.92602e-07,-2.32274e-06,-0.00189252,-0.000619651,-0.00213675,2.33304,23.7388,-0.196955,12.1891,23.9154,2.4223,-0.462837,23.0714,213,20.2,18.525,0.485,449
-5.57491e-07,-1.76395e-06,-2.63202e-06,-0.000202975,-0.00152763,-0.0025598,37.147,14.7314,-0.906808,19.1235,37.256,14.7066,-0.991011,33.2996,213,18.3545,19.5,0.485,450
-2.71143e-07,-1.9382e-06,-2.58914e-06,-8.18255e-05,-0.00173688,-0.00249161,38.6325,10.7534,-0.485912,19.7054,38.7805,10.7498,-0.630322,35.1315,213,16.5091,19.5,0.485,451
-1.25572e-07,-1.84825e-06,-2.63558e-06,-5.58924e-05,-0.00149375,-0.00262201,49.4864,20.4101,-1.19569,25.4059,49.5537,20.4052,-1.25809,44.1632,213,14.6636,19.5,0.485,452
-7.70639e-08,-1.93061e-06,-2.60955e-06,-4.1655e-05,-0.0017175,-0.00252331,40.081,11.7979,0.078998,20.1346,40.2145,11.798,-0.0546127,35.844,213,12.8182,19.5,0.485,453
-3.44342e-08,-1.86858e-06,-2.64412e-06,-2.36877e-05,-0.00151962,-0.00266732,37.4726,14.5196,-0.869291,19.2469,37.551,14.5148,-0.942873,33.5513,213,10.9727,19.5,0.485,454
3.15249e-08,-1.88543e-06,-2.63237e-06,-2.52515e-05,-0.00153791,-0.00259042,51.1778,19.7584,-1.22353,26.246,51.2233,19.758,-1.26863,45.758,213,9.12727,19.5,0.485,455
7.43263e-08,-1.95477e-06,-2.60582e-06,-3.8609e-05,-0.00172091,-0.00246208,49.8395,14.9212,0.753371,24.6823,49.9788,14.921,0.61421,43.992,213,7.28182,19.5,0.485,456
1.25956e-07,-1.83952e-06,-2.6376e-06,-5.16368e-05,-0.00146595,-0.00266545,41.5651,17.6143,-0.75019,21.2216,41.6291,17.6143,-0.814172,36.8629,213,5.43636,19.5,0.485,457
2.75203e-07,-1.94464e-06,-2.58473e-06,-7.78091e-05,-0.00171754,-0.00246986,45.3096,13.1919,-0.406598,22.9919,45.4436,13.1915,-0.540179,40.8856,213,3.59091,19.5,0.485,458
5.66018e-07,-1.8076e-06,-2.6153e-06,-0.000193809,-0.00157598,-0.00249171,47.0379,17.6904,-0.954535,24.0758,47.1276,17.6701,-1.02392,42.0463,213,1.74545,19.5,0.485,459
-9.05067e-07,-1.86018e-06,-2.47296e-06,-0.000678195,-0.0018431,-0.00213545,22.6292,3.03915,-0.285228,11.694,22.8445,3.08212,-0.543484,21.8024,213,19.2773,19.5,0.485,460
-3.82004e-07,-1.8868e-06,-2.59714e-06,-0.000155162,-0.00166857,-0.00248023,37.6483,12.1974,0.0158624,19.0278,37.872,12.1731,-0.183563,33.6255,213,17.4318,19.5,0.485,461
-1.98063e-07,-1.86164e-06,-2.62755e-06,-7.88804e-05,-0.00157974,-0.0025752,40.3516,15.1117,-0.0149695,20.4704,40.6407,15.1078,-0.300118,35.8154,213,15.5864,19.5,0.485,462
-1.0755e-07,-1.99112e-06,-2.58262e-06,-2.62848e-05,-0.00178184,-0.00250456,49.2929,11.6661,-2.7013,26.0217,49.3177,11.6656,-2.72566,46.5473,213,13.7409,19.5,0.485,463
-4.59567e-08,-1.98158e-06,-2.6077e-06,-2.30996e-05,-0.00165792,-0.00255139,51.0685,16.0303,-2.12621,26.6595,51.1334,16.0248,-2.18564,46.9423,213,11.8955,19.5,0.485,464
-3.67095e-10,-1.96132e-06,-2.62835e-06,-3.57412e-05,-0.00149452,-0.002612,42.3936,17.8614,0.372303,21.1978,42.5808,17.8613,0.185267,36.8841,213,10.05,19.5,0.485,465
4.75314e-08,-1.965e-06,-2.61384e-06,-2.31926e-05,-0.00164896,-0.00255571,51.1122,16.2627,-2.2223,26.693,51.1418,16.2551,-2.2443,46.9541,213,8.20455,19.5,0.485,466
1.09807e-07,-1.96793e-06,-2.59967e-06,-2.79766e-05,-0.00175077,-0.0025173,49.7833,12.8535,-2.30806,26.0571,49.7959,12.8512,-2.31835,46.4269,213,6.35909,19.5,0.485,467
1.97381e-07,-1.8759e-06,-2.62534e-06,-8.08717e-05,-0.00157043,-0.00256476,40.4252,15.3754,0.0693661,20.4642,40.7152,15.3681,-0.213301,35.7798,213,4.51364,19.5,0.485,468
3.79095e-07,-1.85592e-06,-2.60199e-06,-0.000157583,-0.00159938,-0.00252421,38.199,13.9525,0.0359894,19.3343,38.4607,13.9348,-0.207969,33.8881,213,2.66818,19.5,0.485,469
9.1072e-07,-1.86575e-06,-2.4568e-06,-0.000677364,-0.00185037,-0.00213539,22.5505,2.82411,-0.356154,11.6813,22.7607,2.85969,-0.60193,21.8386,213,0.822727,19.5,0.485,470
-1.81491e-06,-1.69789e-06,-2.24731e-06,-0.00157193,-0.00153251,-0.0017394,3.34413,4.55228,-1.78869,4.71066,7.59992,0.329211,-1.82141,8.55131,213,20.2,19.5,0.49375,471
1.87525e-06,1.86773e-06,-1.76329e-06,-0.00149645,-0.0014709,-0.00191076,1.81111,1.88738,0.574363,3.04492,4.37469,1.61332,-1.71515,5.28157,213,-0.1,0,0.45,472
6.30255e-07,1.90769e-06,-2.26462e-06,-0.000194196,-0.00144185,-0.00242375,69.2047,22.8302,-1.39188,35.4225,69.3314,22.8251,-1.51353,62.3467,213,1.74545,0,0.415,473
3.31436e-07,2.08451e-06,-2.18453e-06,-9.68147e-05,-0.00157221,-0.00236297,83.6546,21.0303,0.0270548,41.9453,83.7864,21.0298,-0.104269,75.5734,213,3.59091,0,0.415,474
1.71224e-07,2.01226e-06,-2.22709e-06,-6.46065e-05,-0.00139712,-0.00255787,68.5519,25.0614,-1.37443,35.0868,68.6777,25.0571,-1.49597,61.3684,213,5.43636,0,0.415,475
9.49022e-08,2.0949e-06,-2.20832e-06,-5.11543e-05,-0.00157348,-0.0024591,64.3104,17.1406,0.206724,32.2085,64.4673,17.1402,0.0502645,57.7991,213,7.28182,0,0.415,476
3.76052e-08,2.06169e-06,-2.20101e-06,-3.20391e-05,-0.0014006,-0.00247923,91.7444,34.4396,-0.299925,46.1545,91.8797,34.4335,-0.429217,80.7354,213,9.12727,0,0.415,477
-3.57155e-08,2.07825e-06,-2.20033e-06,-3.27956e-05,-0.00141694,-0.00246461,91.7036,33.6678,0.398665,45.7933,91.8492,33.6583,0.262602,80.2793,213,10.9727,0,0.415,478
-9.20602e-08,2.11888e-06,-2.19642e-06,-4.87603e-05,-0.00155418,-0.00234359,87.4485,23.6125,0.571647,43.6061,87.6168,23.6112,0.404599,78.2344,213,12.8182,0,0.415,479
-1.69379e-07,2.02685e-06,-2.21421e-06,-6.29591e-05,-0.00136641,-0.0025479,69.2827,26.6381,-0.879449,35.2224,69.425,26.6363,-1.01991,61.4745,213,14.6636,0,0.415,480
-3.28814e-07,2.0905e-06,-2.18173e-06,-0.000101579,-0.00158526,-0.00229451,97.3269,22.654,-1.4939,49.5431,97.4732,22.6267,-1.61296,89.4641,213,16.5091,0,0.415,481
-6.23206e-07,1.8758e-06,-2.25987e-06,-0.000190369,-0.00143528,-0.00245921,61.6788,20.3302,-1.31332,31.6369,61.8302,20.3091,-1.44362,55.6811,213,18.3545,0,0.415,482
9.61997e-07,1.96217e-06,-2.10063e-06,-0.000628581,-0.00165939,-0.00197764,47.4258,3.67273,0.136768,23.8741,47.642,3.69945,-0.106176,45.9637,213,0.822727,0,0.415,483
4.51406e-07,2.01977e-06,-2.20367e-06,-0.00016192,-0.00149862,-0.00231951,81.2382,24.5013,0.34123,40.6288,81.4303,24.4777,0.17274,72.2396,213,2.66818,0,0.415,484
2.47418e-07,2.0578e-06,-2.21065e-06,-8.68138e-05,-0.00148028,-0.00239123,86.4222,27.2755,0.198435,43.2498,86.5724,27.2508,0.07287,76.6155,213,4.51364,0,0.415,485
1.37447e-07,2.14954e-06,-2.19368e-06,-4.13562e-05,-0.00160645,-0.00230296,85.9129,19.4816,-1.04434,43.6083,86.0427,19.4813,-1.17389,78.9424,213,6.35909,0,0.415,486
5.63986e-08,2.14735e-06,-2.19387e-06,-3.10473e-05,-0.00150809,-0.00236765,89.7104,27.0166,0.779437,44.6481,89.8961,27.0105,0.599845,79.4542,213,8.20455,0,0.415,487
5.87079e-10,2.13715e-06,-2.1947e-06,-3.97302e-05,-0.00137578,-0.00243424,92.2465,35.5369,1.09804,45.7406,92.4131,35.5365,0.931895,80.0038,213,10.05,0,0.415,488
-5.76963e-08,2.13878e-06,-2.1932e-06,-3.05313e-05,-0.00150499,-0.00236566,89.9756,27.3915,1.09221,44.6391,90.1766,27.3843,0.89846,79.4196,213,11.8955,0,0.415,489
-1.37897e-07,2.13364e-06,-2.20023e-06,-4.18963e-05,-0.00157912,-0.00232058,86.5669,21.3186,-0.884829,43.8514,86.6931,21.3172,-1.00968,78.9439,213,13.7409,0,0.415,490
-2.49101e-07,2.04313e-06,-2.21448e-06,-8.63925e-05,-0.0014531,-0.00244844,86.7806,28.7697,-0.323765,43.6309,86.8687,28.7509,-0.393062,76.947,213,15.5864,0,0.415,491
-4.56375e-07,2.04725e-06,-2.18971e-06,-0.000159522,-0.00153389,-0.00229721,80.6081,22.272,0.334452,40.3262,80.8158,22.2353,0.163421,72.193,213,17.4318,0,0.415,492
-9.49421e-07,1.95179e-06,-2.12354e-06,-0.000618587,-0.00166139,-0.00197714,48.0893,3.82699,0.256193,24.1677,48.3229,3.86195,-0.0124082,46.5193,213,19.2773,0,0.415,493
-1.84454e-06,1.84085e-06,-1.91368e-06,-0.00148172,-0.00146034,-0.00192018,1.90544,1.96927,0.596628,3.23643,4.65041,1.64338,-1.82245,5.61035,213,20.2,0,0.45,494
1.74601e-06,-1.64514e-06,-2.12256e-06,-0.00149027,-0.00145468,-0.00191589,1.88441,1.99063,0.613885,3.27553,4.67959,1.68079,-1.87146,5.68013,213,-0.1,19.5,0.45,495
1.98702e-06,-4.81266e-07,-2.19108e-06,-0.00148296,-0.000141077,-0.00235305,27.9827,88.8796,-1.35903,45.2014,88.9683,27.9695,-1.43449,79.869,213,-0.1,17.55,0.415,496
2.05912e-06,-2.37887e-07,-2.19986e-06,-0.00146478,-7.73123e-05,-0.00231558,34.8662,109.231,-1.50443,55.464,109.331,34.8581,-1.59663,97.9291,213,-0.1,15.6,0.415,497
2.10781e-06,-9.63143e-08,-2.15476e-06,-0.00150672,-4.93298e-05,-0.00249759,20.0034,65.3163,-0.09793,32.8544,65.4637,20.0032,-0.245111,58.2851,213,-0.1,13.65,0.415,498
2.08539e-06,-5.13421e-08,-2.18741e-06,-0.00140279,-3.20636e-05,-0.00245726,37.722,104.446,-2.26697,53.4124,104.504,37.7188,-2.32133,93.4745,213,-0.1,11.7,0.415,499
2.12851e-06,2.07894e-08,-2.14826e-06,-0.00139886,-2.94972e-05,-0.00251714,25.5789,68.1303,0.179064,34.1652,68.3201,25.5786,-0.0103551,59.7941,213,-0.1,9.75,0.415,500
2.11481e-06,8.64921e-08,-2.17896e-06,-0.00152166,-3.91109e-05,-0.00247372,25.0612,87.9873,-0.940919,44.5637,88.0863,25.0624,-1.04114,79.3634,213,-0.1,7.8,0.415,501
2.09025e-06,1.50094e-07,-2.19741e-06,-0.00150821,-6.46781e-05,-0.00239478,26.0228,86.8893,-0.847209,43.9802,87.0013,26.0225,-0.958967,78.0494,213,-0.1,5.85,0.415,502
2.04387e-06,3.23421e-07,-2.16905e-06,-0.00145273,-8.94885e-05,-0.0024202,29.1943,86.6214,-0.674661,43.7867,86.7644,29.1856,-0.808937,77.0847,213,-0.1,3.9,0.415,503
1.98955e-06,6.2092e-07,-2.19407e-06,-0.0015086,-0.000170786,-0.00241172,17.7732,61.648,-0.472561,31.2273,61.8165,17.7702,-0.638099,55.5856,213,-0.1,1.95,0.415,504
1.95867e-06,-7.64506e-07,-2.14436e-06,-0.00170428,-0.000558971,-0.00198268,2.47348,51.0869,0.441946,25.6005,51.3076,2.58814,0.106561,50.0065,213,-0.1,18.525,0.415,505
2.08713e-06,-3.34573e-07,-2.17314e-06,-0.00151254,-0.000124809,-0.00224614,29.4295,106.583,-3.31877,55.0427,106.681,29.4176,-3.40467,97.892,213,-0.1,16.575,0.415,506
2.15923e-06,-1.6411e-07,-2.16037e-06,-0.00144446,-7.26008e-05,-0.00237923,30.3449,88.5741,1.04461,43.9312,88.7407,30.3446,0.87834,77.4537,213,-0.1,14.625,0.415,507
2.18606e-06,-7.27796e-08,-2.1609e-06,-0.00157252,-2.30625e-05,-0.00243515,22.4232,88.191,-0.392731,44.4067,88.307,22.4209,-0.506367,79.8575,213,-0.1,12.675,0.415,508
2.16279e-06,-1.56777e-08,-2.15027e-06,-0.00134212,-3.69902e-05,-0.00247472,37.519,92.9162,0.612213,46.2943,93.0592,37.5176,0.470553,80.7156,213,-0.1,10.725,0.415,509
2.18935e-06,4.61748e-08,-2.14509e-06,-0.00147071,-3.36934e-05,-0.00244539,28.7788,89.774,-0.361516,45.1724,89.8787,28.7786,-0.466049,79.8456,213,-0.1,8.775,0.415,510
2.17935e-06,1.14069e-07,-2.16538e-06,-0.00162309,-3.26158e-05,-0.00241354,18.7751,86.2837,-0.719531,43.6011,86.3832,18.7751,-0.819028,79.2433,213,-0.1,6.825,0.415,511
2.13101e-06,2.32517e-07,-2.1717e-06,-0.00143711,-8.88853e-05,-0.00229364,38.2564,113.221,-0.61275,57.0923,113.396,38.2576,-0.788804,100.52,213,-0.1,4.875,0.415,512
2.04749e-06,4.36007e-07,-2.15667e-06,-0.0014573,-0.000152562,-0.00237625,27.4213,82.8018,0.422952,41.2941,82.91,27.4143,0.321739,72.9198,213,-0.1,2.925,0.415,513
1.98524e-06,9.44211e-07,-2.06872e-06,-0.0016953,-0.000597223,-0.00196931,2.15417,48.7629,0.341961,24.472,48.9782,2.24657,0.034232,47.8762,213,-0.1,0.975,0.415,514
-1.97089e-06,6.19465e-07,-2.18098e-06,-0.00151445,-0.00016781,-0.00231536,22.2892,79.7644,-0.604364,40.3678,79.955,22.2748,-0.780568,72.0306,213,20.2,1.95,0.415,515
-2.04173e-06,3.24096e-07,-2.16783e-06,-0.0014496,-9.12748e-05,-0.00231102,35.68,108.491,-1.45347,55.0694,108.589,35.679,-1.55016,97.0371,213,20.2,3.9,0.415,516
-2.09496e-06,1.54875e-07,-2.20891e-06,-0.00148365,-5.85485e-05,-0.00245783,24.1432,74.8771,0.0861075,37.5565,75.041,24.1373,-0.0719724,66.405,213,20.2,5.85,0.415,517
-2.06828e-06,7.95686e-08,-2.24002e-06,-0.00135188,-3.62781e-05,-0.00249818,36.6329,92.1326,-0.91709,46.6172,92.2302,36.6224,-1.00425,81.2424,213,20.2,7.8,0.415,518
-2.1552e-06,1.50907e-08,-2.1926e-06,-0.00134368,-2.83179e-05,-0.00254245,34.6459,83.4143,1.16242,41.3624,83.6507,34.646,0.925911,72.0483,213,20.2,9.75,0.415,519
-2.06297e-06,-4.61389e-08,-2.24921e-06,-0.00135098,-3.01259e-05,-0.0024764,39.2059,94.9583,3.72184,45.9008,95.2411,39.2054,3.43958,80.1458,213,20.2,11.7,0.415,520
-2.11737e-06,-9.98971e-08,-2.16304e-06,-0.00146585,-4.806e-05,-0.0024212,28.7022,89.1249,-0.296106,44.9264,89.3421,28.6996,-0.510651,79.386,213,20.2,13.65,0.415,521
-2.06252e-06,-2.38204e-07,-2.19292e-06,-0.00147003,-7.64656e-05,-0.00237976,28.4002,87.5051,0.498287,43.66,87.6619,28.3997,0.341946,77.2141,213,20.2,15.6,0.415,522
-1.98611e-06,-4.80395e-07,-2.18743e-06,-0.0015256,-0.000127122,-0.00234692,22.9315,82.1055,-1.13272,41.7522,82.2444,22.9198,-1.25993,74.4212,213,20.2,17.55,0.415,523
-1.97347e-06,9.35392e-07,-2.09635e-06,-0.00169954,-0.000586419,-0.00196441,2.18178,49.4291,0.462029,24.7745,49.6615,2.29896,0.112441,48.4928,213,20.2,0.975,0.415,524
-2.06867e-06,4.37157e-07,-2.14145e-06,-0.00147485,-0.00015147,-0.00237649,26.2489,82.4204,0.300955,41.1431,82.506,26.2445,0.219762,72.8481,213,20.2,2.925,0.415,525
-2.13188e-06,2.35582e-07,-2.17943e-06,-0.00143701,-8.67791e-05,-0.00237794,30.3202,87.6318,0.678011,43.6246,87.7794,30.3204,0.530245,76.816,213,20.2,4.875,0.415,526
-2.12399e-06,1.16841e-07,-2.22774e-06,-0.00149731,-3.86184e-05,-0.00241697,26.6699,88.5849,-0.90019,44.8603,88.705,26.6651,-1.01548,79.5768,213,20.2,6.825,0.415,527
-2.13627e-06,4.54555e-08,-2.20384e-06,-0.00132575,-3.30653e-05,-0.00249357,41.0272,95.373,3.61225,46.2693,95.7677,41.0157,3.22909,80.5885,213,20.2,8.775,0.415,528
-2.13494e-06,-1.3896e-08,-2.20749e-06,-0.00130129,-3.13995e-05,-0.00247088,40.5909,94.4922,1.20893,46.8213,94.6791,40.5764,1.03654,81.4231,213,20.2,10.725,0.415,529
-2.12487e-06,-7.19387e-08,-2.22887e-06,-0.00147327,-2.7568e-05,-0.00237625,33.2635,113.605,-7.85081,60.7628,113.644,33.255,-7.88149,107.059,213,20.2,12.675,0.415,530
-2.15955e-06,-1.66004e-07,-2.15882e-06,-0.00143746,-7.09261e-05,-0.00238849,30.7461,88.7494,0.875751,44.1027,88.9154,30.7458,0.709989,77.6725,213,20.2,14.625,0.415,531
-2.09067e-06,-3.34512e-07,-2.1616e-06,-0.00151353,-0.000124199,-0.00230597,24.6551,83.6262,0.882992,41.5586,83.8175,24.6466,0.700227,74.105,213,20.2,16.575,0.415,532
-1.95313e-06,-7.59296e-07,-2.16711e-06,-0.0017063,-0.000552655,-0.00197927,2.50192,51.4692,0.478893,25.8094,51.7006,2.66765,0.081791,50.3757,213,20.2,18.525,0.415,533
-5.46145e-07,-1.6094e-06,-2.4447e-06,-0.000176369,-0.00142355,-0.00238292,80.9511,28.1977,-1.60841,41.4375,81.1308,28.1538,-1.74419,72.6935,213,18.3545,19.5,0.415,534
-2.67227e-07,-1.76628e-06,-2.40684e-06,-8.09152e-05,-0.00156502,-0.00235284,84.9746,21.9866,0.296677,42.4969,85.1328,21.9862,0.138896,76.4485,213,16.5091,19.5,0.415,535
-1.26318e-07,-1.67984e-06,-2.44308e-06,-5.54599e-05,-0.00132302,-0.00247627,98.7398,40.9697,-1.75448,50.3513,98.8491,40.9594,-1.85352,87.5362,213,14.6636,19.5,0.415,536
-7.50508e-08,-1.75752e-06,-2.42431e-06,-3.86717e-05,-0.00154212,-0.00229091,110.55,29.9971,-0.971358,55.8538,110.643,29.9968,-1.06431,99.868,213,12.8182,19.5,0.415,537
-3.13259e-08,-1.70404e-06,-2.45239e-06,-2.06841e-05,-0.00136881,-0.00241266,107.637,41.1651,0.891582,53.6352,107.909,41.1462,0.638555,93.8218,213,10.9727,19.5,0.415,538
2.90202e-08,-1.717e-06,-2.44425e-06,-2.43649e-05,-0.00137667,-0.0025273,82.6608,31.9023,0.801398,41.2111,82.9427,31.9013,0.520459,72.0535,213,9.12727,19.5,0.415,539
7.2541e-08,-1.77922e-06,-2.42402e-06,-3.58388e-05,-0.0015436,-0.00239704,88.1417,24.606,-0.610999,44.478,88.2436,24.6054,-0.71233,79.385,213,7.28182,19.5,0.415,540
1.27138e-07,-1.66719e-06,-2.44432e-06,-5.03055e-05,-0.00131346,-0.00238794,120.024,50.2346,-0.826188,60.574,120.172,50.2355,-0.97553,105.334,213,5.43636,19.5,0.415,541
2.71144e-07,-1.7672e-06,-2.4027e-06,-7.93842e-05,-0.00155043,-0.00239187,84.7828,22.5706,-1.14753,43.0968,84.9178,22.5639,-1.27581,77.0898,213,3.59091,19.5,0.415,542
5.52396e-07,-1.63665e-06,-2.43194e-06,-0.000179742,-0.00141535,-0.00238772,80.9921,28.9222,-1.55825,41.4143,81.1686,28.8475,-1.66002,72.5561,213,1.74545,19.5,0.415,543
-8.59362e-07,-1.69287e-06,-2.31769e-06,-0.000605431,-0.0016585,-0.00197952,49.0404,4.34213,0.328419,24.6503,49.3242,4.36329,0.0234915,47.2804,213,19.2773,19.5,0.415,544
-3.75296e-07,-1.70565e-06,-2.417e-06,-0.000151136,-0.00147749,-0.002321,82.5147,26.2169,0.556729,41.2069,82.7755,26.1512,0.361667,73.0187,213,17.4318,19.5,0.415,545
-1.95674e-07,-1.70343e-06,-2.43565e-06,-7.63535e-05,-0.00142474,-0.00244279,88.2358,31.0026,0.0204262,44.1939,88.3287,30.9892,-0.0590707,77.6666,213,15.5864,19.5,0.415,546
-1.05533e-07,-1.81512e-06,-2.40177e-06,-2.77803e-05,-0.00159475,-0.00225431,113.141,26.0054,-1.89739,57.7443,113.364,26.0103,-2.12491,104.307,213,13.7409,19.5,0.415,547
-4.55131e-08,-1.80754e-06,-2.42232e-06,-2.36931e-05,-0.00147549,-0.00229162,118.913,38.1834,1.86296,58.7062,119.102,38.1682,1.68943,104.083,213,11.8955,19.5,0.415,548
-4.20242e-10,-1.78815e-06,-2.43796e-06,-3.26996e-05,-0.00132335,-0.00245672,93.9032,39.1208,1.17768,46.5394,94.08,39.1206,1.00114,81.0472,213,10.05,19.5,0.415,549
4.68569e-08,-1.79173e-06,-2.42832e-06,-2.35825e-05,-0.00146521,-0.00228839,119.808,39.6294,3.00271,58.7548,120.17,39.6101,2.66021,104.076,213,8.20455,19.5,0.415,550
1.08258e-07,-1.79655e-06,-2.41581e-06,-2.95841e-05,-0.00156816,-0.00225523,115.152,29.576,0.78769,57.6374,115.6,29.5896,0.325691,103.785,213,6.35909,19.5,0.415,551
1.94525e-07,-1.72627e-06,-2.43262e-06,-7.80322e-05,-0.00142863,-0.00246157,87.8823,30.5555,-0.28612,44.1545,87.9629,30.5348,-0.34607,77.6212,213,4.51364,19.5,0.415,552
3.73814e-07,-1.6916e-06,-2.41559e-06,-0.000152401,-0.00143565,-0.00237577,83.2189,28.7507,0.284341,41.6126,83.3888,28.7016,0.163616,73.2514,213,2.66818,19.5,0.415,553
8.643e-07,-1.69768e-06,-2.30123e-06,-0.000604092,-0.00166518,-0.00197909,48.9744,3.93581,0.319414,24.6097,49.2499,3.94931,0.0304459,47.3817,213,0.822727,19.5,0.415,554
-1.74064e-06,-1.63044e-06,-2.16494e-06,-0.0014909,-0.00145272,-0.00192374,1.86182,1.97577,0.569753,3.30642,4.69001,1.64017,-1.92283,5.73263,213,20.2,19.5,0.45,555
1.78221e-06,1.77808e-06,-1.68307e-06,-0.00139234,-0.00136787,-0.00149177,5.3588,7.36311,-2.78517,8.03677,12.3956,1.219,-3.6779,14.2698,213,-0.1,0,0.40625,556
6.30984e-07,1.89629e-06,-2.22788e-06,-0.000204426,-0.00137653,-0.00242006,80.0242,29.8743,-1.70372,41.2737,80.4454,29.8514,-2.10199,72.0931,213,1.74545,0,0.3975,557
3.31057e-07,2.07242e-06,-2.14854e-06,-9.76157e-05,-0.00156,-0.00235017,83.238,21.0079,-1.02613,42.7648,83.8709,21.0076,-1.65876,76.7492,213,3.59091,0,0.3975,558
1.71237e-07,2.00091e-06,-2.1887e-06,-6.57211e-05,-0.00135753,-0.00236301,116.546,45.5286,-2.9434,60.0378,116.84,45.5271,-3.23582,104.598,213,5.43636,0,0.3975,559
9.49423e-08,2.08236e-06,-2.17172e-06,-5.1154e-05,-0.0015379,-0.00238219,87.3218,23.9071,0.306438,44.1159,87.9301,23.907,-0.301766,78.9616,213,7.28182,0,0.3975,560
3.78342e-08,2.04963e-06,-2.16293e-06,-2.78022e-05,-0.00138463,-0.00254207,80.7605,28.8959,-1.42955,41.5201,81.1901,28.8869,-1.85016,72.7189,213,9.12727,0,0.3975,561
-3.60067e-08,2.066e-06,-2.16242e-06,-2.99207e-05,-0.00139604,-0.00251759,80.3021,28.23,-1.63279,41.3399,80.6751,28.2289,-2.00475,72.4591,213,10.9727,0,0.3975,562
-9.21456e-08,2.10623e-06,-2.15972e-06,-4.77249e-05,-0.00153072,-0.00236864,88.2544,24.9926,1.3571,44.0775,88.8832,24.9927,0.728222,78.8735,213,12.8182,0,0.3975,563
-1.69177e-07,2.01522e-06,-2.17576e-06,-6.61126e-05,-0.0013167,-0.00249521,89.9337,36.4391,-2.16518,46.374,90.2582,36.4392,-2.48982,80.6665,213,14.6636,0,0.3975,564
-3.27843e-07,2.07796e-06,-2.14596e-06,-0.000102672,-0.00157115,-0.00238139,68.2891,17.3759,0.408724,34.8333,69.1892,17.3621,-0.477501,62.6807,213,16.5091,0,0.3975,565
-6.23694e-07,1.86392e-06,-2.22304e-06,-0.000199648,-0.00137834,-0.00238043,86.9539,32.6255,-1.85971,44.8217,87.3929,32.5773,-2.2505,78.2741,213,18.3545,0,0.3975,566
9.56819e-07,1.94304e-06,-2.07066e-06,-0.000619275,-0.00163739,-0.00198903,48.5508,5.3365,0.207197,25.2712,49.4381,5.76059,-1.10423,47.4836,213,0.822727,0,0.3975,567
4.52114e-07,2.00737e-06,-2.1679e-06,-0.000162521,-0.00148941,-0.00229095,81.5863,25.2657,0.69417,41.44,82.5908,25.2445,-0.289135,73.5175,213,2.66818,0,0.3975,568
2.47021e-07,2.0459e-06,-2.17401e-06,-8.6601e-05,-0.00147171,-0.00236009,86.8222,28.0302,0.57734,44.0542,87.7656,28.007,-0.342868,77.9035,213,4.51364,0,0.3975,569
1.37587e-07,2.13627e-06,-2.15795e-06,-4.13418e-05,-0.00159488,-0.00225802,110.127,23.725,-5.45276,57.9953,110.333,23.7246,-5.65796,104.446,213,6.35909,0,0.3975,570
5.65402e-08,2.13393e-06,-2.15716e-06,-3.0945e-05,-0.0014963,-0.00230226,114.673,33.1808,-3.91568,59.6486,115.031,33.1731,-4.26607,105.675,213,8.20455,0,0.3975,571
5.5378e-10,2.12483e-06,-2.15672e-06,-4.00121e-05,-0.00136648,-0.00240362,92.6056,36.3027,1.42889,46.483,93.5005,36.3023,0.534429,81.2209,213,10.05,0,0.3975,572
-5.77872e-08,2.12484e-06,-2.15651e-06,-3.04198e-05,-0.00149127,-0.0023218,113.983,32.7294,-5.59264,60.0073,114.207,32.7194,-5.80707,106.132,213,11.8955,0,0.3975,573
-1.38124e-07,2.12015e-06,-2.16423e-06,-4.17407e-05,-0.00156621,-0.0022964,111.06,26.262,-5.18468,58.2452,111.183,26.2608,-5.30693,104.351,213,13.7409,0,0.3975,574
-2.48872e-07,2.03155e-06,-2.17743e-06,-8.59758e-05,-0.00144498,-0.00240928,87.2115,29.5275,0.109026,44.419,88.0873,29.5115,-0.750738,78.2276,213,15.5864,0,0.3975,575
-4.57197e-07,2.03431e-06,-2.15429e-06,-0.000160312,-0.00152414,-0.00228225,80.9042,23.0156,0.587434,41.0777,81.8407,22.9813,-0.314722,73.3371,213,17.4318,0,0.3975,576
-9.45574e-07,1.93508e-06,-2.09355e-06,-0.000611501,-0.00164287,-0.00197608,49.0373,5.26005,0.411014,25.4738,49.9609,5.73417,-0.986717,47.9418,213,19.2773,0,0.3975,577
-1.75865e-06,1.75726e-06,-1.83307e-06,-0.00138961,-0.00136784,-0.00149339,5.68518,7.46835,-2.81465,8.9272,13.8955,0.402192,-3.95885,16.1225,213,20.2,0,0.40625,578
1.66126e-06,-1.56726e-06,-2.0422e-06,-0.00138954,-0.00135623,-0.00149988,6.15463,8.88308,-2.88275,9.09903,14.2316,1.88991,-3.9665,16.0901,213,-0.1,19.5,0.40625,579
1.97477e-06,-4.81711e-07,-2.15458e-06,-0.00151046,-0.000132298,-0.00232398,23.7452,82.3273,-0.826995,42.2436,82.9996,23.7334,-1.48755,75.1221,213,-0.1,17.55,0.3975,580
2.04734e-06,-2.38054e-07,-2.16282e-06,-0.00144435,-7.65146e-05,-0.00251794,21.8295,64.8928,0.236559,33.1198,65.6852,21.8279,-0.554276,58.3614,213,-0.1,15.6,0.3975,581
2.09467e-06,-9.59189e-08,-2.11757e-06,-0.00146878,-5.03467e-05,-0.00243398,27.4815,88.0305,-1.36378,45.1276,88.461,27.4816,-1.79431,79.7546,213,-0.1,13.65,0.3975,582
2.07325e-06,-5.20362e-08,-2.14921e-06,-0.00139255,-3.08919e-05,-0.00254702,28.8323,80.6277,-0.923208,41.3284,81.1823,28.829,-1.47451,72.4269,213,-0.1,11.7,0.3975,583
2.11594e-06,2.08332e-08,-2.11012e-06,-0.00136611,-2.99941e-05,-0.00246015,35.0223,92.0836,-0.473696,46.716,92.5208,35.0225,-0.911131,81.6297,213,-0.1,9.75,0.3975,584
2.10225e-06,8.69438e-08,-2.14179e-06,-0.00149328,-4.06229e-05,-0.00243628,26.7002,88.607,-0.508203,45.0866,89.1359,26.7002,-1.03717,79.9962,213,-0.1,7.8,0.3975,585
2.07797e-06,1.49811e-07,-2.16051e-06,-0.00148395,-6.37009e-05,-0.00248622,19.952,64.7637,0.100368,33.1424,65.5742,19.9526,-0.710716,58.7451,213,-0.1,5.85,0.3975,586
2.03161e-06,3.23379e-07,-2.132e-06,-0.00143791,-8.90358e-05,-0.0023607,30.2154,87.485,0.725342,44.1763,88.284,30.2103,-0.0685761,77.7674,213,-0.1,3.9,0.3975,587
1.97673e-06,6.21883e-07,-2.15805e-06,-0.00145707,-0.000184052,-0.00237028,25.3151,79.7792,-1.28733,40.9971,80.2492,25.3027,-1.745,72.3663,213,-0.1,1.95,0.3975,588
1.94061e-06,-7.63429e-07,-2.11416e-06,-0.00168257,-0.000554452,-0.00198389,4.04572,51.9295,0.576701,26.867,52.7865,4.71292,-0.94751,51.1393,213,-0.1,18.525,0.3975,589
2.07461e-06,-3.3441e-07,-2.13718e-06,-0.00150308,-0.000124951,-0.00228598,24.9295,83.4252,0.150111,42.6089,84.4004,24.9219,-0.817465,75.7043,213,-0.1,16.575,0.3975,590
2.1467e-06,-1.64529e-07,-2.12326e-06,-0.00143544,-7.28891e-05,-0.00235744,31.0711,88.9053,1.33392,44.6888,89.8083,31.0712,0.430774,78.6678,213,-0.1,14.625,0.3975,591
2.17237e-06,-7.24009e-08,-2.12467e-06,-0.0015616,-2.25037e-05,-0.00242437,23.2716,88.5997,-0.141013,45.1831,89.4133,23.2697,-0.952771,81.0177,213,-0.1,12.675,0.3975,592
2.15067e-06,-1.59598e-08,-2.11183e-06,-0.00133377,-3.73687e-05,-0.00246543,38.1317,93.1584,0.769835,47.0338,93.9985,38.1304,-0.0690244,81.9425,213,-0.1,10.725,0.3975,593
2.17693e-06,4.6465e-08,-2.10784e-06,-0.00146247,-3.39026e-05,-0.00234042,37.0255,116.466,-1.89072,59.5546,116.842,37.0261,-2.26724,105.123,213,-0.1,8.775,0.3975,594
2.16573e-06,1.14272e-07,-2.12962e-06,-0.00161212,-3.22391e-05,-0.00239305,19.6623,86.7214,-0.390799,44.3266,87.4919,19.6622,-1.16125,80.2928,213,-0.1,6.825,0.3975,595
2.119e-06,2.32228e-07,-2.13466e-06,-0.00142932,-8.90087e-05,-0.00233786,31.0457,87.9362,1.21421,44.2639,88.8393,31.0454,0.311442,77.852,213,-0.1,4.875,0.3975,596
2.03498e-06,4.36095e-07,-2.1204e-06,-0.00144872,-0.000153078,-0.00233128,28.2116,83.206,0.900771,42.1134,84.1684,28.2083,-0.058341,74.2451,213,-0.1,2.925,0.3975,597
1.96471e-06,9.39964e-07,-2.03873e-06,-0.00167155,-0.000588945,-0.0019737,3.93946,49.8915,0.473017,25.8455,50.7459,4.50319,-0.945148,49.1937,213,-0.1,0.975,0.3975,598
-1.95736e-06,6.20412e-07,-2.14496e-06,-0.00145922,-0.000182732,-0.00236198,25.2426,79.8445,-1.23669,41.0309,80.3482,25.2158,-1.7136,72.4531,213,20.2,1.95,0.3975,599
-2.02943e-06,3.23884e-07,-2.13085e-06,-0.00144468,-9.01862e-05,-0.00234731,29.8211,87.3196,0.830661,44.0387,88.1138,29.8211,0.0364478,77.5976,213,20.2,3.9,0.3975,600
-2.08374e-06,1.54329e-07,-2.17171e-06,-0.00144956,-6.05637e-05,-0.00240587,29.4545,88.7059,0.310716,44.7883,89.3022,29.4433,-0.274354,79.0259,213,20.2,5.85,0.3975,601
-2.05878e-06,8.01884e-08,-2.20135e-06,-0.00134857,-3.54926e-05,-0.00258553,30.8783,80.5276,-2.45651,41.9012,80.9368,30.8781,-2.86551,73.032,213,20.2,7.8,0.3975,602
-2.14442e-06,1.5058e-08,-2.15405e-06,-0.00132034,-2.87414e-05,-0.00242216,48.5196,117.876,-0.225618,59.454,118.279,48.5198,-0.628867,103.492,213,20.2,9.75,0.3975,603
-2.05159e-06,-4.68207e-08,-2.21073e-06,-0.00131909,-3.02856e-05,-0.00252303,44.773,107.649,-0.384661,54.6035,108.243,44.759,-0.96437,94.992,213,20.2,11.7,0.3975,604
-2.10468e-06,-9.89798e-08,-2.12572e-06,-0.00144562,-5.16125e-05,-0.0023456,37.18,111.87,-1.3184,56.991,112.274,37.1655,-1.70792,100.36,213,20.2,13.65,0.3975,605
-2.05055e-06,-2.38308e-07,-2.15584e-06,-0.00145568,-7.61094e-05,-0.00229478,35.5546,109.566,-1.41897,55.9285,110.005,35.5495,-1.85241,98.6267,213,20.2,15.6,0.3975,606
-1.97382e-06,-4.81057e-07,-2.15086e-06,-0.00145387,-0.000142651,-0.00236336,28.8787,89.2157,-1.54664,45.7898,89.634,28.8594,-1.94561,80.7134,213,20.2,17.55,0.3975,607
-1.95552e-06,9.32514e-07,-2.06633e-06,-0.00167965,-0.000579889,-0.00195919,3.7161,50.3963,0.664148,26.0751,51.2798,4.36705,-0.870302,49.7387,213,20.2,0.975,0.3975,608
-2.05588e-06,4.37123e-07,-2.10535e-06,-0.0014664,-0.000152065,-0.00233912,26.997,82.7846,0.716909,41.8952,83.646,26.9969,-0.144376,74.0493,213,20.2,2.925,0.3975,609
-2.12025e-06,2.3515e-07,-2.14237e-06,-0.00142922,-8.69504e-05,-0.0023496,30.9947,87.9683,1.01581,44.3576,88.8495,30.995,0.134259,78.0062,213,20.2,4.875,0.3975,610
-2.1125e-06,1.16557e-07,-2.19086e-06,-0.00149205,-3.80206e-05,-0.00236782,38.1246,118.933,5.09075,58.3571,120.372,38.1189,3.65758,103.864,213,20.2,6.825,0.3975,611
-2.12725e-06,4.59341e-08,-2.16487e-06,-0.00131101,-3.33999e-05,-0.00257399,38.91,93.139,-0.731651,47.5909,93.8004,38.8985,-1.38148,82.7535,213,20.2,8.775,0.3975,612
-2.12418e-06,-1.4379e-08,-2.1687e-06,-0.00129189,-3.17324e-05,-0.00246655,50.2593,120.361,-4.24175,62.4922,120.561,50.2417,-4.42377,108.522,213,20.2,10.725,0.3975,613
-2.11408e-06,-7.11844e-08,-2.19158e-06,-0.00146197,-2.6748e-05,-0.00258487,29.0738,89.9925,-1.18416,46.3799,90.7867,29.0685,-1.97312,81.7836,213,20.2,12.675,0.3975,614
-2.14707e-06,-1.66328e-07,-2.12165e-06,-0.00142849,-7.145e-05,-0.00237643,31.4342,89.0347,1.10799,44.8675,89.9387,31.4344,0.203733,78.9002,213,20.2,14.625,0.3975,615
-2.07761e-06,-3.34326e-07,-2.12578e-06,-0.0015033,-0.000124485,-0.00228083,25.489,84.0136,1.22839,42.4241,85.0478,25.4837,0.199543,75.4533,213,20.2,16.575,0.3975,616
-1.93632e-06,-7.58632e-07,-2.13688e-06,-0.00168686,-0.000548363,-0.00197411,3.95298,52.2773,0.672332,27.0605,53.1519,4.71975,-0.969036,51.5127,213,20.2,18.525,0.3975,617
-5.46057e-07,-1.60197e-06,-2.40755e-06,-0.000193108,-0.00134594,-0.00244214,81.2813,31.9417,-1.99286,42.1195,81.8029,31.8633,-2.43602,73.371,213,18.3545,19.5,0.3975,618
-2.66746e-07,-1.75823e-06,-2.37077e-06,-8.16511e-05,-0.0015541,-0.00235044,84.3788,21.6981,-1.05275,43.4152,85.0779,21.6987,-1.75249,77.8023,213,16.5091,19.5,0.3975,619
-1.26382e-07,-1.67247e-06,-2.40425e-06,-5.23841e-05,-0.00134427,-0.00244322,90.9354,36.0645,-1.13667,46.8201,91.7325,36.0385,-1.90776,81.5789,213,14.6636,19.5,0.3975,620
-7.5076e-08,-1.74889e-06,-2.38753e-06,-3.86448e-05,-0.00152328,-0.00246973,65.4207,18.7015,0.366134,33.4882,66.3817,18.7013,-0.594692,59.7143,213,12.8182,19.5,0.3975,621
-3.13728e-08,-1.69696e-06,-2.41388e-06,-2.61122e-05,-0.00132686,-0.00252926,92.5251,37.2019,-1.78478,47.5231,92.8962,37.1961,-2.15006,82.7176,213,10.9727,19.5,0.3975,622
2.9155e-08,-1.70959e-06,-2.40586e-06,-2.60112e-05,-0.00133475,-0.00252244,92.2574,36.5264,-1.99647,47.4725,92.6093,36.5137,-2.33566,82.6757,213,9.12727,19.5,0.3975,623
7.24743e-08,-1.77063e-06,-2.38721e-06,-3.66711e-05,-0.00151662,-0.00245056,65.7558,19.2919,0.590806,33.6099,66.784,19.2904,-0.435852,59.8468,213,7.28182,19.5,0.3975,624
1.27042e-07,-1.65991e-06,-2.40544e-06,-5.01248e-05,-0.00130302,-0.00260906,63.5732,25.7149,-0.916822,33.066,64.3947,25.7139,-1.7373,57.5465,213,5.43636,19.5,0.3975,625
2.70787e-07,-1.75895e-06,-2.36647e-06,-7.98783e-05,-0.00153306,-0.0024103,70.1668,19.7864,0.378543,35.8633,71.1387,19.7808,-0.587795,64.0204,213,3.59091,19.5,0.3975,626
5.52307e-07,-1.62857e-06,-2.3951e-06,-0.000185127,-0.00140153,-0.00230469,91.6223,33.9713,-1.27744,47.0826,92.2708,33.9397,-1.89437,82.3216,213,1.74545,19.5,0.3975,627
-8.56143e-07,-1.68015e-06,-2.28757e-06,-0.000599428,-0.00164198,-0.00197692,49.8801,5.62848,0.494015,26.0045,50.941,6.12965,-1.06807,48.8099,213,19.2773,19.5,0.3975,628
-3.75598e-07,-1.69741e-06,-2.38097e-06,-0.00015135,-0.00147035,-0.002296,82.8332,26.8475,0.892524,42.0983,83.9932,26.7834,-0.203341,74.4658,213,17.4318,19.5,0.3975,629
-1.95331e-07,-1.69623e-06,-2.39829e-06,-7.60587e-05,-0.00141877,-0.00240063,88.62,31.6276,0.470219,45.0549,89.6057,31.6162,-0.504049,79.102,213,15.5864,19.5,0.3975,630
-1.05676e-07,-1.80608e-06,-2.36582e-06,-2.78009e-05,-0.00158779,-0.00230806,87.2359,21.0212,-0.978023,44.9657,88.0949,21.0206,-1.83643,80.96,213,13.7409,19.5,0.3975,631
-4.50234e-08,-1.80049e-06,-2.38497e-06,-2.36813e-05,-0.00147185,-0.00237964,90.6139,29.1454,0.0627242,46.1188,91.4618,29.1361,-0.775876,81.5077,213,11.8955,19.5,0.3975,632
-4.68497e-10,-1.78135e-06,-2.39936e-06,-3.27981e-05,-0.0013183,-0.00243638,94.1437,39.5799,1.43789,47.3343,95.1252,39.5797,0.456611,82.3956,213,10.05,19.5,0.3975,633
4.64841e-08,-1.78505e-06,-2.39085e-06,-2.34733e-05,-0.00146347,-0.00237969,90.8714,29.7499,0.174835,46.1568,91.6861,29.7376,-0.627547,81.4907,213,8.20455,19.5,0.3975,634
1.08486e-07,-1.78836e-06,-2.37959e-06,-2.95682e-05,-0.00156354,-0.00235486,87.5878,22.4775,-1.117,45.2085,88.4467,22.472,-1.97039,81.0103,213,6.35909,19.5,0.3975,635
1.94135e-07,-1.71941e-06,-2.39531e-06,-7.78908e-05,-0.00142328,-0.00242045,88.237,31.1312,0.152442,44.9223,89.1263,31.1125,-0.7182,78.9013,213,4.51364,19.5,0.3975,636
3.73999e-07,-1.68379e-06,-2.37905e-06,-0.000152547,-0.00142956,-0.00234709,83.5328,29.3289,0.647891,42.4892,84.6041,29.2799,-0.3744,74.7043,213,2.66818,19.5,0.3975,637
8.60868e-07,-1.68391e-06,-2.27112e-06,-0.000597492,-0.00164674,-0.00197812,49.8853,5.34947,0.466295,25.9883,50.922,5.83382,-1.0547,48.8977,213,0.822727,19.5,0.3975,638
-1.65803e-06,-1.5544e-06,-2.0843e-06,-0.00139298,-0.00135457,-0.00150016,5.68982,8.83545,-3.08882,9.53199,14.6712,1.15806,-4.39279,16.9831,213,20.2,19.5,0.40625,639
1.71901e-06,1.71621e-06,-1.64983e-06,-0.00133517,-0.00130833,-0.00179325,3.69243,3.77257,2.32504,8.62099,11.7208,3.59045,-5.5212,14.9401,213,-0.1,0,0.38625,640
6.21048e-07,1.76924e-06,-2.16802e-06,-0.000197516,-0.00123558,-0.0100093,15.8919,13.7689,0.631186,10.8231,19.0823,13.7735,-2.56382,19.5403,213,1.74545,0,0.375,641
3.30145e-07,1.93622e-06,-2.08946e-06,-9.77808e-05,-0.00138751,-0.00962424,15.8557,13.2036,0.884515,11.3511,19.7211,13.2039,-2.98117,20.2463,213,3.59091,0,0.375,642
1.71987e-07,1.86769e-06,-2.12753e-06,-6.41811e-05,-0.00117531,-0.00819535,14.066,11.5093,0.228454,9.56304,16.7102,11.5095,-2.4159,17.1285,213,5.43636,0,0.375,643
9.3618e-08,1.93715e-06,-2.11306e-06,-4.85985e-05,-0.00140182,-0.00831059,15.0811,12.1107,1.46389,11.5171,19.7894,12.1112,-3.24483,20.3142,213,7.28182,0,0.375,644
3.5964e-08,1.90793e-06,-2.10254e-06,-2.78045e-05,-0.00124938,-0.00843106,15.2682,12.5854,1.35445,11.4669,19.778,12.5858,-3.15582,20.3161,213,9.12727,0,0.375,645
-3.44158e-08,1.92246e-06,-2.10313e-06,-2.99838e-05,-0.00126076,-0.0083814,15.3396,12.637,1.52792,11.4789,19.9126,12.6371,-3.0452,20.3215,213,10.9727,0,0.375,646
-9.10994e-08,1.95711e-06,-2.10155e-06,-4.69522e-05,-0.00139212,-0.00831906,15.0927,12.1409,1.4528,11.6237,19.8962,12.1413,-3.35115,20.5012,213,12.8182,0,0.375,647
-1.7011e-07,1.87849e-06,-2.11459e-06,-6.17246e-05,-0.00121635,-0.00851566,15.0066,12.466,1.00585,11.253,19.2592,12.4661,-3.24689,19.9946,213,14.6636,0,0.375,648
-3.26263e-07,1.93452e-06,-2.08806e-06,-0.000102532,-0.00142771,-0.00829411,14.8079,11.8975,1.34126,11.4768,19.5511,11.8981,-3.40256,20.2429,213,16.5091,0,0.375,649
-6.13349e-07,1.72957e-06,-2.16348e-06,-0.000188618,-0.00126369,-0.00854894,14.2682,11.8837,0.519086,10.1384,17.5318,11.8842,-2.74496,18.1253,213,18.3545,0,0.375,650
9.23331e-07,1.8219e-06,-2.02098e-06,-0.000564673,-0.00153595,-0.00789445,13.3714,11.2383,1.78643,9.37764,16.8783,11.3948,-1.87696,16.7028,213,0.822727,0,0.375,651
4.46861e-07,1.85246e-06,-2.11154e-06,-0.000157631,-0.0013257,-0.00829273,14.8321,12.2667,1.51924,11.633,19.8089,12.2662,-3.4571,20.5599,213,2.66818,0,0.375,652
2.45416e-07,1.89228e-06,-2.11552e-06,-8.57001e-05,-0.00131259,-0.00835962,15.0217,12.3272,1.3916,11.7246,19.931,12.3275,-3.51809,20.7215,213,4.51364,0,0.375,653
1.35784e-07,1.99229e-06,-2.10148e-06,-4.24657e-05,-0.00144125,-0.00826551,15.1375,12.0655,1.61908,11.3345,19.7127,12.0657,-2.95632,19.9752,213,6.35909,0,0.375,654
5.58911e-08,1.9897e-06,-2.09881e-06,-3.12408e-05,-0.00134697,-0.00832454,15.2734,12.3838,1.6,11.4874,19.9239,12.3841,-3.05085,20.2845,213,8.20455,0,0.375,655
6.12402e-10,1.97735e-06,-2.09677e-06,-3.81366e-05,-0.00122092,-0.00839368,15.3778,12.7801,1.56686,11.6858,20.1581,12.7801,-3.21343,20.6937,213,10.05,0,0.375,656
-5.70491e-08,1.98279e-06,-2.09727e-06,-3.07149e-05,-0.00134318,-0.00835992,15.2083,12.3258,1.46474,11.4404,19.7768,12.3261,-3.10407,20.2131,213,11.8955,0,0.375,657
-1.36337e-07,1.97951e-06,-2.10504e-06,-4.28132e-05,-0.00141749,-0.00839627,14.9087,11.8896,1.1351,11.3123,19.3342,11.8897,-3.29048,19.9716,213,13.7409,0,0.375,658
-2.46749e-07,1.88442e-06,-2.11641e-06,-8.46139e-05,-0.00129521,-0.00846087,14.8429,12.1841,1.0066,11.5918,19.5161,12.1848,-3.66736,20.5246,213,15.5864,0,0.375,659
-4.52327e-07,1.88969e-06,-2.09795e-06,-0.000155562,-0.00137527,-0.00827243,14.76,12.0813,1.47571,11.2605,19.379,12.0799,-3.14194,19.902,213,17.4318,0,0.375,660
-9.13069e-07,1.81558e-06,-2.04464e-06,-0.000557346,-0.00154361,-0.00786767,13.4541,11.2881,1.91493,9.46808,17.0703,11.4526,-1.86583,16.8451,213,19.2773,0,0.375,661
-1.6976e-06,1.69717e-06,-1.79979e-06,-0.0013348,-0.00131169,-0.00179496,3.67859,3.74758,2.305,9.0488,12.1495,3.52982,-5.94812,15.6789,213,20.2,0,0.38625,662
1.60103e-06,-1.509e-06,-2.00903e-06,-0.00133265,-0.00129924,-0.00177933,3.78093,3.88066,2.44753,9.19761,12.4131,3.67805,-5.98208,15.9374,213,-0.1,19.5,0.38625,663
1.84425e-06,-4.74023e-07,-2.0959e-06,-0.0013407,-0.000142748,-0.00652489,9.36014,12.3011,0.58009,9.37441,15.8147,9.3607,-2.93409,16.4975,213,-0.1,17.55,0.375,664
1.90921e-06,-2.36462e-07,-2.10339e-06,-0.00124011,-7.57222e-05,-0.0103371,14.0799,16.4127,0.542674,11.0311,19.509,14.0796,-2.5533,19.9107,213,-0.1,15.6,0.375,665
1.95141e-06,-9.72915e-08,-2.05852e-06,-0.00126601,-4.78376e-05,-0.0103274,14.029,16.4716,0.549992,11.0687,19.5794,14.0292,-2.55797,19.9499,213,-0.1,13.65,0.375,666
1.93458e-06,-5.04675e-08,-2.08623e-06,-0.00119746,-2.96004e-05,-0.0104916,13.9929,16.3342,0.0454423,11.0349,19.2243,13.9936,-2.84542,19.9748,213,-0.1,11.7,0.375,667
1.97005e-06,2.00233e-08,-2.05029e-06,-0.0011733,-2.91124e-05,-0.0102997,14.4832,16.7782,0.835603,11.1218,19.9286,14.4833,-2.31493,20.0824,213,-0.1,9.75,0.375,668
1.96136e-06,8.52621e-08,-2.0794e-06,-0.00137186,-3.75386e-05,-0.00859211,11.6643,14.5932,0.400353,11.4256,18.9221,11.6649,-3.92915,20.224,213,-0.1,7.8,0.375,669
1.93497e-06,1.51137e-07,-2.10254e-06,-0.00135548,-6.18365e-05,-0.00831162,12.287,15.1268,1.53159,11.4182,19.7472,12.2873,-3.08919,20.1692,213,-0.1,5.85,0.375,670
1.89105e-06,3.21589e-07,-2.07318e-06,-0.00124485,-8.98029e-05,-0.0087241,11.8038,14.3835,0.101197,9.95509,17.1976,11.8034,-2.71253,17.8357,213,-0.1,3.9,0.375,671
1.83935e-06,6.11948e-07,-2.10091e-06,-0.00130448,-0.00018077,-0.00992489,13.7151,16.0069,0.894931,10.9655,19.4143,13.7193,-2.51673,19.7106,213,-0.1,1.95,0.375,672
1.81955e-06,-7.35395e-07,-2.06504e-06,-0.0015858,-0.000502546,-0.0078507,11.2538,13.6328,1.99729,9.48408,17.214,11.4241,-1.75418,16.8372,213,-0.1,18.525,0.375,673
1.91747e-06,-3.30145e-07,-2.08156e-06,-0.00132712,-0.000121825,-0.008212,12.5106,15.1577,1.91258,11.776,20.3093,12.5143,-3.24269,20.7815,213,-0.1,16.575,0.375,674
1.99863e-06,-1.63505e-07,-2.0646e-06,-0.001285,-7.1369e-05,-0.00835916,12.4998,15.1653,1.51502,11.5979,19.938,12.4999,-3.25775,20.5143,213,-0.1,14.625,0.375,675
2.03084e-06,-7.16396e-08,-2.06242e-06,-0.00141257,-2.4012e-05,-0.00858043,11.5674,14.617,0.452412,11.3995,18.9342,11.5674,-3.86477,20.1521,213,-0.1,12.675,0.375,676
2.00563e-06,-1.55918e-08,-2.04984e-06,-0.00119447,-3.61489e-05,-0.00855784,12.5624,15.1064,0.983041,11.6246,19.6694,12.5624,-3.57988,20.635,213,-0.1,10.725,0.375,677
2.03268e-06,4.60852e-08,-2.04685e-06,-0.00132003,-3.34555e-05,-0.00850168,12.1214,14.947,0.936145,11.5614,19.5029,12.1216,-3.61995,20.4566,213,-0.1,8.775,0.375,678
2.02542e-06,1.13503e-07,-2.06842e-06,-0.00146651,-3.37815e-05,-0.00850552,11.4553,14.6019,0.602164,11.3025,18.9045,11.4553,-3.70047,19.9521,213,-0.1,6.825,0.375,679
1.9713e-06,2.31112e-07,-2.07691e-06,-0.00127917,-8.7411e-05,-0.00829747,12.6177,15.2351,1.73622,11.5703,20.056,12.6177,-3.08466,20.4619,213,-0.1,4.875,0.375,680
1.88616e-06,4.32488e-07,-2.06195e-06,-0.00129245,-0.0001489,-0.0083615,12.2981,14.8096,1.35004,11.5083,19.5862,12.3019,-3.4304,20.3756,213,-0.1,2.925,0.375,681
1.84386e-06,9.09818e-07,-1.98947e-06,-0.00157591,-0.000537994,-0.00784319,11.2327,13.5122,1.97176,9.3222,16.987,11.387,-1.65737,16.57,213,-0.1,0.975,0.375,682
-1.8144e-06,6.10148e-07,-2.08809e-06,-0.001385,-0.000171806,-0.00825338,12.0397,14.7044,1.47597,11.0477,19.1369,12.0418,-2.95857,19.5392,213,20.2,1.95,0.375,683
-1.88649e-06,3.22069e-07,-2.07298e-06,-0.00124773,-9.13852e-05,-0.00868857,11.855,14.4395,0.225652,9.92412,17.2567,11.8551,-2.59157,17.7741,213,20.2,3.9,0.375,684
-1.9397e-06,1.54816e-07,-2.11304e-06,-0.0013251,-6.0027e-05,-0.0083971,12.2458,15.0222,1.25405,11.5257,19.6639,12.2457,-3.38754,20.3813,213,20.2,5.85,0.375,685
-1.92463e-06,8.01193e-08,-2.13573e-06,-0.0011944,-3.5043e-05,-0.0105628,13.8229,16.1341,-0.326239,11.3304,19.2343,13.8229,-3.42647,20.498,213,20.2,7.8,0.375,686
-1.99355e-06,1.50267e-08,-2.09157e-06,-0.00120087,-2.8627e-05,-0.00694762,10.4313,13.2727,0.749614,10.4222,17.4334,10.4313,-3.41106,18.373,213,20.2,9.75,0.375,687
-1.91597e-06,-4.63032e-08,-2.1452e-06,-0.00120588,-2.92798e-05,-0.00714213,9.95947,12.8096,-0.117712,9.95169,16.2977,9.95936,-3.60569,17.6115,213,20.2,11.7,0.375,688
-1.96068e-06,-9.98177e-08,-2.0657e-06,-0.00131516,-4.91111e-05,-0.00686457,9.98919,13.0562,0.75249,10.0179,16.9225,9.98882,-3.11341,17.6236,213,20.2,13.65,0.375,689
-1.91196e-06,-2.36691e-07,-2.09702e-06,-0.00126031,-7.54225e-05,-0.0086996,11.8139,14.4615,0.193657,9.92811,17.2559,11.8136,-2.60037,17.7715,213,20.2,15.6,0.375,690
-1.84314e-06,-4.73495e-07,-2.09172e-06,-0.00129929,-0.000147622,-0.00919045,12.6115,15.0795,0.571061,10.3866,18.211,12.6132,-2.5622,18.6166,213,20.2,17.55,0.375,691
-1.83625e-06,9.03152e-07,-2.01789e-06,-0.00158633,-0.000529175,-0.00780591,11.2928,13.6146,2.13361,9.42029,17.2126,11.4563,-1.62793,16.7227,213,20.2,0.975,0.375,692
-1.91663e-06,4.3317e-07,-2.04615e-06,-0.0013264,-0.000147732,-0.00837393,12.1098,14.6984,1.20397,11.1927,19.1421,12.1133,-3.2433,19.8285,213,20.2,2.925,0.375,693
-1.9726e-06,2.33478e-07,-2.0841e-06,-0.0012793,-8.57697e-05,-0.0083295,12.5535,15.1748,1.61181,11.6233,20.0165,12.5536,-3.22999,20.5574,213,20.2,4.875,0.375,694
-1.98123e-06,1.1513e-07,-2.12363e-06,-0.0013677,-3.83057e-05,-0.00883745,11.1772,14.0968,-0.542826,11.239,18.016,11.1773,-4.46212,19.9577,213,20.2,6.825,0.375,695
-1.99174e-06,4.57405e-08,-2.09932e-06,-0.00119549,-3.33805e-05,-0.00877229,12.1005,14.6528,0.10627,11.4918,18.8715,12.1002,-4.11212,20.4565,213,20.2,8.775,0.375,696
-1.98291e-06,-1.42041e-08,-2.10418e-06,-0.00115827,-3.1451e-05,-0.0087341,12.3482,14.823,0.335181,11.7087,19.288,12.3478,-4.12935,20.833,213,20.2,10.725,0.375,697
-1.98219e-06,-7.03787e-08,-2.12293e-06,-0.00133051,-2.7443e-05,-0.00894457,11.14,14.0019,-0.872798,11.3704,17.9351,11.1398,-4.80577,20.2186,213,20.2,12.675,0.375,698
-1.99907e-06,-1.65011e-07,-2.0626e-06,-0.0012797,-7.0191e-05,-0.00839813,12.4398,15.0962,1.36456,11.6277,19.8581,12.4399,-3.39738,20.575,213,20.2,14.625,0.375,699
-1.92009e-06,-3.30036e-07,-2.07022e-06,-0.00132649,-0.000121437,-0.00820127,12.5299,15.1765,1.94327,11.7676,20.3256,12.5336,-3.20958,20.7662,213,20.2,16.575,0.375,700
-1.81589e-06,-7.30752e-07,-2.08841e-06,-0.00159183,-0.000496711,-0.00781015,11.3241,13.7292,2.15599,9.52735,17.3838,11.4964,-1.67092,16.8985,213,20.2,18.525,0.375,701
-5.34344e-07,-1.47343e-06,-2.34719e-06,-0.00017777,-0.00126048,-0.0084066,14.6137,12.2229,1.07967,11.1341,18.9806,12.2233,-3.28763,19.7753,213,18.3545,19.5,0.375,702
-2.6487e-07,-1.61736e-06,-2.31313e-06,-8.25079e-05,-0.00137117,-0.00957824,16.0537,13.4029,1.13696,11.7598,20.3548,13.4035,-3.16476,20.9284,213,16.5091,19.5,0.375,703
-1.26885e-07,-1.53442e-06,-2.343e-06,-5.25134e-05,-0.00117944,-0.00668061,12.7971,10.0284,0.499196,9.83627,16.4846,10.028,-3.18794,17.3689,213,14.6636,19.5,0.375,704
-7.3209e-08,-1.60218e-06,-2.32872e-06,-3.6629e-05,-0.0013824,-0.00829683,15.206,12.2517,1.58254,11.95,20.344,12.2522,-3.556,21.0546,213,12.8182,19.5,0.375,705
-2.94825e-08,-1.55483e-06,-2.35253e-06,-2.20976e-05,-0.0011309,-0.0104273,16.6651,14.4377,0.504759,11.3452,19.93,14.4379,-2.76034,20.5036,213,10.9727,19.5,0.375,706
2.7522e-08,-1.56474e-06,-2.34501e-06,-2.29896e-05,-0.00120961,-0.00844948,15.3401,12.7345,1.37365,11.982,20.3388,12.7346,-3.62513,21.2101,213,9.12727,19.5,0.375,707
7.09938e-08,-1.61946e-06,-2.32933e-06,-3.61129e-05,-0.00137816,-0.00826571,15.2844,12.3392,1.71716,12.0771,20.5775,12.3398,-3.5766,21.2675,213,7.28182,19.5,0.375,708
1.27523e-07,-1.51572e-06,-2.34425e-06,-4.84189e-05,-0.0011715,-0.00940173,15.9401,13.5737,0.971283,11.5991,20.0549,13.5736,-3.14338,20.7319,213,5.43636,19.5,0.375,709
2.67575e-07,-1.613e-06,-2.30788e-06,-8.08789e-05,-0.00138957,-0.00834406,14.8838,12.0089,1.26246,11.8937,19.9673,12.0081,-3.82018,20.9729,213,3.59091,19.5,0.375,710
5.39208e-07,-1.49152e-06,-2.33717e-06,-0.000182737,-0.00126233,-0.00653725,12.2781,9.62931,0.628566,9.68619,16.1396,9.62919,-3.23279,17.0749,213,1.74545,19.5,0.375,711
-8.22125e-07,-1.55826e-06,-2.23903e-06,-0.000547158,-0.00153801,-0.00783266,13.5815,11.4054,2.0791,9.86963,17.6241,11.557,-2.11513,17.5125,213,19.2773,19.5,0.375,712
-3.68667e-07,-1.5395e-06,-2.32457e-06,-0.000146019,-0.0012988,-0.00827142,14.9897,12.4579,1.68581,12.1022,20.4417,12.4544,-3.7627,21.3617,213,17.4318,19.5,0.375,713
-1.91985e-07,-1.54518e-06,-2.33824e-06,-7.47692e-05,-0.00126293,-0.00842995,15.045,12.4356,1.2599,12.0401,20.1917,12.4371,-3.88837,21.2898,213,15.5864,19.5,0.375,714
-1.03535e-07,-1.65936e-06,-2.31018e-06,-2.90852e-05,-0.00142986,-0.00821454,15.3344,12.258,1.88323,11.7834,20.3922,12.2581,-3.1747,20.7332,213,13.7409,19.5,0.375,715
-4.37612e-08,-1.65382e-06,-2.32617e-06,-2.36939e-05,-0.00131786,-0.00835374,15.3134,12.4711,1.56502,11.9756,20.4146,12.4716,-3.53664,21.1307,213,11.8955,19.5,0.375,716
-4.95401e-10,-1.63152e-06,-2.33883e-06,-3.08889e-05,-0.0011683,-0.00844277,15.4308,12.9328,1.50768,12.2015,20.6708,12.9328,-3.73231,21.5999,213,10.05,19.5,0.375,717
4.49333e-08,-1.64026e-06,-2.33197e-06,-2.35559e-05,-0.00131059,-0.00833801,15.361,12.5344,1.63812,11.942,20.4412,12.5351,-3.44279,21.0742,213,8.20455,19.5,0.375,718
1.06073e-07,-1.64744e-06,-2.32156e-06,-3.06314e-05,-0.00141799,-0.00832088,15.1286,12.0816,1.47688,11.6712,19.9741,12.0813,-3.36834,20.5652,213,6.35909,19.5,0.375,719
1.91578e-07,-1.58001e-06,-2.33422e-06,-7.58891e-05,-0.00128735,-0.00846575,14.8967,12.236,1.0371,11.6938,19.6602,12.2371,-3.72746,20.6996,213,4.51364,19.5,0.375,720
3.68478e-07,-1.53418e-06,-2.32031e-06,-0.000147189,-0.00127595,-0.00835773,14.8426,12.3636,1.36321,11.8791,19.9833,12.3611,-3.77497,21.011,213,2.66818,19.5,0.375,721
8.2675e-07,-1.56273e-06,-2.22205e-06,-0.000545542,-0.00154271,-0.00784289,13.5576,11.3676,2.03386,9.83134,17.5487,11.5243,-2.11398,17.4488,213,0.822727,19.5,0.375,722
-1.59873e-06,-1.49677e-06,-2.05096e-06,-0.0013385,-0.00129577,-0.00179555,3.70445,3.83199,2.34011,9.26715,12.4051,3.6006,-6.12918,16.0578,213,20.2,19.5,0.38625,723
1.37049e-06,1.37134e-06,-1.30241e-06,-0.000837639,-0.000815405,-0.013194,21.2771,21.3084,3.88657,14.7016,27.3647,21.1457,-2.03839,26.8396,213,-0.1,0,0.35,724
5.6037e-07,1.03524e-06,-1.45317e-06,-0.000177824,-0.000313454,-0.00544495,2.48028,-7.40948,-0.728498,11.1592,12.0255,-7.39036,-10.2929,21.018,213,1.74545,0,0.325,725
3.2242e-07,1.09221e-06,-1.38205e-06,-9.56711e-05,-0.000308071,-0.00581915,14.1584,-3.27322,0.0995502,13.4883,20.6168,-3.27227,-6.35979,25.573,213,3.59091,0,0.325,726
1.76573e-07,1.13704e-06,-1.4023e-06,-5.81614e-05,-0.000337548,-0.00553431,17.9481,-5.48201,0.173172,13.4719,21.4456,-3.30818,-5.4982,25.9183,213,5.43636,0,0.325,727
8.67072e-08,1.16081e-06,-1.4036e-06,-3.91451e-05,-0.000402777,-0.00675345,20.1178,-1.71659,-1.38171,14.2181,23.5845,-1.71344,-4.85159,27.0041,213,7.28182,0,0.325,728
2.59964e-08,1.16949e-06,-1.38714e-06,-2.57815e-05,-0.000404624,-0.00682357,20.2185,-4.3234,-2.97426,14.3559,22.9766,-4.32061,-5.73514,28.0313,213,9.12727,0,0.325,729
-2.53586e-08,1.17601e-06,-1.39233e-06,-2.86505e-05,-0.000412927,-0.0067779,20.5674,-4.23071,-0.895563,14.077,23.8933,-4.19155,-4.26066,28.1195,213,10.9727,0,0.325,730
-8.55368e-08,1.16377e-06,-1.39455e-06,-3.80908e-05,-0.000404169,-0.00673009,20.1331,-1.94259,-1.47601,14.3577,23.6832,-1.93655,-5.03217,27.2995,213,12.8182,0,0.325,731
-1.76374e-07,1.13895e-06,-1.3981e-06,-5.81747e-05,-0.000398016,-0.00746153,18.5491,-0.455455,0.221775,11.9588,21.3432,-0.453351,-2.57443,22.9308,213,14.6636,0,0.325,732
-3.22393e-07,1.09302e-06,-1.38557e-06,-9.71543e-05,-0.000367118,-0.00734228,15.0964,0.367251,0.0999006,13.0429,20.6412,0.366873,-5.44452,23.7201,213,16.5091,0,0.325,733
-5.61182e-07,1.03286e-06,-1.44421e-06,-0.000170905,-0.000385878,-0.00827275,8.46577,1.46713,-0.569712,10.5315,14.484,1.45819,-6.57898,18.4108,213,18.3545,0,0.325,734
7.68346e-07,1.02295e-06,-1.34284e-06,-0.000254768,-0.000300937,-0.00682202,1.03918,-2.38399,5.52008,14.53,17.6785,-2.12164,-11.3816,25.7127,213,0.822727,0,0.325,735
4.23708e-07,1.06261e-06,-1.39607e-06,-0.000128937,-0.000324747,-0.00730266,11.7153,-2.80228,1.88882,12.8853,19.6604,-2.74834,-6.11022,24.265,213,2.66818,0,0.325,736
2.40132e-07,1.11688e-06,-1.39679e-06,-7.90295e-05,-0.000340163,-0.00734181,16.5415,-2.81921,2.24687,13.2059,22.6,-2.81905,-3.81174,25.9296,213,4.51364,0,0.325,737
1.26304e-07,1.15142e-06,-1.40511e-06,-4.86954e-05,-0.000303118,-0.00479411,18.9865,-3.12143,-3.97096,16.3854,23.8925,-3.12008,-8.87828,30.3048,213,6.35909,0,0.325,738
5.33132e-08,1.16477e-06,-1.39713e-06,-3.28972e-05,-0.000358285,-0.00710609,20.9599,-3.16485,2.43441,15.828,27.5239,-3.1623,-4.13214,31.1824,213,8.20455,0,0.325,739
8.7706e-10,1.1746e-06,-1.3866e-06,-2.78276e-05,-0.000365215,-0.00719328,21.0315,-3.98279,1.8925,15.4479,26.8822,-3.92743,-4.01357,30.8528,213,10.05,0,0.325,740
-5.40622e-08,1.16844e-06,-1.3918e-06,-3.26086e-05,-0.000362967,-0.00712585,20.9986,-3.49463,2.83378,15.7913,27.6893,-3.45814,-3.89337,31.3673,213,11.8955,0,0.325,741
-1.25566e-07,1.1539e-06,-1.39969e-06,-4.92215e-05,-0.000304418,-0.00484778,18.7265,-3.46056,-4.26038,16.294,23.5274,-3.46125,-9.06061,30.1805,213,13.7409,0,0.325,742
-2.39791e-07,1.11767e-06,-1.39515e-06,-7.91231e-05,-0.000342724,-0.00736667,16.5182,-3.02553,2.43427,13.1628,22.638,-3.02357,-3.68751,25.9999,213,15.5864,0,0.325,743
-4.25001e-07,1.06443e-06,-1.39617e-06,-0.000129392,-0.000331245,-0.00711316,11.8726,-3.0931,2.67979,13.6143,20.8632,-3.03841,-6.36547,25.727,213,17.4318,0,0.325,744
-7.58085e-07,1.00913e-06,-1.37263e-06,-0.000241278,-0.00029666,-0.0068185,2.29595,-1.81024,4.84058,14.1648,17.7067,-1.75756,-10.6228,25.0999,213,19.2773,0,0.325,745
-1.34784e-06,1.35188e-06,-1.45146e-06,-0.000833249,-0.000814734,-0.0132299,21.2326,21.2587,3.78546,14.9281,27.5215,21.0899,-2.33465,27.2164,213,20.2,0,0.35,746
1.24962e-06,-1.15506e-06,-1.66252e-06,-0.000834309,-0.000795834,-0.0131619,21.3721,21.4263,4.02219,15.1722,27.9587,21.2475,-2.38568,27.6075,213,-0.1,19.5,0.35,747
1.08887e-06,-4.27351e-07,-1.38984e-06,-0.000393638,-0.000129514,-0.00818218,2.17869,12.068,-0.180086,11.95,17.8863,2.19394,-6.01366,21.0336,213,-0.1,17.55,0.325,748
1.15491e-06,-2.25523e-07,-1.38574e-06,-0.000326975,-7.63454e-05,-0.00608837,-3.29396,16.1646,-0.410159,13.838,21.7161,-3.29571,-5.95995,26.4448,213,-0.1,15.6,0.325,749
1.20085e-06,-1.0718e-07,-1.33851e-06,-0.00034531,-4.22814e-05,-0.00610398,-3.67667,19.9679,0.081093,14.8804,24.8912,-3.64926,-4.86964,29.1698,213,-0.1,13.65,0.325,750
1.21354e-06,-3.88357e-08,-1.35106e-06,-0.000349077,-2.82085e-05,-0.00623745,-4.32568,20.7816,-1.82727,15.6199,25.0743,-4.28004,-6.16558,30.341,213,-0.1,11.7,0.325,751
1.2224e-06,1.51935e-08,-1.32872e-06,-0.00035131,-2.66109e-05,-0.00612547,-4.13862,21.2423,-1.02629,15.6548,25.7628,-4.13852,-5.54688,30.6298,213,-0.1,9.75,0.325,752
1.2013e-06,7.45904e-08,-1.3553e-06,-0.000422956,-3.46492e-05,-0.00844356,2.41596,20.6831,-0.95619,14.5197,24.3829,2.41655,-4.65654,26.2282,213,-0.1,7.8,0.325,753
1.17119e-06,1.59604e-07,-1.39701e-06,-0.000420076,-5.85717e-05,-0.00838219,2.50917,18.8969,-0.249733,13.4355,22.7518,2.52369,-4.1192,24.2421,213,-0.1,5.85,0.325,754
1.13574e-06,3.11073e-07,-1.35426e-06,-0.000319325,-9.10321e-05,-0.00608884,-2.97596,14.5728,-0.469002,13.4224,20.4745,-2.97649,-6.37019,25.319,213,-0.1,3.9,0.325,755
1.07279e-06,5.53233e-07,-1.3931e-06,-0.00031716,-0.000170719,-0.00614881,-3.8274,5.30002,-0.184581,11.9326,14.4693,-3.78529,-9.39593,21.6131,213,-0.1,1.95,0.325,756
1.00738e-06,-5.93976e-07,-1.39375e-06,-0.000309219,-0.000196703,-0.00678622,-1.88294,6.45919,4.60847,14.3745,19.6612,-1.38863,-9.08786,25.7768,213,-0.1,18.525,0.325,757
1.11916e-06,-3.12478e-07,-1.37037e-06,-0.000329531,-0.0001035,-0.00728417,-2.6151,14.1432,1.7113,14.0955,22.0106,-2.59094,-6.18029,26.5786,213,-0.1,16.575,0.325,758
1.17964e-06,-1.57039e-07,-1.35545e-06,-0.000361224,-6.06881e-05,-0.00715613,-4.00442,18.2777,3.20253,14.9256,25.6234,-3.91976,-4.22784,29.6984,213,-0.1,14.625,0.325,759
1.19999e-06,-6.983e-08,-1.34059e-06,-0.000358401,-3.50482e-05,-0.00725199,-3.70369,20.2701,1.40904,16.4682,27.3046,-3.69741,-5.63175,32.013,213,-0.1,12.675,0.325,760
1.21572e-06,-1.18284e-08,-1.32799e-06,-0.000374789,-2.7707e-05,-0.00729625,-4.93139,20.8017,2.11074,15.9329,26.9287,-4.01043,-4.9372,31.4128,213,-0.1,10.725,0.325,761
1.20798e-06,4.26178e-08,-1.33261e-06,-0.000363272,-3.04597e-05,-0.00721442,-3.589,21.0862,2.61517,16.2184,28.069,-3.58877,-4.36781,32.0544,213,-0.1,8.775,0.325,762
1.18467e-06,1.10066e-07,-1.35569e-06,-0.000350528,-4.35964e-05,-0.00718084,-2.96869,19.7877,1.76609,16.3764,27.1546,-2.97115,-5.59832,31.5215,213,-0.1,6.825,0.325,763
1.1521e-06,2.26187e-07,-1.37303e-06,-0.000350929,-7.76757e-05,-0.00711244,-3.44899,16.8104,3.11741,14.6593,24.6243,-3.45113,-4.69436,28.7172,213,-0.1,4.875,0.325,764
1.09916e-06,4.1356e-07,-1.34559e-06,-0.000323686,-0.000124184,-0.00727458,-2.68127,12.1101,1.52664,13.6615,20.4676,-2.65674,-6.85536,25.4843,213,-0.1,2.925,0.325,765
1.0384e-06,7.68021e-07,-1.31543e-06,-0.000305439,-0.000247887,-0.00677351,-2.95292,1.31409,4.67516,14.142,16.9486,-2.57697,-11.3353,25.0793,213,-0.1,0.975,0.325,766
-1.07091e-06,5.55182e-07,-1.3831e-06,-0.000421821,-0.000166886,-0.00890622,3.50383,10.1126,0.0185838,10.6178,15.6716,3.52737,-5.56395,18.4538,213,20.2,1.95,0.325,767
-1.13566e-06,3.11942e-07,-1.35516e-06,-0.000322816,-9.11485e-05,-0.0060816,-3.23319,14.4719,-0.572103,13.5131,20.463,-3.2333,-6.56312,25.5246,213,20.2,3.9,0.325,768
-1.16903e-06,1.60695e-07,-1.40535e-06,-0.000414074,-5.75165e-05,-0.00835886,2.84512,19.0596,-0.243581,13.6366,23.0378,2.85867,-4.23532,24.5086,213,20.2,5.85,0.325,769
-1.18951e-06,7.4996e-08,-1.39359e-06,-0.00032994,-3.41024e-05,-0.00630768,-2.678,20.6233,-1.68797,15.5984,25.0603,-2.66657,-6.13641,29.6147,213,20.2,7.8,0.325,770
-1.2138e-06,1.47225e-08,-1.3658e-06,-0.000414583,-2.55943e-05,-0.00838691,2.48117,21.2784,-1.22905,14.8769,24.9015,2.48134,-4.85231,26.849,213,20.2,9.75,0.325,771
-1.19931e-06,-3.87295e-08,-1.40672e-06,-0.00041361,-2.97078e-05,-0.00851739,2.3173,20.6801,-2.04865,14.5584,23.8691,2.32732,-5.24769,26.165,213,20.2,11.7,0.325,772
-1.19921e-06,-1.0898e-07,-1.34909e-06,-0.000424426,-4.21561e-05,-0.00836296,2.44711,20.2238,-0.25047,13.9859,23.9726,2.44697,-3.99917,25.3705,213,20.2,13.65,0.325,773
-1.15724e-06,-2.25679e-07,-1.37957e-06,-0.000326843,-7.69068e-05,-0.00608978,-3.35313,16.0564,-0.555518,13.8301,21.5807,-3.35342,-6.07949,26.4029,213,20.2,15.6,0.325,774
-1.08936e-06,-4.25919e-07,-1.37979e-06,-0.000322706,-0.000131935,-0.00617471,-2.94895,10.0229,0.924456,12.3824,17.828,-2.89283,-6.93678,23.0109,213,20.2,17.55,0.325,775
-1.02405e-06,7.60075e-07,-1.3501e-06,-0.000301337,-0.000236685,-0.00675431,-2.09638,2.69707,4.92674,14.4079,18.1388,-1.93451,-10.6769,25.5902,213,20.2,0.975,0.325,776
-1.10135e-06,4.1447e-07,-1.33752e-06,-0.000328889,-0.000124737,-0.00712997,-2.92833,12.2078,2.14617,14.1836,21.3446,-2.89631,-7.02263,26.5457,213,20.2,2.925,0.325,777
-1.15121e-06,2.26669e-07,-1.3781e-06,-0.000350082,-7.75617e-05,-0.00713404,-3.43738,16.7677,2.93871,14.7085,24.56,-3.43382,-4.85711,28.7319,213,20.2,4.875,0.325,778
-1.17461e-06,1.11132e-07,-1.38577e-06,-0.000341806,-4.39478e-05,-0.00738127,-2.51579,19.5679,0.874088,16.3487,26.5693,-2.51492,-6.12817,31.0489,213,20.2,6.825,0.325,779
-1.19864e-06,4.26235e-08,-1.37033e-06,-0.000353155,-3.09092e-05,-0.00735527,-2.92188,20.9699,1.84058,16.2049,27.6106,-2.92276,-4.79923,31.5135,213,20.2,8.775,0.325,780
-1.20375e-06,-1.09131e-08,-1.37526e-06,-0.000365585,-2.74111e-05,-0.00739613,-4.21529,20.8574,1.60135,15.6615,26.878,-4.1896,-4.44496,31.1961,213,20.2,10.725,0.325,781
-1.18812e-06,-7.08832e-08,-1.37859e-06,-0.000348419,-3.60256e-05,-0.00747561,-3.20502,19.9563,0.37398,16.449,26.6144,-3.20542,-6.2837,31.472,213,20.2,12.675,0.325,782
-1.17964e-06,-1.57446e-07,-1.35288e-06,-0.000360457,-5.98453e-05,-0.0071784,-4.00708,18.2806,2.95398,14.9875,25.5442,-3.88599,-4.43074,29.7064,213,20.2,14.625,0.325,783
-1.12233e-06,-3.1266e-07,-1.3578e-06,-0.000329315,-0.000102686,-0.00728383,-2.65689,14.1457,1.48382,14.099,21.9071,-2.64361,-6.29089,26.5629,213,20.2,16.575,0.325,784
-1.00258e-06,-5.88321e-07,-1.41856e-06,-0.000317012,-0.000189719,-0.00675057,-2.16179,7.27592,5.39941,14.7759,20.8945,-1.7236,-8.65733,26.7672,213,20.2,18.525,0.325,785
-4.65979e-07,-7.11427e-07,-1.63601e-06,-0.000162792,-0.000321449,-0.0082186,10.5355,6.25541,-0.470478,11.9344,17.0616,6.06618,-6.80731,20.6924,213,18.3545,19.5,0.325,786
-2.51664e-07,-7.44037e-07,-1.61024e-06,-8.45516e-05,-0.000260958,-0.00581619,16.9176,2.54458,-0.404468,14.9555,23.2181,2.53242,-6.69282,26.5299,213,16.5091,19.5,0.325,787
-1.28985e-07,-7.6947e-07,-1.6228e-06,-4.51695e-05,-0.000341324,-0.00834269,21.3508,7.05031,-0.0692456,14.5799,25.2307,7.03032,-3.92913,25.5113,213,14.6636,19.5,0.325,788
-6.42687e-08,-8.00272e-07,-1.61983e-06,-2.74722e-05,-0.000374554,-0.00747886,22.522,3.58579,-0.171997,15.0415,26.2168,3.58528,-3.86627,27.1358,213,12.8182,19.5,0.325,789
-1.90802e-08,-8.02564e-07,-1.62484e-06,-1.98917e-05,-0.000280513,-0.00467646,24.2373,-0.799472,-1.25147,16.8479,28.3394,-0.796632,-5.35639,31.6631,213,10.9727,19.5,0.325,790
1.85075e-08,-7.97657e-07,-1.62861e-06,-1.96312e-05,-0.000336365,-0.00683525,23.5392,4.07232,-1.90205,15.5936,26.4126,4.07155,-4.77467,27.839,213,9.12727,19.5,0.325,791
6.3987e-08,-7.96787e-07,-1.62518e-06,-2.7387e-05,-0.000356433,-0.00672371,22.7968,2.83642,-0.655263,15.4766,26.5474,2.83636,-4.4058,28.0425,213,7.28182,19.5,0.325,792
1.29214e-07,-7.7027e-07,-1.62419e-06,-4.52284e-05,-0.000342239,-0.00752443,21.2186,5.06624,-0.127991,14.0146,24.5676,5.05095,-3.46166,24.8897,213,5.43636,19.5,0.325,793
2.52252e-07,-7.45764e-07,-1.60802e-06,-8.35382e-05,-0.000317574,-0.00734393,17.5983,5.32808,-0.379771,14.5041,23.1208,5.31328,-5.88744,25.3381,213,3.59091,19.5,0.325,794
4.68164e-07,-7.14496e-07,-1.62892e-06,-0.000165626,-0.000321234,-0.00741331,8.46387,3.57124,-0.757906,11.5682,15.4793,3.45506,-7.65715,20.0419,213,1.74545,19.5,0.325,795
-6.58677e-07,-7.32941e-07,-1.56985e-06,-0.000236286,-0.000263515,-0.00677819,3.67983,1.66102,4.53924,14.0482,18.2938,1.38882,-9.80258,24.4993,213,19.2773,19.5,0.325,796
-3.4202e-07,-7.28307e-07,-1.6114e-06,-0.00011613,-0.000272998,-0.00730651,14.5974,2.96704,2.02423,13.8387,22.2038,2.85859,-5.47371,24.5938,213,17.4318,19.5,0.325,797
-1.80046e-07,-7.53162e-07,-1.62007e-06,-6.64754e-05,-0.000276248,-0.00732425,19.9452,4.39234,2.8555,14.6667,26.0771,4.37223,-3.25631,26.3605,213,15.5864,19.5,0.325,798
-9.18267e-08,-7.86543e-07,-1.62114e-06,-3.50677e-05,-0.000299941,-0.00701063,23.0229,3.38488,3.83592,17.0994,30.5298,3.38299,-3.66909,31.2749,213,13.7409,19.5,0.325,799
-3.97304e-08,-8.01237e-07,-1.62203e-06,-2.44861e-05,-0.000299182,-0.00713114,23.794,3.42764,3.09054,17.1228,30.5645,3.4288,-3.6811,31.3022,213,11.8955,19.5,0.325,800
-2.9386e-10,-7.99878e-07,-1.62605e-06,-2.03675e-05,-0.000283959,-0.00723722,24.3082,4.76515,2.29984,16.8561,30.1602,4.76483,-3.55188,30.4188,213,10.05,19.5,0.325,801
3.92519e-08,-7.94636e-07,-1.62952e-06,-2.46438e-05,-0.000289255,-0.00711944,24.0116,4.3929,2.93312,17.0364,30.5083,4.39383,-3.56452,30.8728,213,8.20455,19.5,0.325,802
9.20382e-08,-7.84878e-07,-1.6244e-06,-3.53443e-05,-0.000295678,-0.00706442,22.8575,3.55599,3.22523,17.0056,30.051,3.54792,-3.9602,30.9479,213,6.35909,19.5,0.325,803
1.8068e-07,-7.5485e-07,-1.61972e-06,-6.66703e-05,-0.000278814,-0.00721295,20.1039,4.3753,3.37818,15.6013,27.3474,4.36519,-3.85519,28.0121,213,4.51364,19.5,0.325,804
3.42365e-07,-7.29922e-07,-1.60727e-06,-0.000116995,-0.000274793,-0.00730248,14.4849,2.78553,2.09474,13.8682,22.2111,2.67953,-5.52542,24.6791,213,2.66818,19.5,0.325,805
6.63233e-07,-7.42582e-07,-1.55119e-06,-0.000237128,-0.000275598,-0.00677919,3.67394,0.821657,5.66007,14.813,19.5446,0.692481,-10.0814,25.9728,213,0.822727,19.5,0.325,806
-1.24679e-06,-1.14159e-06,-1.70429e-06,-0.000838271,-0.000786049,-0.0131615,21.3768,21.4503,4.03309,15.266,28.0672,21.2579,-2.46483,27.7609,213,20.2,19.5,0.35,807
9.69649e-07,9.80158e-07,-9.62861e-07,-0.00022164,-0.000215616,-0.000106505,-9.03166,-8.1469,7.87871,11.1956,11.2855,-9.4798,-11.1056,21.6241,213,-0.1,0,0.25,808
5.66343e-07,9.41503e-07,-1.42328e-06,-0.000164807,-0.000157169,-0.000165999,4.52969,5.65147,4.35464,3.43436,8.08317,5.23818,1.21445,5.97762,213,1.74545,0,0.175,809
3.19982e-07,1.00177e-06,-1.3529e-06,-0.000101209,-0.000177924,-0.000179364,16.6258,5.3583,5.14671,7.15795,18.0393,5.36805,3.72343,13.5686,213,3.59091,0,0.175,810
1.75294e-07,1.0453e-06,-1.37128e-06,-5.85688e-05,-0.000185231,-0.000192155,24.9955,6.392,5.37504,10.5024,25.6604,6.44649,4.65566,20.169,213,5.43636,0,0.175,811
8.6729e-08,1.06685e-06,-1.3678e-06,-3.75794e-05,-0.000186048,-0.000208156,28.4681,6.66173,3.41464,13.2736,29.2126,6.66663,2.66528,24.79,213,7.28182,0,0.175,812
2.70349e-08,1.0799e-06,-1.35134e-06,-2.87795e-05,-0.000182554,-0.000206978,31.0198,8.43409,4.84683,13.9156,31.8469,8.43826,4.0156,25.9046,213,9.12727,0,0.175,813
-2.61568e-08,1.08197e-06,-1.35615e-06,-2.86961e-05,-0.000178627,-0.000211751,30.9609,8.93974,4.07473,14.5213,32.0393,8.93941,2.99667,26.5744,213,10.9727,0,0.175,814
-8.62725e-08,1.0664e-06,-1.35904e-06,-3.79127e-05,-0.000187012,-0.000207355,28.3729,6.47392,3.48605,13.0992,29.0244,6.48248,2.82599,24.575,213,12.8182,0,0.175,815
-1.75112e-07,1.04541e-06,-1.36753e-06,-5.87558e-05,-0.000184699,-0.000191015,25.1069,6.60902,5.6814,10.3543,25.7168,6.67227,5.00824,19.9287,213,14.6636,0,0.175,816
-3.20282e-07,1.00151e-06,-1.35584e-06,-0.000101494,-0.000175171,-0.000180285,16.7285,5.9073,5.15615,7.2723,18.2069,5.92281,3.66227,13.5564,213,16.5091,0,0.175,817
-5.64843e-07,9.40542e-07,-1.41519e-06,-0.000162487,-0.000157824,-0.000165874,5.03775,5.72265,4.54021,3.33728,8.12456,5.72603,1.45001,5.85606,213,18.3545,0,0.175,818
7.31746e-07,9.12922e-07,-1.32305e-06,-0.000189845,-0.000149028,-0.00014888,0.872904,6.86803,6.88973,3.91826,8.08306,6.30107,0.246536,7.11491,213,0.822727,0,0.175,819
4.29052e-07,9.74158e-07,-1.3685e-06,-0.000133495,-0.000167635,-0.000201197,7.7872,2.77289,-2.15661,7.47638,10.276,2.80414,-4.67671,12.9495,213,2.66818,0,0.175,820
2.37983e-07,1.0312e-06,-1.36957e-06,-7.84018e-05,-0.000192195,-0.000158763,22.6989,5.98545,10.8958,8.95277,23.7152,10.0554,5.80961,16.2053,213,4.51364,0,0.175,821
1.26155e-07,1.05607e-06,-1.37049e-06,-4.79903e-05,-0.000184555,-0.000206749,26.2371,6.17923,2.91934,11.8825,26.4593,6.18212,2.69427,22.2273,213,6.35909,0,0.175,822
5.47632e-08,1.07576e-06,-1.36711e-06,-3.23462e-05,-0.000189569,-0.000184693,31.5899,8.49788,9.21405,11.9743,32.2407,8.76903,8.29213,23.7137,213,8.20455,0,0.175,823
3.1988e-10,1.08466e-06,-1.35522e-06,-2.88228e-05,-0.000192737,-0.000197013,30.989,6.91411,6.28612,13.6377,32.2752,6.91426,4.99977,26.3704,213,10.05,0,0.175,824
-5.40488e-08,1.07569e-06,-1.3613e-06,-3.25747e-05,-0.000182681,-0.000202354,30.528,8.48109,5.59166,13.315,31.3745,8.48165,4.74455,24.9721,213,11.8955,0,0.175,825
-1.25978e-07,1.0559e-06,-1.36526e-06,-4.81392e-05,-0.000185035,-0.000205677,26.2566,6.14995,3.11813,11.7556,26.4408,6.1544,2.92951,22.0762,213,13.7409,0,0.175,826
-2.38254e-07,1.03081e-06,-1.36822e-06,-7.86626e-05,-0.000189,-0.000158791,22.9323,6.72654,11.1635,8.6911,23.95,10.3045,6.56783,15.8478,213,15.5864,0,0.175,827
-4.29404e-07,9.73346e-07,-1.3696e-06,-0.000132519,-0.000170265,-0.000189193,8.89781,3.35397,0.573794,6.44965,11.1674,3.39015,-1.73194,11.2497,213,17.4318,0,0.175,828
-7.32127e-07,9.19993e-07,-1.35253e-06,-0.000194214,-0.000146097,-0.000152626,-0.253403,6.81383,5.85485,4.53513,7.81,5.86554,-1.26027,8.27127,213,19.2773,0,0.175,829
-9.61231e-07,9.74213e-07,-1.10856e-06,-0.000214894,-0.000210737,-0.000127361,-8.90383,-8.29319,3.95268,9.60301,8.19051,-10.4193,-11.0155,18.915,213,20.2,0,0.25,830
8.6208e-07,-7.83314e-07,-1.32143e-06,-0.000217947,-0.000193359,-0.000127558,-8.03173,-4.42033,5.24416,10.5518,10.4522,-7.00868,-10.6514,19.5386,213,-0.1,19.5,0.25,831
9.94286e-07,-4.30928e-07,-1.35886e-06,-0.000163335,-0.000146851,-0.000170962,5.38394,7.80507,4.26368,3.34036,9.55693,5.01955,2.87621,5.9082,213,-0.1,17.55,0.175,832
1.06459e-06,-2.25282e-07,-1.35287e-06,-0.000185639,-7.31979e-05,-0.000189155,5.20708,21.7218,4.69062,9.50858,22.7091,5.21849,3.69192,18.3017,213,-0.1,15.6,0.175,833
1.09813e-06,-1.06705e-07,-1.30587e-06,-0.000191439,-4.70699e-05,-0.000192869,5.90794,27.1122,5.69789,11.4173,27.8266,5.89945,4.99196,22.3947,213,-0.1,13.65,0.175,834
1.11235e-06,-4.18978e-08,-1.31496e-06,-0.000196437,-2.58245e-05,-0.000204619,5.59436,30.653,4.3926,13.9205,31.4495,5.58186,3.6086,26.9086,213,-0.1,11.7,0.175,835
1.11997e-06,1.56272e-08,-1.29171e-06,-0.000198215,-2.94454e-05,-0.000198826,5.36994,30.158,5.28016,13.6861,31.4052,5.36986,4.033,26.7289,213,-0.1,9.75,0.175,836
1.10126e-06,7.55916e-08,-1.31964e-06,-0.000195205,-3.32626e-05,-0.000204437,5.21212,28.9974,3.85625,13.3471,29.7822,5.19563,3.08795,25.7053,213,-0.1,7.8,0.175,837
1.08158e-06,1.59751e-07,-1.36419e-06,-0.000189939,-5.30715e-05,-0.000192926,5.70221,25.8046,5.2635,11.0651,26.5691,5.76238,4.43883,21.4991,213,-0.1,5.85,0.175,838
1.04191e-06,3.07558e-07,-1.32212e-06,-0.000179858,-9.49656e-05,-0.0001833,5.10924,17.5777,4.60367,7.70514,18.7949,5.11106,3.38464,14.6237,213,-0.1,3.9,0.175,839
9.72378e-07,5.6132e-07,-1.36334e-06,-0.000158838,-0.00016798,-0.00016594,4.95911,3.61639,3.91601,3.41158,7.60627,4.10213,0.783113,5.90975,213,-0.1,1.95,0.175,840
9.10137e-07,-5.90193e-07,-1.37223e-06,-0.00015466,-0.000169993,-0.000160348,6.29789,4.04593,5.46249,2.74084,8.09011,5.10776,2.60844,4.75341,213,-0.1,18.525,0.175,841
1.03299e-06,-3.12119e-07,-1.34319e-06,-0.000177574,-0.000105458,-0.000187636,4.27205,14.8641,2.79432,6.55335,15.3413,4.35449,2.23464,12.1859,213,-0.1,16.575,0.175,842
1.08661e-06,-1.60469e-07,-1.32682e-06,-0.000189126,-6.08082e-05,-0.000195066,4.97439,23.8211,4.10194,10.4639,24.381,5.0631,3.4533,20.1711,213,-0.1,14.625,0.175,843
1.09824e-06,-6.89105e-08,-1.31104e-06,-0.000191676,-3.32342e-05,-0.000208138,5.717,28.9882,3.29917,13.1923,29.2978,5.79349,2.91311,25.0689,213,-0.1,12.675,0.175,844
1.11944e-06,-1.34363e-08,-1.29807e-06,-0.00020976,-2.94997e-05,-0.000185481,3.83748,30.3132,7.40333,13.7746,31.356,6.39131,3.80674,26.3522,213,-0.1,10.725,0.175,845
1.11307e-06,4.48852e-08,-1.30287e-06,-0.000209678,-3.07507e-05,-0.000190531,3.26809,29.5481,6.08033,13.6591,30.4567,5.30138,3.13848,26.3035,213,-0.1,8.775,0.175,846
1.08767e-06,1.13653e-07,-1.32674e-06,-0.000189363,-4.31582e-05,-0.000206641,5.48534,26.9591,2.94758,12.3444,27.2956,5.48944,2.60693,23.3811,213,-0.1,6.825,0.175,847
1.06578e-06,2.22658e-07,-1.34487e-06,-0.000185778,-7.57975e-05,-0.000189192,4.92715,21.0805,4.4257,8.90698,21.6048,5.03768,3.79086,17.2244,213,-0.1,4.875,0.175,848
1.0075e-06,4.16209e-07,-1.31901e-06,-0.000170719,-0.000130133,-0.000185646,3.79933,9.76044,1.60694,5.16864,10.8572,3.7896,0.519909,9.15154,213,-0.1,2.925,0.175,849
9.18698e-07,7.38102e-07,-1.29621e-06,-0.000151453,-0.000189585,-0.00015711,5.54022,-0.0605448,4.70926,3.63949,6.30125,4.86542,-0.977733,6.67786,213,-0.1,0.975,0.175,850
-9.70464e-07,5.62755e-07,-1.35457e-06,-0.000159024,-0.000167281,-0.000163071,5.24826,4.03549,4.65386,2.74156,7.11466,5.19142,1.63153,4.81853,213,20.2,1.95,0.175,851
-1.04189e-06,3.0707e-07,-1.32241e-06,-0.00017848,-9.47391e-05,-0.000184806,5.32082,17.6202,4.39163,7.88136,18.8916,5.31214,3.1289,14.7924,213,20.2,3.9,0.175,852
-1.0829e-06,1.59277e-07,-1.37223e-06,-0.000189608,-5.44205e-05,-0.000192476,5.69775,25.5534,5.27661,10.871,26.2805,5.70877,4.53847,21.1812,213,20.2,5.85,0.175,853
-1.10119e-06,7.62463e-08,-1.35797e-06,-0.000196663,-3.17552e-05,-0.000203903,5.05253,29.2734,3.98909,13.3256,29.9656,5.035,3.31439,25.8339,213,20.2,7.8,0.175,854
-1.12326e-06,1.45965e-08,-1.32833e-06,-0.000198393,-3.01826e-05,-0.000199128,5.23007,29.936,5.12207,13.6129,31.1419,5.23024,3.91601,26.5931,213,20.2,9.75,0.175,855
-1.11241e-06,-4.17256e-08,-1.37034e-06,-0.000197961,-2.33894e-05,-0.000204622,5.45519,31.0954,4.47689,14.0196,31.8147,5.43726,3.77554,27.2463,213,20.2,11.7,0.175,856
-1.09983e-06,-1.05655e-07,-1.3159e-06,-0.000191126,-4.83487e-05,-0.000193002,5.85135,26.8217,5.57575,11.3188,27.5055,5.87541,4.86793,22.151,213,20.2,13.65,0.175,857
-1.06467e-06,-2.2501e-07,-1.34632e-06,-0.000184246,-7.28616e-05,-0.00019158,5.34665,21.7062,4.26942,9.78788,22.7697,5.35867,3.19392,18.5882,213,20.2,15.6,0.175,858
-9.92593e-07,-4.33031e-07,-1.35044e-06,-0.000163644,-0.000145694,-0.000167678,5.72477,8.36124,5.13231,2.74049,9.51072,5.67786,4.02974,4.87074,213,20.2,17.55,0.175,859
-9.27553e-07,7.40015e-07,-1.33007e-06,-0.000148862,-0.000192799,-0.00015392,6.16068,-0.292493,5.41784,4.25483,7.22411,5.34746,-1.28555,7.74381,213,20.2,0.975,0.175,860
-1.00659e-06,4.1632e-07,-1.31169e-06,-0.000172188,-0.000131119,-0.000179104,3.96549,9.99754,2.94968,4.5434,11.029,3.94152,1.9422,8.27041,213,20.2,2.925,0.175,861
-1.06633e-06,2.22708e-07,-1.34994e-06,-0.000185731,-7.57904e-05,-0.000188432,5.01025,21.1577,4.61354,8.85376,21.7141,5.06084,4.00657,17.2046,213,20.2,4.875,0.175,862
-1.08733e-06,1.12303e-07,-1.35618e-06,-0.000190353,-4.25796e-05,-0.00020556,5.40253,27.1067,3.16893,12.2813,27.4051,5.43064,2.84246,23.3762,213,20.2,6.825,0.175,863
-1.11575e-06,4.51208e-08,-1.34016e-06,-0.000209874,-3.16149e-05,-0.000190273,3.16455,29.3463,6.04337,13.5968,30.1863,5.37526,2.99264,26.0841,213,20.2,8.775,0.175,864
-1.12095e-06,-1.41043e-08,-1.34489e-06,-0.000209776,-2.88829e-05,-0.000186065,3.83672,30.4054,7.31926,13.8438,31.3951,6.45893,3.70738,26.4196,213,20.2,10.725,0.175,865
-1.09751e-06,-6.64677e-08,-1.34846e-06,-0.000192895,-3.27839e-05,-0.000206795,5.59179,29.108,3.55017,13.144,29.3804,5.77715,3.09241,25.0537,213,20.2,12.675,0.175,866
-1.08664e-06,-1.59751e-07,-1.32432e-06,-0.000189564,-6.12072e-05,-0.000193214,5.00497,23.8574,4.4689,10.3362,24.4228,5.15812,3.75038,20.0057,213,20.2,14.625,0.175,867
-1.03316e-06,-3.11691e-07,-1.33068e-06,-0.000178134,-0.000106676,-0.000185993,4.17718,14.6726,3.0229,6.354,15.1597,4.26126,2.45171,11.9068,213,20.2,16.575,0.175,868
-9.15021e-07,-5.86797e-07,-1.39679e-06,-0.000154543,-0.000164057,-0.000159701,6.94129,5.5439,6.18365,2.71929,9.28421,5.539,3.84563,4.82039,213,20.2,18.525,0.175,869
-4.68399e-07,-6.58384e-07,-1.60462e-06,-0.000158496,-0.000158052,-0.000170511,5.54233,5.60755,3.77758,3.77683,8.45278,5.57556,0.899118,6.60323,213,18.3545,19.5,0.175,870
-2.49773e-07,-6.90979e-07,-1.57803e-06,-8.68371e-05,-0.000177296,-0.000184094,19.6965,6.41029,5.41185,7.89358,20.4478,6.41012,4.66068,14.9892,213,16.5091,19.5,0.175,871
-1.28785e-07,-7.19536e-07,-1.58938e-06,-4.43082e-05,-0.000186816,-0.000192004,28.2889,7.35808,6.59605,11.4024,28.8036,7.44057,5.99881,22.1192,213,14.6636,19.5,0.175,872
-6.38523e-08,-7.48554e-07,-1.58538e-06,-2.87482e-05,-0.000185826,-0.000200215,31.3537,8.28289,6.16944,12.9278,31.6888,8.28411,5.83315,24.7214,213,12.8182,19.5,0.175,873
-1.87504e-08,-7.5501e-07,-1.58707e-06,-2.05457e-05,-0.000183722,-0.000214006,32.2328,8.26631,3.81827,14.7313,32.7569,8.2661,3.29438,27.3181,213,10.9727,19.5,0.175,874
1.91286e-08,-7.53178e-07,-1.59083e-06,-2.04011e-05,-0.0001819,-0.000213662,32.47,8.74989,4.08486,14.6061,32.8822,8.7524,3.67012,27.0317,213,9.12727,19.5,0.175,875
6.30867e-08,-7.4724e-07,-1.5875e-06,-2.9142e-05,-0.000176857,-0.000210678,31.1193,9.42369,4.45619,13.6191,31.4052,9.42707,4.16693,25.0263,213,7.28182,19.5,0.175,876
1.28779e-07,-7.2108e-07,-1.59051e-06,-4.48115e-05,-0.000185942,-0.000190089,28.4286,7.69995,7.09094,11.2044,28.9221,7.78422,6.5132,21.8012,213,5.43636,19.5,0.175,877
2.49921e-07,-6.91826e-07,-1.57584e-06,-8.62371e-05,-0.000177443,-0.000183497,19.8827,6.48682,5.59764,7.90694,20.6397,6.5016,4.82584,15.0462,213,3.59091,19.5,0.175,878
4.69843e-07,-6.58845e-07,-1.59749e-06,-0.000163967,-0.000158052,-0.000166132,4.63663,5.50536,4.31858,3.32434,7.96335,5.18254,1.31467,5.78353,213,1.74545,19.5,0.175,879
-6.38051e-07,-6.77236e-07,-1.54825e-06,-0.000196577,-0.000144992,-0.000151661,-0.6279,6.94869,5.96914,5.08308,8.17043,6.11524,-1.99574,9.31028,213,19.2773,19.5,0.175,880
-3.44701e-07,-6.77151e-07,-1.58244e-06,-0.000118466,-0.000171605,-0.000192668,11.8254,4.0207,0.92704,7.42544,13.7232,4.17772,-1.12773,13.0348,213,17.4318,19.5,0.175,881
-1.79509e-07,-7.0601e-07,-1.59123e-06,-6.55595e-05,-0.000174475,-0.00016495,26.8634,10.8665,12.2655,8.25979,26.8879,12.7393,10.3683,15.471,213,15.5864,19.5,0.175,882
-9.28562e-08,-7.35592e-07,-1.58973e-06,-3.51847e-05,-0.000179606,-0.000194982,30.8772,9.66539,7.40692,12.0361,31.1319,9.75777,7.0598,22.843,213,13.7409,19.5,0.175,883
-3.91495e-08,-7.51544e-07,-1.58972e-06,-2.44392e-05,-0.000180113,-0.000197834,33.1458,10.2813,7.67847,12.8998,33.3053,10.2945,7.50575,24.5244,213,11.8955,19.5,0.175,884
6.11237e-11,-7.54059e-07,-1.59274e-06,-2.05253e-05,-0.000180236,-0.000208943,33.0366,9.57915,5.36275,13.9726,33.1721,9.57949,5.22689,26.0432,213,10.05,19.5,0.175,885
3.88229e-08,-7.47808e-07,-1.59741e-06,-2.38194e-05,-0.00017179,-0.00019972,33.8964,12.1633,8.06103,12.9605,33.9375,12.1667,8.01654,24.1153,213,8.20455,19.5,0.175,886
9.26879e-08,-7.35588e-07,-1.59265e-06,-3.55963e-05,-0.000177811,-0.000194237,31.0156,10.1278,7.71524,11.9497,31.2618,10.2345,7.36236,22.6007,213,6.35909,19.5,0.175,887
1.79866e-07,-7.07574e-07,-1.59093e-06,-6.5643e-05,-0.000171713,-0.000161416,27.4318,11.8527,13.3652,8.03298,27.446,13.8237,11.38,14.9942,213,4.51364,19.5,0.175,888
3.44539e-07,-6.77887e-07,-1.57828e-06,-0.000119168,-0.000171765,-0.00019244,11.6629,3.93779,0.901102,7.5282,13.6928,4.17259,-1.3636,13.1905,213,2.66818,19.5,0.175,889
6.40467e-07,-6.79307e-07,-1.53044e-06,-0.000192851,-0.000145186,-0.00014395,0.97028,7.97111,8.15275,4.67783,9.56612,7.31756,0.210458,8.45859,213,0.822727,19.5,0.175,890
5.11347e-07,9.25096e-07,-1.47469e-06,-0.000152259,-0.000260868,-0.00158282,12.3491,3.31296,3.70159,7.37134,14.406,5.29428,-0.33666,12.8856,213,2.05,0.15,0.175,891
2.71975e-07,9.84127e-07,-1.43528e-06,-8.60751e-05,-0.000280298,-0.00103509,17.9745,-2.41176,4.71953,10.8735,19.2571,3.51508,-2.48986,19.4525,213,4.05,0.15,0.175,892
1.3866e-07,1.01929e-06,-1.44934e-06,-4.89547e-05,-0.000279433,-0.000962976,22.4512,-2.36935,2.2202,13.0141,23.6252,1.07985,-2.40301,24.4734,213,6.05,0.15,0.175,893
5.84813e-08,1.03724e-06,-1.44052e-06,-3.15943e-05,-0.000296018,-0.00155833,25.124,2.08472,3.13294,12.1127,26.0525,2.46207,1.82712,23.9142,213,8.05,0.15,0.175,894
6.52799e-11,1.04637e-06,-1.42556e-06,-2.67507e-05,-0.000304045,-0.00104967,25.3592,-3.99592,3.84136,15.1915,26.3843,2.81904,-3.99867,27.6127,213,10.05,0.15,0.175,895
-5.78136e-08,1.03711e-06,-1.43491e-06,-3.17267e-05,-0.000294,-0.00153583,25.2467,2.43372,3.10387,11.9817,26.0808,2.58611,2.11739,23.7325,213,12.05,0.15,0.175,896
-1.38569e-07,1.01938e-06,-1.44817e-06,-4.89542e-05,-0.000278409,-0.000960715,22.617,-2.04145,2.49627,12.8837,23.6951,1.44914,-2.07238,24.1996,213,14.05,0.15,0.175,897
-2.72335e-07,9.83565e-07,-1.43718e-06,-8.61039e-05,-0.000279925,-0.00153919,19.1728,2.4012,3.37942,9.32371,20.2431,3.11455,1.59572,17.9363,213,16.05,0.15,0.175,898
-5.11099e-07,9.22075e-07,-1.47204e-06,-0.000149707,-0.000259125,-0.00131772,10.1556,-0.346878,2.3169,7.30583,12.223,2.29124,-2.38864,12.9237,213,18.05,0.15,0.175,899
6.8333e-07,8.90001e-07,-1.46068e-06,-0.000188573,-0.000216358,-0.00104819,7.60863,5.06794,6.34642,3.64038,9.28569,7.73237,2.00493,6.64175,213,1.05,0.15,0.175,900
3.74857e-07,9.5311e-07,-1.42923e-06,-0.000119685,-0.000269828,-0.000877778,12.4736,-4.34309,4.47273,9.29863,13.9692,3.26202,-4.62802,16.1672,213,3.05,0.15,0.175,901
1.96083e-07,1.00492e-06,-1.44116e-06,-6.6657e-05,-0.000294173,-0.00112914,21.534,-1.38666,6.87543,12.2222,23.0094,5.44827,-1.43493,21.8323,213,5.05,0.15,0.175,902
9.4148e-08,1.0307e-06,-1.44585e-06,-4.0089e-05,-0.000285539,-0.00115131,24.938,0.689314,4.73421,12.6638,25.9692,3.7508,0.641554,23.925,213,7.05,0.15,0.175,903
2.82452e-08,1.04419e-06,-1.42808e-06,-2.92077e-05,-0.000297739,-0.00115902,26.1082,-0.822326,5.48465,14.0515,27.2742,4.32513,-0.828765,25.9133,213,9.05,0.15,0.175,904
-2.7553e-08,1.0459e-06,-1.43254e-06,-2.89391e-05,-0.000299761,-0.00113895,25.9638,-1.18476,5.09783,13.9741,26.7596,4.30586,-1.1886,25.6463,213,11.05,0.15,0.175,905
-9.39792e-08,1.03074e-06,-1.4417e-06,-4.03771e-05,-0.000283167,-0.00113369,25.2061,1.33113,5.09202,12.3724,26.0388,4.29646,1.29401,23.3885,213,13.05,0.15,0.175,906
-1.95979e-07,1.00503e-06,-1.43909e-06,-6.68827e-05,-0.000293182,-0.00113071,21.5748,-1.19046,6.93668,12.1741,23.108,5.45334,-1.24028,21.7868,213,15.05,0.15,0.175,907
-3.75088e-07,9.52524e-07,-1.43312e-06,-0.000119381,-0.000270644,-0.000865558,12.6164,-4.33556,4.76225,9.33315,14.0931,3.52311,-4.57316,16.2127,213,17.05,0.15,0.175,908
-6.80777e-07,8.95524e-07,-1.45959e-06,-0.000191612,-0.000233512,-0.000885676,2.87868,-1.38273,4.22655,5.55358,6.9945,2.84067,-4.11266,9.72039,213,19.05,0.15,0.175,909
-9.4648e-07,5.3474e-07,-1.42876e-06,-0.000257534,-0.0001588,-0.00110056,-2.47384,7.57695,2.30221,6.83111,9.76565,1.53625,-3.89658,11.9142,213,20.05,2.07,0.175,910
-1.01197e-06,2.94222e-07,-1.40123e-06,-0.000284527,-9.05686e-05,-0.00144223,-0.207583,17.4689,2.16822,9.66328,18.7951,1.16591,-0.531469,18.5363,213,20.05,3.99,0.175,911
-1.04902e-06,1.53136e-07,-1.44155e-06,-0.000287262,-5.20792e-05,-0.00145257,0.666681,22.1031,1.61058,11.6438,23.1978,1.27226,-0.0897276,22.6373,213,20.05,5.91,0.175,912
-1.06715e-06,7.44119e-08,-1.43011e-06,-0.000288833,-3.23469e-05,-0.00145805,1.05418,24.4185,1.00646,12.646,25.2661,1.23899,-0.0259092,24.6838,213,20.05,7.83,0.175,913
-1.0876e-06,1.43927e-08,-1.40136e-06,-0.000307547,-2.72086e-05,-0.0013848,-1.82648,24.5232,1.59211,13.7145,25.6024,0.513046,-1.8266,26.3372,213,20.05,9.75,0.175,914
-1.07739e-06,-4.05396e-08,-1.43958e-06,-0.000299281,-2.50594e-05,-0.00143969,-0.106512,25.0155,1.10181,13.1041,25.9828,0.253436,-0.225416,25.9721,213,20.05,11.67,0.175,915
-1.06511e-06,-1.01784e-07,-1.39846e-06,-0.000291328,-4.33358e-05,-0.00143957,0.55288,23.1473,1.6508,11.832,24.0133,0.988456,0.349223,23.351,213,20.05,13.59,0.175,916
-1.03375e-06,-2.14159e-07,-1.42156e-06,-0.000285209,-7.01457e-05,-0.00143606,0.48815,20.1286,2.25928,10.6556,21.3601,1.46715,0.0488202,20.6387,213,20.05,15.51,0.175,917
-9.68237e-07,-4.06254e-07,-1.42191e-06,-0.000270227,-0.000130388,-0.00110596,-3.20501,11.1256,2.13326,8.29055,12.6261,1.38282,-3.95504,14.6601,213,20.05,17.43,0.175,918
-9.0585e-07,7.03464e-07,-1.42732e-06,-0.000229951,-0.000192974,-0.000885236,-0.517175,3.08296,4.79492,5.2298,7.11997,3.58036,-3.33962,9.21461,213,20.05,1.11,0.175,919
-9.77802e-07,3.96309e-07,-1.38748e-06,-0.000269028,-0.000125268,-0.000843663,-4.36124,11.6495,4.23566,8.79877,13.0588,3.00382,-4.53872,15.2916,213,20.05,3.03,0.175,920
-1.03158e-06,2.13603e-07,-1.4184e-06,-0.000294267,-7.34815e-05,-0.000850267,-5.78817,18.9663,5.25324,13.0418,20.2844,3.94628,-5.79929,22.8284,213,20.05,4.95,0.175,921
-1.05264e-06,1.08257e-07,-1.42611e-06,-0.000279427,-4.10019e-05,-0.000928812,-3.10442,23.4952,2.33401,13.588,24.002,1.89667,-3.17393,25.0289,213,20.05,6.87,0.175,922
-1.0786e-06,4.29132e-08,-1.40556e-06,-0.000305264,-3.12597e-05,-0.000941335,-7.40622,23.305,1.04914,15.7446,24.0823,0.27261,-7.40695,28.438,213,20.05,8.79,0.175,923
-1.08223e-06,-1.26146e-08,-1.40899e-06,-0.000316281,-2.86103e-05,-0.000901744,-8.04277,24.3567,3.95824,16.5018,24.9557,3.36449,-8.04799,29.0316,213,20.05,10.71,0.175,924
-1.06205e-06,-6.47368e-08,-1.42318e-06,-0.000284874,-3.1898e-05,-0.000905572,-2.84522,25.4262,4.21547,14.3988,25.9379,3.7182,-2.85964,26.137,213,20.05,12.63,0.175,925
-1.05147e-06,-1.51532e-07,-1.39791e-06,-0.000296528,-5.85281e-05,-0.000870759,-5.76966,20.8944,4.52057,13.8239,21.7622,3.7688,-5.88567,24.3041,213,20.05,14.55,0.175,926
-1.0033e-06,-2.94696e-07,-1.40346e-06,-0.000273036,-0.000100048,-0.00085701,-4.01988,15.3016,4.02742,10.2628,16.4313,2.97203,-4.09422,18.0608,213,20.05,16.47,0.175,927
-8.992e-07,-5.46393e-07,-1.46882e-06,-0.000246468,-0.000155694,-0.000883764,-1.17646,8.43186,5.41331,6.90244,9.92423,6.62512,-3.88064,12.4866,213,20.05,18.39,0.175,928
-4.22379e-07,-6.30687e-07,-1.63157e-06,-0.00014413,-0.000213803,-0.00133861,12.1213,3.89938,2.59758,10.4705,18.0116,3.53608,-2.9294,18.5724,213,18.05,19.35,0.175,929
-2.11207e-07,-6.61154e-07,-1.61899e-06,-7.33832e-05,-0.000229337,-0.00147056,21.0528,5.06836,2.43982,12.6903,24.423,5.09546,-0.957527,22.9605,213,16.05,19.35,0.175,930
-1.01949e-07,-6.90188e-07,-1.62324e-06,-3.62307e-05,-0.000251596,-0.000944643,25.7027,1.05649,3.72291,14.8167,29.4544,1.2067,-0.179046,28.9655,213,14.05,19.35,0.175,931
-4.21327e-08,-7.11002e-07,-1.62015e-06,-2.39641e-05,-0.000252569,-0.00144119,27.0546,4.14984,3.60238,15.3226,30.6363,4.17941,-0.00893404,28.7806,213,12.05,19.35,0.175,932
-2.08513e-11,-7.13968e-07,-1.61967e-06,-1.89895e-05,-0.000246013,-0.00160519,27.3979,5.71472,2.58929,15.5894,30.5827,5.71528,-0.596106,28.5512,213,10.05,19.35,0.175,933
4.18599e-08,-7.06743e-07,-1.62579e-06,-2.37083e-05,-0.000258715,-0.00103553,27.9114,1.92689,5.38083,15.6407,32.2144,2.07178,0.932987,30.7278,213,8.05,19.35,0.175,934
1.01692e-07,-6.90124e-07,-1.62416e-06,-3.68222e-05,-0.000243461,-0.00146867,25.4194,4.42679,2.95992,14.8475,29.0267,4.44766,-0.668291,27.4964,213,6.05,19.35,0.175,935
2.113e-07,-6.62277e-07,-1.61771e-06,-7.31067e-05,-0.000231601,-0.00157895,21.5861,6.06758,3.14128,13.0795,25.42,6.11399,-0.73899,23.4944,213,4.05,19.35,0.175,936
4.21805e-07,-6.31307e-07,-1.6271e-06,-0.000147667,-0.000210587,-0.00161063,13.5714,6.58082,2.81281,10.8215,19.1559,6.2962,-2.48712,18.8539,213,2.05,19.35,0.175,937
-5.93573e-07,-6.38109e-07,-1.61354e-06,-0.000195867,-0.000207822,-0.000860648,3.58718,1.51894,5.84967,9.89536,14.4522,1.84213,-5.33853,17.3529,213,19.05,19.35,0.175,938
-3.00252e-07,-6.48989e-07,-1.61181e-06,-0.000105585,-0.000236994,-0.000852029,16.4399,0.95898,5.85845,11.5988,22.2233,2.00828,-0.974251,21.8594,213,17.05,19.35,0.175,939
-1.4689e-07,-6.78467e-07,-1.61969e-06,-5.46286e-05,-0.000238974,-0.000892082,24.0125,2.52807,5.29958,13.2694,27.8453,2.68831,1.30651,25.8756,213,15.05,19.35,0.175,940
-6.94719e-08,-7.08542e-07,-1.61952e-06,-2.99076e-05,-0.000264924,-0.00103077,29.3804,4.76669,11.2226,15.2309,34.9649,5.90164,4.50313,29.7872,213,13.05,19.35,0.175,941
-1.99033e-08,-7.16348e-07,-1.61977e-06,-2.10557e-05,-0.000263624,-0.00108874,28.8346,3.16669,6.98771,16.4321,34.3172,3.21881,1.45302,32.0178,213,11.05,19.35,0.175,942
1.99864e-08,-7.14541e-07,-1.6221e-06,-2.09402e-05,-0.00025575,-0.00114951,28.6505,3.7692,5.95151,16.4249,33.7199,3.78126,0.870063,31.4953,213,9.05,19.35,0.175,943
6.88101e-08,-7.07829e-07,-1.62255e-06,-2.99158e-05,-0.000259329,-0.00105672,28.5545,4.49159,8.615,15.5537,34.0632,4.64216,2.95576,30.2994,213,7.05,19.35,0.175,944
1.47179e-07,-6.80547e-07,-1.6189e-06,-5.48036e-05,-0.000245343,-0.001103,25.6282,5.30467,9.06141,14.2422,31.4846,5.50944,3.00025,27.3163,213,5.05,19.35,0.175,945
3.0018e-07,-6.49755e-07,-1.60919e-06,-0.000105251,-0.000238171,-0.000846227,16.5474,0.901676,6.10571,11.7122,22.4504,2.0784,-0.973999,22.0572,213,3.05,19.35,0.175,946
5.98833e-07,-6.40279e-07,-1.60332e-06,-0.000193945,-0.000215214,-0.000960717,7.99778,5.20387,9.66528,9.39794,17.6877,6.28744,-1.10819,16.4004,213,1.05,19.35,0.175,947
9.70244e-07,-4.05735e-07,-1.43054e-06,-0.000269732,-0.000131236,-0.00132971,-0.528289,12.4996,2.05562,7.8995,14.0481,1.72979,-1.75094,14.3782,213,0.05,17.43,0.175,948
1.03369e-06,-2.14107e-07,-1.42555e-06,-0.000285901,-7.03831e-05,-0.000913005,-3.98198,19.5837,4.13887,12.5109,20.9609,2.84051,-4.06083,22.3838,213,0.05,15.51,0.175,949
1.06365e-06,-1.01979e-07,-1.39084e-06,-0.000288574,-4.30553e-05,-0.000958813,-3.95662,22.8637,2.19593,13.8337,23.6731,1.42427,-3.99436,25.3955,213,0.05,13.59,0.175,950
1.07763e-06,-4.05769e-08,-1.39828e-06,-0.000299228,-2.63627e-05,-0.00146432,-0.334665,24.6219,0.606699,12.9658,25.3995,0.0265505,-0.532075,25.6568,213,0.05,11.67,0.175,951
1.0849e-06,1.52126e-08,-1.37692e-06,-0.000305613,-2.68131e-05,-0.00137871,-1.4862,24.5999,1.3251,13.4676,25.4483,0.477356,-1.48687,26.0088,213,0.05,9.75,0.175,952
1.06746e-06,7.39931e-08,-1.40315e-06,-0.000288095,-3.31207e-05,-0.00145169,1.19846,24.405,1.11596,12.4929,25.1541,1.39707,0.168245,24.3947,213,0.05,7.83,0.175,953
1.04799e-06,1.52993e-07,-1.4366e-06,-0.000285813,-5.17315e-05,-0.00145855,0.782201,22.0989,1.29718,11.6488,23.087,1.30181,-0.210561,22.5794,213,0.05,5.91,0.175,954
1.01207e-06,2.94424e-07,-1.40002e-06,-0.000282828,-9.07007e-05,-0.00144781,-0.0297377,17.472,2.10203,9.64035,18.8056,1.21374,-0.47507,18.4942,213,0.05,3.99,0.175,955
9.49324e-07,5.34382e-07,-1.43551e-06,-0.000257906,-0.000158252,-0.00132847,0.0987123,9.33788,2.326,6.9267,11.514,2.58797,-2.33939,12.1628,213,0.05,2.07,0.175,956
8.95275e-07,-5.49012e-07,-1.45465e-06,-0.000227897,-0.000160343,-0.000804722,1.09941,8.34008,4.7076,5.83002,9.24015,7.32682,-2.41989,10.8309,213,0.05,18.39,0.175,957
1.00279e-06,-2.95124e-07,-1.41267e-06,-0.000274959,-9.98055e-05,-0.000856112,-4.23828,15.3377,4.25521,10.4555,16.5747,3.1163,-4.33633,18.3567,213,0.05,16.47,0.175,958
1.05141e-06,-1.52209e-07,-1.40015e-06,-0.000296552,-5.83996e-05,-0.000871175,-5.78659,20.8832,4.43191,13.8533,21.7675,3.70019,-5.93916,24.3619,213,0.05,14.55,0.175,959
1.0632e-06,-6.64806e-08,-1.39534e-06,-0.000284649,-3.19798e-05,-0.000900191,-2.9911,25.2103,3.59005,14.2987,25.6034,3.19984,-2.994,26.0585,213,0.05,12.63,0.175,960
1.08107e-06,-1.22493e-08,-1.37533e-06,-0.000314597,-2.90568e-05,-0.000917015,-8.00226,24.1278,3.3952,16.2894,24.5757,2.94811,-8.00306,28.7146,213,0.05,10.71,0.175,961
1.07612e-06,4.28103e-08,-1.37961e-06,-0.000303692,-3.06145e-05,-0.000938691,-7.11602,23.4915,1.07446,15.6037,24.0911,0.47524,-7.11638,28.1891,213,0.05,8.79,0.175,962
1.05343e-06,1.09021e-07,-1.40512e-06,-0.00027814,-4.11454e-05,-0.000910468,-2.75147,23.6562,2.53334,13.4685,24.0532,2.26868,-2.88383,24.7661,213,0.05,6.87,0.175,963
1.03104e-06,2.13625e-07,-1.41469e-06,-0.000293551,-7.36612e-05,-0.000853328,-5.79709,18.8544,4.96327,12.9655,20.1211,3.70938,-5.80992,22.7198,213,0.05,4.95,0.175,964
9.78609e-07,3.9644e-07,-1.39217e-06,-0.000268034,-0.000124977,-0.000859181,-4.33049,11.6071,3.9777,8.8384,13.1314,2.66832,-4.54541,15.3945,213,0.05,3.03,0.175,965
8.98993e-07,7.03609e-07,-1.42189e-06,-0.000203871,-0.000189844,-0.00084524,3.1172,4.33766,3.71332,3.95069,7.2476,4.57437,-0.653785,6.96102,213,0.05,1.11,0.175,966
-8.63043e-07,-7.71013e-07,-1.36171e-06,-0.000220648,-0.000184744,-0.000140454,-9.08111,-3.80771,2.69739,10.1302,8.51349,-6.95792,-11.747,18.341,213,20.2,19.5,0.25,967
8.72153e-07,8.83074e-07,-1.11279e-06,-0.000224782,-0.000223322,-0.00236038,33.1469,33.1578,17.2097,9.1859,34.3545,33.1772,15.9827,17.8124,213,0.05,0.15,0.1625,968
4.87993e-07,8.76399e-07,-1.39464e-06,-0.000139382,-0.000227926,-0.000949478,10.4625,1.26088,1.53375,7.61062,13.194,2.09043,-2.02727,13.6369,213,2.05,0.15,0.15,969
2.6336e-07,9.3272e-07,-1.35519e-06,-8.30267e-05,-0.000239666,-0.00155951,20.8337,8.22101,2.05415,10.5882,22.0335,8.21833,0.857074,18.621,213,4.05,0.15,0.15,970
1.34369e-07,9.6793e-07,-1.36952e-06,-4.67457e-05,-0.000249567,-0.00155805,25.2968,8.71828,2.96343,12.2048,26.33,8.72817,1.92038,21.8174,213,6.05,0.15,0.15,971
5.64433e-08,9.87651e-07,-1.3596e-06,-2.96295e-05,-0.000248486,-0.000983847,27.3081,4.03502,3.32055,12.9501,28.2465,4.07068,2.34644,25.0825,213,8.05,0.15,0.15,972
-1.56109e-11,9.94382e-07,-1.34575e-06,-2.53146e-05,-0.000257672,-0.00157634,27.4056,8.39271,2.38552,13.418,28.3128,8.39421,1.47681,24.1327,213,10.05,0.15,0.15,973
-5.65615e-08,9.8702e-07,-1.35699e-06,-3.04997e-05,-0.000247151,-0.000950543,27.7212,4.62338,4.5138,12.5624,28.6734,4.63621,3.54873,24.599,213,12.05,0.15,0.15,974
-1.34066e-07,9.67956e-07,-1.36849e-06,-4.62372e-05,-0.00024952,-0.00155993,25.1761,8.53242,2.47334,12.3654,26.1869,8.53872,1.45622,22.0593,213,14.05,0.15,0.15,975
-2.63283e-07,9.33156e-07,-1.35652e-06,-8.29351e-05,-0.000234635,-0.00105781,19.9849,4.69378,3.11654,9.77237,21.3189,4.70207,1.7742,18.2577,213,16.05,0.15,0.15,976
-4.88017e-07,8.75632e-07,-1.39181e-06,-0.000139393,-0.000224174,-0.000883132,10.2321,1.14467,1.77586,6.98557,12.6453,1.83326,-1.32589,12.69,213,18.05,0.15,0.15,977
6.44692e-07,8.57636e-07,-1.3884e-06,-0.000182543,-0.000223213,-0.000806336,5.71183,1.57441,6.31079,5.65569,10.8929,3.12271,-0.418533,10.0216,213,1.05,0.15,0.15,978
3.60557e-07,9.04728e-07,-1.35241e-06,-0.000112315,-0.000230779,-0.000893697,15.0537,2.23076,3.27579,8.08733,17.0069,2.72109,0.832247,15.3178,213,3.05,0.15,0.15,979
1.89e-07,9.5211e-07,-1.36344e-06,-6.44949e-05,-0.000241145,-0.00115659,22.999,6.12404,3.52614,11.0422,24.2831,6.16752,2.19861,20.3918,213,5.05,0.15,0.15,980
9.03926e-08,9.79282e-07,-1.3681e-06,-3.89624e-05,-0.000245795,-0.00115405,26.9648,7.08589,4.96266,12.1671,28.1117,7.12406,3.77758,22.8455,213,7.05,0.15,0.15,981
2.7097e-08,9.92133e-07,-1.34894e-06,-2.82292e-05,-0.00024732,-0.00117693,28.1913,7.39783,4.1879,13.2113,29.3985,7.40248,2.976,24.5109,213,9.05,0.15,0.15,982
-2.66874e-08,9.92204e-07,-1.35513e-06,-2.82727e-05,-0.000242519,-0.00114735,29.1251,8.88933,5.91866,12.7689,30.2897,8.8915,4.75191,23.7402,213,11.05,0.15,0.15,983
-9.05503e-08,9.796e-07,-1.3652e-06,-3.87518e-05,-0.000244742,-0.00113354,27.3539,7.55266,5.69132,11.995,28.5018,7.58429,4.51176,22.6109,213,13.05,0.15,0.15,984
-1.88736e-07,9.52373e-07,-1.36127e-06,-6.46081e-05,-0.000241673,-0.00115865,22.8981,5.95374,3.39742,11.0733,24.1953,6.0052,2.04876,20.4573,213,15.05,0.15,0.15,985
-3.60285e-07,9.03523e-07,-1.3578e-06,-0.000112365,-0.000228967,-0.000883599,15.1749,2.58398,3.32392,7.9514,17.0351,2.91536,1.13232,15.0905,213,17.05,0.15,0.15,986
-6.44932e-07,8.5612e-07,-1.38007e-06,-0.000181661,-0.000216351,-0.000888859,5.45292,2.1024,4.79413,5.46196,10.4662,2.341,-0.457739,9.82812,213,19.05,0.15,0.15,987
-8.73506e-07,8.83843e-07,-1.19337e-06,-0.000230993,-0.000225997,-0.00300541,27.9156,27.9529,7.21096,12.6274,30.1765,27.9813,4.92171,24.2319,213,20.05,0.15,0.1625,988
7.84388e-07,-6.66041e-07,-1.38451e-06,-0.000231794,-0.000127003,-0.00202374,36.472,37.254,23.0992,17.1501,47.0717,36.982,12.7715,30.5324,213,0.05,19.35,0.1625,989
9.23663e-07,-3.88229e-07,-1.35129e-06,-0.000234163,-0.000126681,-0.00134196,7.04074,15.5858,3.98325,8.61745,18.3038,7.23709,1.0689,15.1255,213,0.05,17.43,0.15,990
9.83185e-07,-2.07076e-07,-1.34898e-06,-0.000245737,-7.15489e-05,-0.00156314,9.17565,22.8503,4.1481,11.7978,25.2579,9.25381,1.66235,20.8628,213,0.05,15.51,0.15,991
1.0154e-06,-9.97341e-08,-1.3107e-06,-0.000256381,-3.99229e-05,-0.00157322,9.05799,26.5159,4.30773,12.5056,27.919,9.05488,2.90778,22.5743,213,0.05,13.59,0.15,992
1.02899e-06,-3.81203e-08,-1.31724e-06,-0.000259177,-2.59242e-05,-0.000977462,3.01614,27.7673,4.12376,13.3822,29.2271,3.21732,2.46273,26.3952,213,0.05,11.67,0.15,993
1.0364e-06,1.42002e-08,-1.29651e-06,-0.000265183,-2.65031e-05,-0.000894058,1.54974,27.8167,5.36327,13.8553,29.2261,3.98816,1.51543,26.5608,213,0.05,9.75,0.15,994
1.02119e-06,6.98206e-08,-1.32013e-06,-0.000255023,-3.2372e-05,-0.000994462,3.41504,26.9992,4.26705,12.8475,28.2853,3.80583,2.5902,25.1093,213,0.05,7.83,0.15,995
9.97878e-07,1.46787e-07,-1.35861e-06,-0.000241507,-4.86494e-05,-0.0011409,8.38953,26.4126,6.05268,12.0106,28.1819,8.51222,4.1607,22.1681,213,0.05,5.91,0.15,996
9.64737e-07,2.86189e-07,-1.32259e-06,-0.000231824,-8.92497e-05,-0.00112266,8.76557,21.4934,6.87686,9.97034,24.1057,8.86511,4.16501,18.0554,213,0.05,3.99,0.15,997
9.03027e-07,5.1295e-07,-1.35648e-06,-0.000226221,-0.000147883,-0.00146764,8.90749,14.2634,4.05417,8.40456,17.5007,9.03275,0.691596,14.5573,213,0.05,2.07,0.15,998
8.64786e-07,-5.14803e-07,-1.38377e-06,-0.000213484,-0.000118428,-0.00102593,10.4015,18.5859,7.73106,8.41102,22.0114,9.51763,5.18939,15.1296,213,0.05,18.39,0.15,999
9.56963e-07,-2.87858e-07,-1.33871e-06,-0.000222106,-9.43498e-05,-0.001103,9.19474,20.3866,4.61734,10.9858,23.4581,9.25423,1.48639,19.2982,213,0.05,16.47,0.15,1000
1.00509e-06,-1.44383e-07,-1.32486e-06,-0.0002498,-5.59066e-05,-0.000864252,4.77776,25.5454,9.19093,11.7201,27.8239,7.30653,4.38369,22.124,213,0.05,14.55,0.15,1001
1.02127e-06,-6.4625e-08,-1.31921e-06,-0.000243616,-3.20902e-05,-0.00113619,9.10935,28.7884,6.21713,13.1153,30.6166,9.11223,4.38606,24.2158,213,0.05,12.63,0.15,1002
1.03222e-06,-1.15471e-08,-1.29575e-06,-0.000261588,-2.725e-05,-0.00092594,2.4937,27.7902,5.00542,13.5172,29.5249,3.27377,2.49061,26.6514,213,0.05,10.71,0.15,1003
1.02883e-06,4.12645e-08,-1.29932e-06,-0.000258305,-2.89687e-05,-0.0009395,2.46662,27.2115,3.88905,13.3268,28.8734,2.47406,2.21973,26.5274,213,0.05,8.79,0.15,1004
1.01248e-06,1.05993e-07,-1.32805e-06,-0.000242162,-4.00865e-05,-0.00114737,8.55518,27.2551,5.01944,12.8858,29.0178,8.56566,3.24626,23.5665,213,0.05,6.87,0.15,1005
9.81934e-07,2.07288e-07,-1.34054e-06,-0.000232267,-7.26045e-05,-0.00109636,9.54738,23.9556,7.01182,11.3091,26.7853,9.5625,4.16705,20.4612,213,0.05,4.95,0.15,1006
9.35345e-07,3.84545e-07,-1.31715e-06,-0.000220966,-0.000118103,-0.00109921,9.05705,17.8077,6.53891,8.85245,20.98,9.14849,3.27514,15.6196,213,0.05,3.03,0.15,1007
8.73971e-07,6.71074e-07,-1.34759e-06,-0.000209374,-0.000183065,-0.00105701,8.00434,9.15057,6.42646,5.60215,13.5196,7.74655,2.31526,9.70471,213,0.05,1.11,0.15,1008
-3.83299e-07,-5.30314e-07,-1.55267e-06,-0.000129946,-2.81077e-05,-0.000889559,22.1155,35.3038,4.75929,18.5521,39.176,20.9309,2.07172,32.1347,213,18.05,19.35,0.15,1009
-1.93534e-07,-5.6084e-07,-1.5372e-06,-6.23788e-05,-5.23888e-05,-0.000900169,30.85,33.1411,2.29457,18.3498,37.3283,28.3287,0.628642,33.1297,213,16.05,19.35,0.15,1010
-9.31922e-08,-5.84009e-07,-1.54385e-06,-3.34293e-05,-7.61255e-05,-0.00165676,32.7096,31.1592,1.51322,17.8617,35.2824,30.5406,-0.441052,33.6044,213,14.05,19.35,0.15,1011
-3.70153e-08,-5.97982e-07,-1.54484e-06,-2.25024e-05,-5.52241e-05,-0.00105311,37.6334,35.2654,5.61364,18.9656,40.632,35.1797,2.7008,35.5203,213,12.05,19.35,0.15,1012
6.51572e-10,-6.10165e-07,-1.53909e-06,-1.68718e-05,-7.7831e-05,-0.00111834,36.8293,31.5426,4.14718,19.1707,39.659,31.5424,1.31761,34.9963,213,10.05,19.35,0.15,1013
3.74644e-08,-6.04872e-07,-1.54601e-06,-2.20731e-05,-7.93298e-05,-0.00154411,35.2411,32.4242,3.64874,18.0379,37.5208,32.3484,1.44492,33.7879,213,8.05,19.35,0.15,1014
9.28069e-08,-5.84528e-07,-1.54406e-06,-3.35159e-05,-6.06761e-05,-0.00110327,34.8341,33.188,3.3387,18.4072,37.8611,32.4531,1.04663,34.4305,213,6.05,19.35,0.15,1015
1.93204e-07,-5.59519e-07,-1.53687e-06,-6.24702e-05,-4.98912e-05,-0.000891052,31.0511,33.5926,2.57497,18.3987,37.6681,28.6798,0.870779,33.2278,213,4.05,19.35,0.15,1016
3.82184e-07,-5.30873e-07,-1.54805e-06,-0.000132084,-3.11307e-05,-0.000891968,21.8993,34.6678,5.44712,18.1446,38.7997,20.7041,2.51042,31.4275,213,2.05,19.35,0.15,1017
-5.45833e-07,-5.4802e-07,-1.53612e-06,-0.000188702,-3.90921e-05,-0.000928804,12.2009,30.4332,3.89784,17.9496,33.8494,14.7324,-2.04988,31.1116,213,19.05,19.35,0.15,1018
-2.71826e-07,-5.40403e-07,-1.53852e-06,-9.48818e-05,-3.84845e-05,-0.000783328,27.3781,35.2892,5.81954,18.2467,39.4469,26.0865,2.95346,31.9797,213,17.05,19.35,0.15,1019
-1.34082e-07,-5.67438e-07,-1.54336e-06,-5.01703e-05,-5.79813e-05,-0.000964452,32.6324,32.9763,3.21064,17.8763,36.8021,30.9677,1.04947,33.222,213,15.05,19.35,0.15,1020
-6.30572e-08,-5.923e-07,-1.55006e-06,-2.80882e-05,-5.51389e-05,-0.000898896,37.0241,34.953,5.22832,19.0267,40.325,34.6087,2.27168,35.5416,213,13.05,19.35,0.15,1021
-1.73101e-08,-5.94702e-07,-1.54617e-06,-1.88332e-05,-5.83644e-05,-0.00115873,37.4281,34.4796,5.08405,19.7586,41.0412,34.4266,1.52398,36.6602,213,11.05,19.35,0.15,1022
1.75114e-08,-6.06995e-07,-1.5438e-06,-1.84062e-05,-6.97642e-05,-0.000971943,38.1985,34.1025,5.74594,19.4578,41.4404,34.0818,2.52479,35.8079,213,9.05,19.35,0.15,1023
6.26483e-08,-5.92326e-07,-1.55249e-06,-2.7671e-05,-5.88572e-05,-0.00091053,36.7654,34.2502,4.85722,18.9164,39.9129,33.88,2.07999,35.2063,213,7.05,19.35,0.15,1024
1.33704e-07,-5.66485e-07,-1.54349e-06,-5.0198e-05,-5.52001e-05,-0.000956776,32.6795,33.2627,3.0527,18.0007,36.959,31.0781,0.957724,33.4509,213,5.05,19.35,0.15,1025
2.71361e-07,-5.40597e-07,-1.53649e-06,-9.4489e-05,-3.7134e-05,-0.000780393,27.4949,35.5029,5.78793,18.2683,39.5519,26.2185,3.01531,32.0242,213,3.05,19.35,0.15,1026
5.436e-07,-5.43047e-07,-1.53628e-06,-0.000187056,-1.90751e-05,-0.000810752,14.8606,34.706,7.66279,18.282,38.1609,17.4716,1.59696,31.7566,213,1.05,19.35,0.15,1027
-9.01305e-07,5.12103e-07,-1.35064e-06,-0.000223507,-0.000149558,-0.00120629,5.07305,11.3679,2.73455,7.44341,14.3468,5.36872,-0.540015,12.9834,213,20.05,2.07,0.15,1028
-9.64389e-07,2.86192e-07,-1.32407e-06,-0.000231855,-8.93933e-05,-0.00111612,8.86943,21.5538,7.03638,9.99695,24.2479,8.95772,4.254,18.1062,213,20.05,3.99,0.15,1029
-9.97819e-07,1.47305e-07,-1.36355e-06,-0.000240139,-4.87774e-05,-0.00114288,8.68423,26.5456,6.3396,12.1593,28.5603,8.76739,4.24173,22.4013,213,20.05,5.91,0.15,1030
-1.01995e-06,7.03652e-08,-1.34549e-06,-0.000254097,-3.1717e-05,-0.00101473,3.17303,26.7501,3.37371,13.1731,28.1328,3.37744,1.78662,25.5879,213,20.05,7.83,0.15,1031
-1.03451e-06,1.32916e-08,-1.3213e-06,-0.000256669,-2.67166e-05,-0.000972759,3.51612,27.878,4.41313,13.3737,29.5136,3.52754,2.76611,26.375,213,20.05,9.75,0.15,1032
-1.02516e-06,-3.86166e-08,-1.36014e-06,-0.000247411,-2.58901e-05,-0.00117203,8.19103,28.9993,5.15238,13.7958,30.8704,8.19353,3.27875,25.4921,213,20.05,11.67,0.15,1033
-1.01658e-06,-9.9518e-08,-1.3187e-06,-0.000249968,-3.93154e-05,-0.00104593,5.9512,27.1336,6.16876,12.0803,28.7325,5.94934,4.57176,23.5022,213,20.05,13.59,0.15,1034
-9.83307e-07,-2.07541e-07,-1.34548e-06,-0.000242357,-7.18866e-05,-0.000913631,4.34605,22.2422,6.01327,11.1697,25.035,4.87092,2.69564,21.335,213,20.05,15.51,0.15,1035
-9.22331e-07,-3.87622e-07,-1.34294e-06,-0.000231923,-0.000125435,-0.00131202,6.88504,15.4407,3.74255,8.51231,18.0402,7.01251,1.01558,14.9568,213,20.05,17.43,0.15,1036
-8.69907e-07,6.70893e-07,-1.34717e-06,-0.000210889,-0.000181733,-0.000898843,2.69553,5.1993,3.34265,6.08507,10.237,2.93365,-1.93316,10.6098,213,20.05,1.11,0.15,1037
-9.34773e-07,3.84434e-07,-1.31405e-06,-0.000220213,-0.000117661,-0.00108034,9.36229,18.0391,6.75845,8.95083,21.3087,9.44407,3.40706,15.7747,213,20.05,3.03,0.15,1038
-9.82192e-07,2.07295e-07,-1.34447e-06,-0.000232037,-7.23363e-05,-0.00109404,9.62602,24.0071,6.98004,11.4351,26.9183,9.64672,4.04812,20.6482,213,20.05,4.95,0.15,1039
-1.0106e-06,1.06082e-07,-1.34693e-06,-0.00024033,-4.00723e-05,-0.0011729,8.5644,27.1433,4.72729,13.047,28.9819,8.56505,2.88799,23.7694,213,20.05,6.87,0.15,1040
-1.02928e-06,4.16246e-08,-1.32495e-06,-0.000254941,-2.97255e-05,-0.000942776,3.0752,27.3439,4.15701,13.4496,29.1962,3.08284,2.29707,26.515,213,20.05,8.79,0.15,1041
-1.03022e-06,-1.16036e-08,-1.33077e-06,-0.000245603,-2.70353e-05,-0.00116151,8.64261,28.9947,5.20428,14.2588,31.3554,8.64846,2.83774,26.102,213,20.05,10.71,0.15,1042
-1.01922e-06,-6.50479e-08,-1.34579e-06,-0.000240877,-3.17192e-05,-0.00115282,8.85604,28.3198,4.67073,13.8172,30.3133,8.85429,2.67897,25.1225,213,20.05,12.63,0.15,1043
-1.0046e-06,-1.43781e-07,-1.32246e-06,-0.000250292,-5.62615e-05,-0.000867947,4.21955,25.0492,8.15704,11.6956,27.2365,6.34416,3.84518,22.2473,213,20.05,14.55,0.15,1044
-9.5883e-07,-2.87697e-07,-1.32935e-06,-0.000223056,-9.37913e-05,-0.00110387,8.93686,20.2597,4.16179,10.8956,23.0759,8.99779,1.28466,19.1382,213,20.05,16.47,0.15,1045
-8.64158e-07,-5.15403e-07,-1.38928e-06,-0.000221749,-0.000122636,-0.00115722,7.60505,16.1942,4.58681,8.3456,18.8882,7.30076,2.19706,14.8141,213,20.05,18.39,0.15,1046
-7.88092e-07,-6.64843e-07,-1.39784e-06,-0.000247008,-0.000142274,-0.00298082,28.528,29.3096,8.12639,17.1489,35.6051,29.0516,1.30733,31.5359,213,20.05,19.35,0.1625,1047
8.19829e-07,8.55462e-07,-9.79356e-07,-0.000192273,-0.000183905,-0.000159564,-3.96887,-2.73988,0.835248,3.58094,1.94748,-2.60656,-5.21441,6.27825,213,0,0,0.075,1048
5.19269e-07,8.97094e-07,-1.36046e-06,-0.000140662,-0.00018842,-0.000178062,6.2842,-0.730223,0.791214,3.70688,6.66911,0.420721,-0.744644,6.90523,213,1.82727,0,0.15,1049
3.0078e-07,9.50697e-07,-1.29681e-06,-9.35702e-05,-0.000199841,-0.000193581,15.0844,-0.524224,0.395252,7.81681,15.1049,0.379308,-0.528748,15.1999,213,3.65455,0,0.15,1050
1.64552e-07,9.90076e-07,-1.31402e-06,-5.49382e-05,-0.000211733,-0.00021111,21.6193,-1.40993,-1.31843,11.531,21.6294,-1.30596,-1.43255,22.999,213,5.48182,0,0.15,1051
8.14615e-08,1.0131e-06,-1.31257e-06,-3.58381e-05,-0.000214247,-0.00021358,25.7442,-0.459619,-0.36168,13.1401,25.753,-0.302932,-0.52714,26.1687,213,7.30909,0,0.15,1052
2.48574e-08,1.02286e-06,-1.29484e-06,-2.78335e-05,-0.000218341,-0.000214042,27.2421,-0.738714,-0.107309,13.9912,27.2423,-0.106265,-0.740001,27.6709,213,9.13636,0,0.15,1053
-2.45417e-08,1.02262e-06,-1.30291e-06,-2.77246e-05,-0.000219255,-0.000209641,27.5942,-0.536873,0.875136,14.0856,27.6337,0.836256,-0.537507,27.5101,213,10.9636,0,0.15,1054
-8.17485e-08,1.0133e-06,-1.30731e-06,-3.58876e-05,-0.000213824,-0.000214171,25.7165,-0.4179,-0.468823,13.112,25.7249,-0.396022,-0.499101,26.1726,213,12.7909,0,0.15,1055
-1.64052e-07,9.90308e-07,-1.31023e-06,-5.48755e-05,-0.00021239,-0.00021111,21.5731,-1.5619,-1.37382,11.6006,21.5816,-1.32451,-1.61968,23.0551,213,14.6182,0,0.15,1056
-3.00601e-07,9.50452e-07,-1.30036e-06,-9.33324e-05,-0.000200197,-0.000195346,14.9434,-0.752274,-0.0397658,7.86153,14.9669,-0.0593227,-0.756193,15.3865,213,16.4455,0,0.15,1057
-5.19241e-07,8.96275e-07,-1.35124e-06,-0.000140888,-0.000187341,-0.000180665,6.08765,-0.7351,0.24537,3.60048,6.45108,-0.10328,-0.749882,6.90042,213,18.2727,0,0.15,1058
6.66669e-07,8.85078e-07,-1.29656e-06,-0.000185183,-0.000185165,-0.000149395,-1.43238,-1.42973,3.82394,3.09344,3.87057,-0.592428,-2.31631,5.53027,213,0.913636,0,0.15,1059
3.98297e-07,9.25216e-07,-1.30579e-06,-0.00011957,-0.000201557,-0.000164579,11.386,-0.655968,4.7753,6.1659,11.6626,4.51202,-0.669242,10.7249,213,2.74091,0,0.15,1060
2.23953e-07,9.73909e-07,-1.30692e-06,-7.45516e-05,-0.000210153,-0.000204383,17.6819,-2.23446,-1.38706,9.97368,17.703,-1.39833,-2.24432,19.5381,213,4.56818,0,0.15,1061
1.19216e-07,1.00387e-06,-1.31536e-06,-4.54722e-05,-0.000217171,-0.0002035,24.0975,-1.12073,0.887244,12.6284,24.1017,0.917325,-1.15504,24.287,213,6.39545,0,0.15,1062
5.17329e-08,1.0204e-06,-1.30309e-06,-3.0977e-05,-0.000228192,-0.00019899,26.9727,-1.99334,2.29576,14.5484,27.0917,2.18853,-2.0051,27.2431,213,8.22273,0,0.15,1063
8.46127e-11,1.02623e-06,-1.29224e-06,-2.70341e-05,-0.000239801,-0.000180868,28.5291,-2.72107,5.93469,15.6449,28.5648,5.90299,-2.72503,27.9915,213,10.05,0,0.15,1064
-5.1737e-08,1.02021e-06,-1.30158e-06,-3.13069e-05,-0.000230039,-0.000182754,28.2383,-0.950447,5.99447,14.6005,28.248,5.98744,-0.953108,26.4235,213,11.8773,0,0.15,1065
-1.19197e-07,1.00409e-06,-1.31116e-06,-4.50412e-05,-0.000215262,-0.000207661,23.9906,-1.01062,0.105881,12.5616,23.9945,0.219971,-1.12866,24.4768,213,13.7045,0,0.15,1066
-2.2366e-07,9.74428e-07,-1.30472e-06,-7.47274e-05,-0.00021226,-0.000202339,17.6338,-2.56624,-1.10909,10.1078,17.6432,-1.11219,-2.57251,19.5265,213,15.5318,0,0.15,1067
-3.97996e-07,9.23374e-07,-1.30985e-06,-0.000119653,-0.000198483,-0.000174529,10.7233,-0.854885,2.66337,5.83953,10.8211,2.56855,-0.857911,10.3982,213,17.3591,0,0.15,1068
-6.66152e-07,8.82003e-07,-1.30633e-06,-0.000184288,-0.000181524,-0.000155058,-1.40616,-1.00016,2.88708,2.64133,2.90473,-0.0460355,-2.37793,4.58537,213,19.1864,0,0.15,1069
-8.28264e-07,8.61274e-07,-1.07855e-06,-0.000196361,-0.000187105,-0.000150677,-4.41993,-3.06042,2.28995,4.04334,2.98641,-3.07654,-5.10027,7.28866,213,20.1,0,0.075,1070
4.96947e-07,-7.70551e-07,-1.44889e-06,-0.000190693,-0.000181044,-0.000153765,-2.77978,-1.36261,2.64404,3.39582,3.0315,-0.769718,-3.76013,5.89568,213,0,21.1,0.075,1071
7.90786e-07,-6.08362e-07,-1.34997e-06,-0.000192473,-7.29082e-05,-0.000203796,2.22308,19.7842,0.560041,10.8823,20.3543,3.62325,-1.41024,19.7352,213,0,19.1818,0.15,1072
9.38634e-07,-3.69192e-07,-1.32764e-06,-0.000188143,-0.000121017,-0.000203909,-1.24333,8.61579,-3.55894,6.13872,8.68503,-1.27909,-3.59241,11.2998,213,0,17.2636,0.15,1073
9.97198e-07,-1.95442e-07,-1.33184e-06,-0.000205479,-7.17747e-05,-0.00019882,-0.331625,19.3061,0.646289,10.3361,19.5338,1.22524,-1.1383,19.5975,213,0,15.3455,0.15,1074
1.02634e-06,-9.33864e-08,-1.29164e-06,-0.000214004,-3.80992e-05,-0.00021786,-1.01272,24.8234,-1.57899,13.2321,24.8245,-0.95302,-1.63979,26.1277,213,0,13.4273,0.15,1075
1.04017e-06,-3.38917e-08,-1.29321e-06,-0.00021777,-2.6369e-05,-0.000220414,-1.06028,27.0518,-1.44863,14.2927,27.0634,-0.998537,-1.52197,28.3273,213,0,11.5091,0.15,1076
1.04617e-06,1.86956e-08,-1.27664e-06,-0.000214186,-2.74403e-05,-0.000222962,-0.537115,26.8912,-1.82599,14.3668,26.894,-0.526346,-1.83959,28.1,213,0,9.59091,0.15,1077
1.03035e-06,7.58137e-08,-1.30163e-06,-0.000212889,-3.42077e-05,-0.000220523,-0.629991,25.6139,-1.75123,13.7909,25.6179,-0.421185,-1.96399,26.8437,213,0,7.67273,0.15,1078
1.00539e-06,1.55095e-07,-1.3426e-06,-0.00021104,-5.38162e-05,-0.00021202,-1.2234,21.8688,-1.3674,11.9752,21.9697,-0.710939,-1.98075,23.3415,213,0,5.75455,0.15,1079
9.70097e-07,3.01243e-07,-1.30287e-06,-0.000196551,-9.28615e-05,-0.000198501,-0.127087,15.1023,-0.413475,7.92071,15.2533,-0.103359,-0.588163,15.6047,213,0,3.83636,0.15,1080
9.06295e-07,5.36031e-07,-1.3509e-06,-0.000178408,-0.000153226,-0.000188086,-0.434965,3.26355,-1.85644,3.05915,3.50368,0.083099,-2.61463,5.31092,213,0,1.91818,0.15,1081
6.33132e-07,-6.5354e-07,-1.4137e-06,-0.00017347,-8.45462e-05,-0.000235474,2.74177,15.8025,-6.36505,14.2821,18.5906,3.56217,-9.97356,24.7486,213,0,20.1409,0.15,1082
8.87196e-07,-4.96249e-07,-1.36622e-06,-0.000191265,-0.000124685,-0.000191956,-1.21922,8.5598,-1.32066,6.2182,8.657,1.14231,-3.7794,10.848,213,0,18.2227,0.15,1083
9.70715e-07,-2.73963e-07,-1.32366e-06,-0.000198455,-9.05796e-05,-0.000190337,0.391834,16.236,1.58413,8.16277,16.4083,1.72099,0.0827133,15.5712,213,0,16.3045,0.15,1084
1.01717e-06,-1.35734e-07,-1.30289e-06,-0.000208512,-5.3204e-05,-0.000219148,-1.2248,21.586,-2.78703,12.5246,21.7934,-0.963351,-3.25584,23.9853,213,0,14.3864,0.15,1085
1.03207e-06,-5.98261e-08,-1.29976e-06,-0.000209012,-3.10159e-05,-0.000221893,0.472292,26.6154,-1.41958,14.1756,26.7132,0.592964,-1.638,27.3041,213,0,12.4682,0.15,1086
1.04255e-06,-7.30684e-09,-1.27473e-06,-0.000208752,-2.74149e-05,-0.000224392,0.637696,27.2716,-1.65939,14.5623,27.3682,0.637983,-1.7563,28.0043,213,0,10.55,0.15,1087
1.03737e-06,4.613e-08,-1.28231e-06,-0.000213998,-2.97769e-05,-0.000216942,-0.147537,26.9099,-0.57997,13.7978,26.9263,-0.0746356,-0.66932,27.3032,213,0,8.63182,0.15,1088
1.02009e-06,1.12348e-07,-1.31296e-06,-0.000208688,-4.13313e-05,-0.000210426,0.657792,25.2383,0.402451,12.6712,25.3143,1.01224,-0.0280424,24.8386,213,0,6.71364,0.15,1089
9.88083e-07,2.19427e-07,-1.32238e-06,-0.000194082,-7.61899e-05,-0.00022228,-0.197871,17.1175,-4.33954,10.9018,17.2861,-0.188583,-4.51746,19.9938,213,0,4.79545,0.15,1090
9.38873e-07,4.03809e-07,-1.30249e-06,-0.000186523,-0.0001224,-0.000199647,-0.584913,8.8332,-2.51238,6.6484,9.775,-0.517292,-3.5218,12.0782,213,0,2.87727,0.15,1091
8.77833e-07,6.99207e-07,-1.29972e-06,-0.000174904,-0.000185479,-0.00016798,-0.728362,-2.28152,0.288658,1.6516,0.854438,-1.1269,-2.44876,2.87959,213,0,0.959091,0.15,1092
-9.04064e-07,5.35378e-07,-1.34229e-06,-0.00018108,-0.000153649,-0.000185597,-0.884152,3.14484,-1.54755,2.95547,3.29549,0.0330959,-2.61545,5.12822,213,20.1,1.91818,0.15,1093
-9.69676e-07,3.01375e-07,-1.3037e-06,-0.000197167,-9.30191e-05,-0.000200161,-0.444891,14.8518,-0.884668,8.00346,14.947,-0.364841,-1.05992,15.6709,213,20.1,3.83636,0.15,1094
-1.00549e-06,1.55692e-07,-1.34765e-06,-0.000210622,-5.36956e-05,-0.00021196,-1.10601,21.9425,-1.3025,11.8438,22.0069,-0.79233,-1.6806,23.2561,213,20.1,5.75455,0.15,1095
-1.02874e-06,7.63409e-08,-1.32923e-06,-0.000214515,-3.33828e-05,-0.000218623,-0.765959,25.8378,-1.36925,13.766,25.851,-0.467365,-1.68106,26.9457,213,20.1,7.67273,0.15,1096
-1.04459e-06,1.78643e-08,-1.30444e-06,-0.000213352,-2.83889e-05,-0.000223728,-0.496844,26.6696,-2.02072,14.3461,26.6706,-0.496866,-2.02168,27.961,213,20.1,9.59091,0.15,1097
-1.03661e-06,-3.44864e-08,-1.34005e-06,-0.000217289,-2.68237e-05,-0.000219598,-0.910732,27.0639,-1.24983,14.2221,27.1162,-0.8847,-1.32813,28.2252,213,20.1,11.5091,0.15,1098
-1.02719e-06,-9.33928e-08,-1.30408e-06,-0.000212603,-3.72676e-05,-0.000219615,-0.762188,24.9901,-1.79219,13.4054,24.9999,-0.753151,-1.81101,26.2979,213,20.1,13.4273,0.15,1099
-9.96935e-07,-1.9575e-07,-1.32766e-06,-0.000207411,-7.26541e-05,-0.000195986,-0.613227,19.1791,1.06479,10.2769,19.4252,1.33404,-1.12857,19.4398,213,20.1,15.3455,0.15,1100
-9.37977e-07,-3.68743e-07,-1.31717e-06,-0.000188173,-0.000120218,-0.000203919,-1.17664,8.80422,-3.48939,6.30075,8.93851,-1.13733,-3.66299,11.5477,213,20.1,17.2636,0.15,1101
-7.94371e-07,-6.14287e-07,-1.35349e-06,-0.000191368,-7.86714e-05,-0.000195832,2.6944,19.2468,2.03887,10.4675,19.9326,5.04986,-1.00243,18.6602,213,20.1,19.1818,0.15,1102
-8.73875e-07,6.98178e-07,-1.31048e-06,-0.000177591,-0.000183655,-0.000172836,-1.65755,-2.54817,-0.959143,1.4829,-0.090625,-2.01781,-3.05643,2.6066,213,20.1,0.959091,0.15,1103
-9.38109e-07,4.03697e-07,-1.29877e-06,-0.000186951,-0.000121991,-0.000199113,-0.599422,8.94153,-2.38576,6.18955,9.44095,-0.546465,-2.93814,11.3734,213,20.1,2.87727,0.15,1104
-9.88303e-07,2.19446e-07,-1.32648e-06,-0.00019512,-7.59478e-05,-0.000219724,-0.185848,17.3176,-3.79964,10.7307,17.4862,-0.178738,-3.97532,19.8376,213,20.1,4.79545,0.15,1105
-1.01833e-06,1.12528e-07,-1.332e-06,-0.000208429,-4.13672e-05,-0.00021388,0.393667,24.9309,-0.406873,12.8068,25.034,0.463396,-0.57968,25.1084,213,20.1,6.71364,0.15,1106
-1.03776e-06,4.66297e-08,-1.31089e-06,-0.000214741,-3.04852e-05,-0.000215418,-0.249986,26.8126,-0.349349,13.6477,26.8273,-0.145963,-0.468075,27.1358,213,20.1,8.63182,0.15,1107
-1.04062e-06,-7.51922e-09,-1.31209e-06,-0.000209024,-2.72916e-05,-0.000229189,0.135508,26.8274,-2.82633,14.9305,26.9291,0.139331,-2.9319,28.45,213,20.1,10.55,0.15,1108
-1.02963e-06,-6.03547e-08,-1.33201e-06,-0.00021117,-3.07092e-05,-0.000214723,0.652239,27.1575,0.130386,13.811,27.2046,1.15288,-0.417381,26.8713,213,20.1,12.4682,0.15,1109
-1.0168e-06,-1.35241e-07,-1.30164e-06,-0.000206265,-5.33613e-05,-0.000219688,-0.749919,21.7078,-2.72147,12.6207,22.0302,-0.582686,-3.21112,24.0351,213,20.1,14.3864,0.15,1110
-9.72749e-07,-2.73964e-07,-1.31382e-06,-0.000201279,-9.0185e-05,-0.000184921,0.256187,16.5731,2.65867,8.31978,16.67,2.78759,0.030407,15.4466,213,20.1,16.3045,0.15,1111
-8.8636e-07,-4.96263e-07,-1.36931e-06,-0.000193215,-0.000128007,-0.000192178,-2.01904,7.55834,-1.86672,6.22048,7.71415,0.685249,-4.72681,10.8045,213,20.1,18.2227,0.15,1112
-6.3646e-07,-6.59379e-07,-1.40303e-06,-0.000175468,-8.31733e-05,-0.000235111,2.42382,15.9796,-6.33631,14.0867,18.4454,3.34974,-9.72799,24.4197,213,20.1,20.1409,0.15,1113
-2.71855e-07,-7.09607e-07,-1.53211e-06,-7.51998e-05,-0.000212262,-0.000198735,17.8569,-2.274,-0.287298,10.3157,18.1076,-0.288063,-2.52389,19.6094,213,18.2727,21.1,0.15,1114
-1.66597e-07,-7.42229e-07,-1.53743e-06,-4.10852e-05,-0.000230151,-0.000204348,23.8594,-3.90966,-0.119863,13.8994,23.8751,-0.121654,-3.92361,26.1062,213,16.4455,21.1,0.15,1115
-8.68999e-08,-7.62752e-07,-1.55038e-06,-3.18085e-05,-0.000210606,-0.000210556,27.3356,1.07477,1.08212,13.2564,27.3819,1.24133,0.869216,26.3286,213,14.6182,21.1,0.15,1116
-4.39446e-08,-7.89651e-07,-1.52602e-06,-1.4169e-05,-0.000240112,-0.000209599,28.9067,-4.27869,0.202878,16.5933,28.9078,0.201875,-4.27876,31.1885,213,12.7909,21.1,0.15,1117
-1.41969e-08,-7.9125e-07,-1.54557e-06,-1.63379e-05,-0.00021029,-0.000231035,29.1692,0.682395,-2.36445,15.9535,29.3564,0.681315,-2.55055,30.42,213,10.9636,21.1,0.15,1118
1.4622e-08,-8.01952e-07,-1.51934e-06,-1.29156e-05,-0.000243357,-0.000207523,29.0986,-4.7475,0.515692,16.9241,29.0991,0.516776,-4.74905,31.5466,213,9.13636,21.1,0.15,1119
4.34867e-08,-7.91658e-07,-1.51941e-06,-1.65063e-05,-0.000238594,-0.000209048,28.5383,-4.08091,0.258777,16.3138,28.5421,0.259417,-4.08539,30.6867,213,7.30909,21.1,0.15,1120
8.75953e-08,-7.63327e-07,-1.54977e-06,-3.1314e-05,-0.000211497,-0.000210389,27.3867,0.922421,1.08507,13.3231,27.4333,1.17385,0.787056,26.455,213,5.48182,21.1,0.15,1121
1.66081e-07,-7.4188e-07,-1.53959e-06,-4.14494e-05,-0.000231142,-0.000203792,23.7312,-4.12983,-0.112862,13.9413,23.7431,-0.115077,-4.13948,26.1041,213,3.65455,21.1,0.15,1122
2.72557e-07,-7.07591e-07,-1.53092e-06,-7.60468e-05,-0.000210098,-0.000199324,17.8005,-1.8883,-0.30591,10.0609,18.0172,-0.30616,-2.10472,19.2856,213,1.82727,21.1,0.15,1123
-3.64348e-07,-7.18834e-07,-1.53511e-06,-0.000127454,-0.000210401,-0.000173714,7.81055,-4.37228,1.01616,6.19859,7.90681,1.038,-4.49038,10.7572,213,19.1864,21.1,0.15,1124
-2.09876e-07,-7.15822e-07,-1.53525e-06,-5.76029e-05,-0.000216226,-0.000202107,21.4005,-1.89721,0.17648,11.723,21.4733,0.179142,-1.97271,22.4476,213,17.3591,21.1,0.15,1125
-1.23505e-07,-7.57062e-07,-1.54345e-06,-4.36149e-05,-0.000224434,-0.000207683,23.4741,-3.08361,-0.623314,13.2946,23.4827,-0.608909,-3.10659,25.4326,213,15.5318,21.1,0.15,1126
-6.09614e-08,-7.79058e-07,-1.5362e-06,-2.35076e-05,-0.000223801,-0.000206881,28.4408,-0.977221,1.50782,14.7609,28.4995,1.49421,-1.02226,28.3474,213,13.7045,21.1,0.15,1127
-3.0361e-08,-7.93949e-07,-1.53289e-06,-1.62797e-05,-0.000231143,-0.000205003,29.6672,-1.89092,1.94844,15.8003,29.6997,1.9258,-1.90079,29.8716,213,11.8773,21.1,0.15,1128
2.20245e-09,-8.0101e-07,-1.5301e-06,-1.57714e-05,-0.000230826,-0.000208363,29.505,-2.0811,1.21817,15.8212,29.5343,1.21586,-2.10814,30.1184,213,10.05,21.1,0.15,1129
2.78448e-08,-8.0026e-07,-1.51428e-06,-1.57964e-05,-0.000242431,-0.000199367,29.2551,-4.03181,2.29312,16.6607,29.2881,2.26154,-4.03325,30.6625,213,8.22273,21.1,0.15,1130
6.1434e-08,-7.80833e-07,-1.53295e-06,-2.41388e-05,-0.000224408,-0.000204781,28.4286,-0.986018,1.89666,14.7583,28.4861,1.88369,-1.03055,28.1728,213,6.39545,21.1,0.15,1131
1.23535e-07,-7.56239e-07,-1.54423e-06,-4.29521e-05,-0.000225176,-0.000207596,23.5722,-3.19194,-0.609841,13.3945,23.5804,-0.601391,-3.20855,25.5852,213,4.56818,21.1,0.15,1132
2.10191e-07,-7.15902e-07,-1.53612e-06,-5.82696e-05,-0.000215882,-0.000201979,21.2844,-1.86494,0.177155,11.6496,21.3595,0.17671,-1.9396,22.3163,213,2.74091,21.1,0.15,1133
3.66278e-07,-7.17991e-07,-1.52954e-06,-0.000128453,-0.000210831,-0.000174195,7.48541,-4.61381,0.766968,6.10595,7.52672,0.797037,-4.68519,10.5942,213,0.913636,21.1,0.15,1134
-4.94309e-07,-7.76327e-07,-1.45796e-06,-0.000190831,-0.000178502,-0.000153538,-2.55421,-0.743312,2.92317,3.55182,3.55371,-0.378134,-3.54993,6.16367,213,20.1,21.1,0.075,1135
3.08364e-07,7.32926e-07,-6.20324e-07,-4.73596e-05,-0.00121443,-0.0130939,23.1962,21.5536,4.83436,11.3772,25.1623,22.0139,2.40795,21.3549,213,0.913636,0,-0.05,1136
-3.1513e-07,7.38816e-07,-6.25252e-07,-5.99656e-05,-0.00121727,-0.0130118,23.2879,21.6591,5.05946,11.4011,25.34,22.1286,2.53784,21.3781,213,19.1864,0,-0.05,1137
2.03754e-07,6.45734e-07,-6.30683e-07,-6.36211e-05,-0.000592364,-0.0131333,24.1033,23.3591,5.70888,11.2307,26.0844,23.464,3.62294,21.2726,213,2.74091,0,-0.05,1138
6.01267e-08,7.292e-07,-6.28551e-07,-2.02195e-05,-0.00080537,-0.0131261,23.8978,22.7928,5.45253,11.2635,25.9323,22.8055,3.40527,21.1378,213,6.39545,0,-0.05,1139
-5.39675e-10,6.5495e-07,-6.22789e-07,-1.43802e-05,-0.000432484,-0.0132899,24.2588,23.6704,5.57469,11.3981,26.3149,23.6704,3.51864,21.5958,213,10.05,0,-0.05,1140
-2.56758e-08,6.98426e-07,-6.24048e-07,-1.49301e-05,-0.000619038,-0.0131535,24.1749,23.3247,5.68359,11.3077,26.236,23.3265,3.62065,21.3101,213,11.8773,0,-0.05,1141
-6.03407e-08,7.2501e-07,-6.26632e-07,-1.98068e-05,-0.000788546,-0.0131175,23.9408,22.8589,5.50701,11.2451,25.9626,22.8716,3.47251,21.115,213,13.7045,0,-0.05,1142
-1.07682e-07,6.70753e-07,-6.27284e-07,-3.70492e-05,-0.000597923,-0.0131598,24.1317,23.3423,5.6626,11.2209,26.1019,23.3747,3.66002,21.2102,213,15.5318,0,-0.05,1143
-2.00729e-07,5.40069e-07,-6.38697e-07,-6.05732e-05,-0.000308114,-0.0136917,23.6625,23.3141,4.47801,11.5381,25.5863,23.3582,2.51014,22.0467,213,17.3591,0,-0.05,1144
1.07712e-07,6.71713e-07,-6.28471e-07,-3.53007e-05,-0.00059586,-0.013169,24.1254,23.3364,5.64091,11.2191,26.0869,23.3671,3.64874,21.2094,213,4.56818,0,-0.05,1145
2.67274e-08,7.0712e-07,-6.24209e-07,-1.4029e-05,-0.000654433,-0.0130891,24.2251,23.3238,5.82313,11.2843,26.3074,23.3258,3.73886,21.2353,213,8.22273,0,-0.05,1146
1.64151e-07,4.20032e-07,-2.87717e-07,-7.30151e-05,-0.00084321,-0.0117967,25.8575,24.7735,9.35756,12.2969,29.8057,24.9709,5.21195,22.5682,213,0.456818,0,-0.075,1147
5.15923e-07,8.27485e-07,-8.43265e-07,-0.000179836,-0.00079571,-0.0117873,25.6251,24.7583,9.28867,9.26927,26.5214,25.1679,7.98282,17.9002,213,0.456818,0,-0.025,1148
4.31555e-07,8.20617e-07,-9.87321e-07,-7.36435e-05,-0.00077851,-0.0135274,23.12,22.128,4.18511,10.4824,23.8679,22.6622,2.9031,20.3887,213,1.37045,0,-0.025,1149
1.42086e-07,4.07903e-07,-3.26084e-07,-2.25453e-05,-0.00075363,-0.0135229,23.3241,22.2952,4.32365,12.4912,26.1599,22.6055,1.17749,23.4085,213,1.37045,0,-0.075,1150
-5.29579e-07,8.3612e-07,-8.80828e-07,-0.000189011,-0.000797072,-0.0122333,24.8626,24.0068,7.91137,9.63723,25.8224,24.4104,6.54795,18.6087,213,19.6432,0,-0.025,1151
-1.70782e-07,4.23089e-07,-2.96297e-07,-7.54999e-05,-0.000840881,-0.0120388,25.4562,24.379,8.61903,12.5433,29.4783,24.5842,4.39177,23.0328,213,19.6432,0,-0.075,1152
-4.33342e-07,8.2584e-07,-9.80444e-07,-8.57738e-05,-0.000773807,-0.0134486,23.2202,22.2518,4.41328,10.369,23.9082,22.8069,3.1702,20.2099,213,18.7295,0,-0.025,1153
-1.43159e-07,4.10807e-07,-3.24574e-07,-2.94445e-05,-0.000769275,-0.0133661,23.5348,22.4935,4.76461,12.5411,26.5384,22.7984,1.45614,23.4371,213,18.7295,0,-0.075,1154
3.48601e-07,7.73994e-07,-9.72666e-07,-0.000104942,-0.000485794,-0.0131081,24.1937,23.6577,5.89303,10.4419,25.4303,23.7676,4.54652,20.1041,213,2.28409,0,-0.025,1155
2.60848e-07,7.96787e-07,-9.45409e-07,-8.52246e-05,-0.000441209,-0.0131835,24.2033,23.7023,5.76872,10.4344,25.3518,23.8394,4.48311,20.1551,213,3.19773,0,-0.025,1156
2.64717e-07,4.60945e-07,-6.663e-07,-6.41366e-05,-0.000327441,-0.0133423,24.1936,23.8231,5.50593,11.5161,26.307,23.9409,3.27474,21.9451,213,1.82727,0,-0.05,1157
1.17658e-07,3.47118e-07,-3.18288e-07,-2.856e-05,-0.00045443,-0.0134333,23.9442,23.3448,5.07826,12.1743,26.6734,23.3691,2.32474,22.8762,213,2.28409,0,-0.075,1158
1.90363e-07,8.15719e-07,-9.48205e-07,-6.65458e-05,-0.000443474,-0.0132325,24.176,23.6456,5.64623,10.4749,25.383,23.6516,4.43324,20.1399,213,4.11136,0,-0.025,1159
1.41025e-07,8.27682e-07,-9.55331e-07,-4.14017e-05,-0.0005624,-0.0133914,23.7966,23.0633,5.00775,10.739,25.112,23.1216,3.63403,20.5552,213,5.025,0,-0.025,1160
8.77503e-08,3.57879e-07,-3.12097e-07,-3.31669e-05,-0.000274914,-0.0125614,25.6566,25.3163,8.02428,12.4634,29.2834,25.3572,4.35664,23.214,213,3.19773,0,-0.075,1161
1.48101e-07,5.66958e-07,-6.32738e-07,-5.25201e-05,-0.000259428,-0.0126877,25.4155,25.1243,7.63271,11.0181,27.5301,25.1485,5.4939,20.9472,213,3.65455,0,-0.05,1162
6.223e-08,3.64083e-07,-3.12995e-07,-2.02521e-05,-0.00027618,-0.0126176,25.6016,25.2414,7.87202,12.5104,29.2482,25.2394,4.22738,23.2768,213,4.11136,0,-0.075,1163
1.0496e-07,8.66842e-07,-9.55508e-07,-3.62293e-05,-0.000653951,-0.0133301,23.7625,22.8931,5.05257,10.6605,25.0756,22.878,3.75463,20.3115,213,5.93864,0,-0.025,1164
7.54041e-08,8.7537e-07,-9.54528e-07,-2.91142e-05,-0.000604458,-0.0133183,23.8849,23.0751,5.18151,10.5789,25.1002,23.099,3.94235,20.2316,213,6.85227,0,-0.025,1165
8.10731e-08,4.98469e-07,-6.43093e-07,-2.74667e-05,-0.000303313,-0.0128474,25.1576,24.7694,7.11467,11.1452,27.2785,24.7751,4.98803,21.1502,213,5.48182,0,-0.05,1166
3.4757e-08,4.0045e-07,-3.12626e-07,-1.03343e-05,-0.000479461,-0.012722,25.1265,24.4663,7.23602,12.4189,28.6056,24.4553,3.76788,23.0446,213,5.93864,0,-0.075,1167
4.56026e-08,3.6922e-07,-3.13252e-07,-1.59051e-05,-0.000388357,-0.0127151,25.2705,24.7463,7.39763,12.1568,28.4765,24.7749,4.16294,22.6904,213,5.025,0,-0.075,1168
5.0484e-08,8.61367e-07,-9.51048e-07,-2.3635e-05,-0.000531664,-0.0132988,24.0531,23.3381,5.36955,10.6622,25.3798,23.3256,4.05531,20.3752,213,7.76591,0,-0.025,1169
2.98052e-08,8.65924e-07,-9.44453e-07,-2.16485e-05,-0.000535204,-0.0132432,24.1448,23.422,5.53668,10.6705,25.5091,23.4263,4.16806,20.3796,213,8.67955,0,-0.025,1170
2.58036e-08,4.02811e-07,-3.12557e-07,-1.04033e-05,-0.000424935,-0.0126986,25.2543,24.6709,7.3968,12.61,28.9292,24.6836,3.70918,23.388,213,6.85227,0,-0.075,1171
4.13335e-08,5.45057e-07,-6.4107e-07,-1.83885e-05,-0.000300598,-0.0128328,25.2137,24.8166,7.17866,11.1823,27.3765,24.8206,5.01193,21.2024,213,7.30909,0,-0.05,1172
1.6441e-08,3.85162e-07,-3.11848e-07,-7.46635e-06,-0.000353858,-0.0126592,25.4447,24.9572,7.63855,12.4763,29.0208,24.9515,4.06813,23.1874,213,7.76591,0,-0.075,1173
9.48842e-09,8.32623e-07,-9.42536e-07,-2.23661e-05,-0.000386204,-0.0134221,24.0934,23.5814,5.23455,10.8995,25.5652,23.578,3.76623,20.8764,213,9.59318,0,-0.025,1174
-1.03994e-08,8.31618e-07,-9.45711e-07,-1.98612e-05,-0.000384001,-0.0134722,24.0225,23.51,5.08964,10.9342,25.4922,23.5061,3.62382,20.9461,213,10.5068,0,-0.025,1175
1.34901e-08,5.31491e-07,-6.31838e-07,-1.60774e-05,-0.000253402,-0.0126399,25.6149,25.2809,7.84802,11.1138,27.8448,25.2819,5.61712,21.0635,213,9.13636,0,-0.05,1176
2.45913e-09,3.52746e-07,-3.09176e-07,-7.45896e-06,-0.000232565,-0.0125518,25.8202,25.5034,8.1652,12.0996,29.093,25.5019,4.89389,22.6184,213,9.59318,0,-0.075,1177
1.05832e-08,3.87356e-07,-3.08748e-07,-6.97631e-06,-0.00036424,-0.0125663,25.5816,25.0787,7.90542,12.359,29.1008,25.0823,4.38269,22.9739,213,8.67955,0,-0.075,1178
-2.84333e-08,8.59195e-07,-9.47062e-07,-2.04196e-05,-0.00050805,-0.0133488,24.0197,23.3334,5.26128,10.7459,25.3844,23.3373,3.89266,20.5448,213,11.4205,0,-0.025,1179
-4.98506e-08,8.55314e-07,-9.48655e-07,-2.60675e-05,-0.000507327,-0.0133382,24.021,23.3437,5.28539,10.692,25.3511,23.3319,3.96714,20.4492,213,12.3341,0,-0.025,1180
-2.98618e-09,3.52567e-07,-3.09965e-07,-7.09357e-06,-0.00023288,-0.0125908,25.7567,25.4389,8.04631,12.1102,29.0125,25.4372,4.79219,22.6454,213,10.5068,0,-0.075,1181
-1.32818e-08,5.29888e-07,-6.35813e-07,-1.35793e-05,-0.000245209,-0.0127207,25.5034,25.1774,7.61934,11.1546,27.7156,25.1783,5.40629,21.1551,213,10.9636,0,-0.05,1182
-9.85514e-09,3.81901e-07,-3.09463e-07,-6.93087e-06,-0.000343945,-0.0126,25.5598,25.0855,7.83633,12.321,29.0175,25.0887,4.37543,22.9315,213,11.4205,0,-0.075,1183
-7.58205e-08,8.71815e-07,-9.51345e-07,-2.84957e-05,-0.00058823,-0.0133068,23.9323,23.1446,5.24435,10.5678,25.1443,23.1684,4.00859,20.2203,213,13.2477,0,-0.025,1184
-1.04917e-07,8.63219e-07,-9.52599e-07,-3.51283e-05,-0.000645058,-0.0133251,23.7887,22.9303,5.08422,10.655,25.0988,22.9156,3.78882,20.3066,213,14.1614,0,-0.025,1185
-1.60654e-08,3.80044e-07,-3.10871e-07,-8.11258e-06,-0.000334297,-0.0126263,25.5288,25.0697,7.76983,12.4097,29.0618,25.0643,4.24231,23.0818,213,12.3341,0,-0.075,1186
-4.17265e-08,5.43661e-07,-6.38296e-07,-1.97353e-05,-0.000288881,-0.0127777,25.3194,24.9406,7.36376,11.1442,27.4837,24.9447,5.19532,21.1336,213,12.7909,0,-0.05,1187
-2.61538e-08,4.00517e-07,-3.11263e-07,-1.02244e-05,-0.000413603,-0.0126565,25.3425,24.7748,7.54406,12.5588,28.9956,24.7876,3.87813,23.3002,213,13.2477,0,-0.075,1188
-1.41341e-07,8.28644e-07,-9.52559e-07,-4.5662e-05,-0.000509685,-0.0128836,24.7039,24.0509,6.63578,10.1691,25.8098,24.1091,5.47163,19.5434,213,15.075,0,-0.025,1189
-1.90356e-07,8.1457e-07,-9.4794e-07,-6.65848e-05,-0.000441027,-0.0132319,24.1809,23.6539,5.65202,10.4799,25.3939,23.6589,4.43404,20.1484,213,15.9886,0,-0.025,1190
-3.46671e-08,3.97911e-07,-3.11717e-07,-9.87579e-06,-0.000472413,-0.0126848,25.2006,24.5496,7.36186,12.3691,28.6558,24.5387,3.91754,22.9583,213,14.1614,0,-0.075,1191
-8.04073e-08,4.97068e-07,-6.40824e-07,-2.46336e-05,-0.000309284,-0.0128058,25.2247,24.8241,7.23635,11.1056,27.3335,24.8295,5.12218,21.0712,213,14.6182,0,-0.05,1192
-4.46329e-08,3.66361e-07,-3.12375e-07,-1.70291e-05,-0.000466216,-0.0132748,24.2201,23.588,5.56102,11.9668,26.8367,23.6293,2.9031,22.502,213,15.075,0,-0.075,1193
-2.59827e-07,7.60938e-07,-9.49129e-07,-8.15293e-05,-0.000354791,-0.0133334,24.1102,23.7256,5.45944,10.694,25.4436,23.7961,4.05557,20.6137,213,16.9023,0,-0.025,1194
-3.4426e-07,7.08694e-07,-9.73704e-07,-0.000104397,-0.000254118,-0.0130461,24.6775,24.4668,6.46322,10.5888,26.1328,24.5196,4.9551,20.419,213,17.8159,0,-0.025,1195
-6.30495e-08,3.6414e-07,-3.13281e-07,-2.06011e-05,-0.000276083,-0.0126118,25.6101,25.2505,7.88907,12.5101,29.2603,25.2494,4.24004,23.2754,213,15.9886,0,-0.075,1196
-1.48052e-07,5.66301e-07,-6.34449e-07,-5.09058e-05,-0.00025821,-0.0127219,25.3663,25.0745,7.53309,11.0378,27.4794,25.0907,5.40374,20.9835,213,16.4455,0,-0.05,1197
-8.66117e-08,3.23359e-07,-3.17059e-07,-3.12287e-05,-0.0001877,-0.0126297,25.6934,25.4732,7.96224,12.1507,28.9749,25.4806,4.67343,22.7564,213,16.9023,0,-0.075,1198
-2.63271e-07,4.93153e-07,-6.58901e-07,-5.93526e-05,-0.000315986,-0.0132481,24.3817,24.0205,5.81972,11.4414,26.469,24.1667,3.58625,21.8229,213,18.2727,0,-0.05,1199
-1.15765e-07,2.83168e-07,-3.23189e-07,-2.968e-05,-0.000163254,-0.0135604,24.2102,24.0222,5.16698,12.1467,26.832,24.0289,2.53852,23.0203,213,17.8159,0,-0.075,1200
6.12644e-07,-2.47731e-07,-6.63051e-07,-0.000533101,-5.28415e-05,-0.0138867,22.3205,22.9965,3.52661,11.7246,24.9121,22.4686,1.46292,22.3279,213,0,18.2227,-0.05,1201
5.49645e-07,-1.35422e-07,-6.52476e-07,-0.000276216,-4.75419e-05,-0.0138669,23.1451,23.4669,4.0175,11.668,25.3959,23.1738,2.05989,22.3081,213,0,16.3045,-0.05,1202
6.86316e-07,-2.94403e-08,-6.24597e-07,-0.000564009,-1.05872e-05,-0.013305,23.2508,24.0297,5.31912,11.4136,26.0868,23.2532,3.25967,21.5505,213,0,12.4682,-0.05,1203
6.68893e-07,1.0447e-07,-6.38757e-07,-0.000559714,-3.77207e-05,-0.0133241,23.188,23.9227,5.22342,11.3857,25.9446,23.2164,3.17318,21.5373,213,0,4.79545,-0.05,1204
7.36166e-07,3.25661e-07,-6.22859e-07,-0.00128658,-4.93278e-05,-0.0131575,21.2261,22.9674,4.5189,11.4395,24.9153,21.7609,2.03622,21.4763,213,0,0.959091,-0.05,1205
7.15297e-07,-7.06828e-08,-6.24861e-07,-0.000717272,-2.6824e-05,-0.0130479,23.1789,24.1506,5.8246,11.2625,26.2424,23.1943,3.71739,21.1662,213,0,14.3864,-0.05,1206
6.96643e-07,-4.47821e-09,-6.12467e-07,-0.000587133,-1.58664e-05,-0.0129375,23.775,24.579,6.39291,11.2385,26.7244,23.775,4.24742,21.1571,213,0,10.55,-0.05,1207
7.01111e-07,2.46592e-08,-6.15759e-07,-0.000613111,-1.62154e-05,-0.0129641,23.6516,24.4917,6.26871,11.2509,26.6303,23.6533,4.12843,21.1709,213,0,8.63182,-0.05,1208
7.17925e-07,5.89072e-08,-6.28985e-07,-0.000725007,-1.96453e-05,-0.0131872,22.9384,23.9312,5.39911,11.3415,26.0007,22.9505,3.31758,21.3222,213,0,6.71364,-0.05,1209
6.41909e-07,2.0519e-07,-6.30999e-07,-0.000552154,-6.88495e-05,-0.0131582,23.4323,24.1126,5.69053,11.2815,26.1343,23.5298,3.57124,21.3802,213,0,2.87727,-0.05,1210
5.98926e-07,-3.32863e-07,-6.82622e-07,-0.00104409,-4.34015e-05,-0.0138252,20.8787,22.2871,2.89044,11.2881,23.6051,21.4223,1.02882,21.5679,213,0,20.1409,-0.05,1211
4.21294e-07,1.7348e-07,-2.88982e-07,-0.000891833,-6.77617e-05,-0.0118391,24.5642,25.724,9.15693,12.3473,29.6635,24.8127,4.96895,22.6619,213,0,0.479545,-0.075,1212
8.15976e-07,5.44039e-07,-8.46677e-07,-0.000826133,-0.000169743,-0.011846,24.5859,25.5097,9.07649,9.33443,26.3589,25.1232,7.69003,18.0827,213,0,0.479545,-0.025,1213
8.23828e-07,4.51403e-07,-9.87816e-07,-0.000824801,-8.57383e-05,-0.0135458,21.9368,22.9769,4.03317,10.5075,23.7127,22.5364,2.69776,20.4522,213,0,1.43864,-0.025,1214
4.12895e-07,1.49774e-07,-3.26955e-07,-0.000801135,-2.55139e-05,-0.0135482,22.1039,23.1955,4.16368,12.5594,26.0684,22.4451,0.94963,23.5174,213,0,1.43864,-0.075,1215
3.23363e-07,-1.77783e-07,-3.50248e-07,-0.000717041,-4.70442e-05,-0.0140929,21.4305,22.3735,2.6052,12.3885,24.7347,21.7167,-0.0422129,23.4143,213,0,20.6205,-0.075,1216
5.95466e-07,-5.35283e-07,-1.05122e-06,-0.000711539,-0.000131172,-0.0142456,21.0584,21.8753,2.01048,10.6594,22.3077,21.6474,0.988992,20.9964,213,0,20.6205,-0.025,1217
6.99643e-07,-4.68462e-07,-1.00967e-06,-0.000693001,-4.85174e-05,-0.0136619,22.2092,23.1162,3.95671,10.4861,23.7005,22.8534,2.72822,20.5618,213,0,19.6614,-0.025,1218
3.61153e-07,-1.58224e-07,-3.33493e-07,-0.00064129,-2.47918e-05,-0.0136289,22.46,23.3277,4.18118,12.0948,25.6749,22.8087,1.48527,22.8915,213,0,19.6614,-0.075,1219
7.70578e-07,-3.27457e-07,-9.91141e-07,-0.000409052,-9.09521e-05,-0.0137768,22.8166,23.2643,4.00266,10.9259,24.4707,22.9941,2.6188,21.1523,213,0,17.7432,-0.025,1220
7.19325e-07,-4.08578e-07,-1.0004e-06,-0.000509694,-8.18921e-05,-0.0140043,22.1511,22.7532,3.1587,11.2915,24.1857,22.2746,1.60268,21.6907,213,0,18.7023,-0.025,1221
3.27234e-07,-1.36663e-07,-3.31854e-07,-0.000341051,-2.48655e-05,-0.0133409,23.8482,24.2932,5.5521,12.4139,27.3143,23.8927,2.48645,23.3062,213,0,18.7023,-0.075,1222
4.17068e-07,-2.95831e-07,-6.63199e-07,-0.000306575,-3.55094e-05,-0.0132749,24.0443,24.4258,5.7925,11.3788,26.4114,24.1973,3.65391,21.7352,213,0,19.1818,-0.05,1223
7.57582e-07,-1.72261e-07,-9.80157e-07,-0.000249766,-5.78474e-05,-0.0131287,24.4209,24.691,6.29504,10.6914,26.171,24.4478,4.7882,20.5754,213,0,15.825,-0.025,1224
7.673e-07,-2.39745e-07,-9.69408e-07,-0.00033547,-8.34536e-05,-0.0135177,23.4787,23.8334,4.92591,10.8805,25.2373,23.5243,3.47638,20.957,213,0,16.7841,-0.025,1225
3.41278e-07,-1.11372e-07,-3.28788e-07,-0.000247706,-2.86692e-05,-0.0132099,24.3417,24.65,6.09854,12.7183,28.064,24.3989,2.62741,23.8165,213,0,17.7432,-0.075,1226
5.51347e-07,-1.8804e-07,-6.50542e-07,-0.000243654,-6.63329e-05,-0.0130373,24.5757,24.8253,6.56989,11.2606,26.9365,24.6191,4.41525,21.4566,213,0,17.2636,-0.05,1227
3.20165e-07,-7.93088e-08,-3.26105e-07,-0.000171762,-2.54165e-05,-0.0129592,24.9903,25.1962,6.99309,12.2807,28.3636,25.0138,3.8022,23.0696,213,0,16.7841,-0.075,1228
8.67659e-07,-8.56269e-08,-9.42828e-07,-0.000544559,-3.66e-05,-0.0132272,23.3952,24.1101,5.54555,10.5862,25.3998,23.4236,4.22747,20.2566,213,0,13.9068,-0.025,1229
8.63074e-07,-1.24828e-07,-9.61301e-07,-0.000543248,-4.43886e-05,-0.0130526,23.6731,24.3752,6.06734,10.223,25.441,23.6796,4.99503,19.6247,213,0,14.8659,-0.025,1230
2.93466e-07,-5.75137e-08,-3.24617e-07,-0.000138412,-2.35485e-05,-0.0136324,23.9897,24.1513,4.9981,12.0714,26.6367,24.0084,2.49397,22.9418,213,0,15.825,-0.075,1231
5.19562e-07,-9.63972e-08,-6.53759e-07,-0.000263387,-3.23685e-05,-0.0131145,24.4445,24.7696,6.35769,11.3216,26.8864,24.4422,4.24317,21.5255,213,0,15.3455,-0.05,1232
3.88649e-07,-4.27125e-08,-3.13158e-07,-0.000492908,-1.02836e-05,-0.0132115,23.6217,24.3009,5.72144,12.2063,27.2252,23.6062,2.81265,22.8193,213,0,14.8659,-0.075,1233
8.57159e-07,-3.6147e-08,-9.464e-07,-0.000433897,-1.52953e-05,-0.012866,24.3606,24.9498,6.86357,10.1983,26.1024,24.3658,5.70579,19.5861,213,0,11.9886,-0.025,1234
8.48083e-07,-5.48257e-08,-9.46234e-07,-0.000469621,-2.40023e-05,-0.0134542,23.2716,23.8987,4.99692,10.8145,25.2678,23.2608,3.63867,20.6987,213,0,12.9477,-0.025,1235
3.7265e-07,-1.76625e-08,-3.10356e-07,-0.000304741,-7.03481e-06,-0.0126031,25.1997,25.6187,7.89096,12.3297,29.087,25.1947,4.42768,22.9619,213,0,12.9477,-0.075,1236
5.40411e-07,-4.5221e-08,-6.32732e-07,-0.000269343,-2.18092e-05,-0.0126641,25.1832,25.5316,7.73873,11.0951,27.728,25.1876,5.53786,21.0353,213,0,13.4273,-0.05,1237
3.93653e-07,-2.92296e-08,-3.08753e-07,-0.000373656,-1.45156e-05,-0.0125404,25.0803,25.5858,7.95682,12.4584,29.2228,25.0941,4.30602,23.1305,213,0,13.9068,-0.075,1238
8.65665e-07,3.52436e-09,-9.28116e-07,-0.000453089,-2.0906e-05,-0.0126111,24.7114,25.3197,7.60009,10.0499,26.5109,24.7091,6.41118,19.2621,213,0,10.0705,-0.025,1239
8.63518e-07,-1.69313e-08,-9.35039e-07,-0.000451094,-2.34435e-05,-0.0126906,24.5828,25.1847,7.3569,10.1013,26.374,24.579,6.17141,19.3676,213,0,11.0295,-0.025,1240
3.71824e-07,-1.18158e-08,-3.10026e-07,-0.000361708,-4.77978e-06,-0.0133084,23.8717,24.374,5.65041,12.1853,27.195,23.8768,2.82436,22.8926,213,0,11.9886,-0.075,1241
5.40066e-07,-1.93495e-08,-6.3023e-07,-0.000289833,-1.34705e-05,-0.012664,25.1346,25.5236,7.71914,11.1024,27.7234,25.1353,5.51869,21.0304,213,0,11.5091,-0.05,1242
3.76553e-07,-6.37859e-09,-3.05326e-07,-0.000373517,-7.17201e-06,-0.0130434,24.2669,24.7825,6.43524,12.0741,27.686,24.2609,3.53778,22.6309,213,0,11.0295,-0.075,1243
8.62364e-07,4.71528e-08,-9.41068e-07,-0.000464086,-2.32136e-05,-0.0127946,24.3728,24.9933,7.0188,10.1053,26.1139,24.3676,5.90339,19.3964,213,0,8.15227,-0.025,1244
8.68984e-07,2.5697e-08,-9.31144e-07,-0.000463922,-2.34957e-05,-0.0126552,24.6017,25.2216,7.44364,10.053,26.3842,24.6047,6.27809,19.278,213,0,9.11136,-0.025,1245
3.77498e-07,1.77998e-09,-3.03976e-07,-0.000378811,-7.11219e-06,-0.0129717,24.3685,24.8916,6.64515,12.0503,27.8204,24.365,3.71984,22.5721,213,0,10.0705,-0.075,1246
5.44384e-07,9.21421e-09,-6.21907e-07,-0.000300051,-1.47156e-05,-0.0125004,25.3701,25.7717,8.19923,11.0305,28.0158,25.3703,5.95486,20.8644,213,0,9.59091,-0.05,1247
3.81129e-07,8.30802e-09,-3.04806e-07,-0.000385968,-8.02779e-06,-0.0129674,24.3522,24.8841,6.64501,12.0686,27.8318,24.3548,3.69466,22.6002,213,0,9.11136,-0.075,1248
8.65051e-07,1.0098e-07,-9.66687e-07,-0.000600916,-2.81812e-05,-0.0134948,22.7977,23.6038,4.65079,10.8492,24.9822,22.7862,3.2839,20.6879,213,0,6.23409,-0.025,1249
8.73593e-07,7.2977e-08,-9.49576e-07,-0.000502151,-2.92665e-05,-0.0129505,23.9909,24.6564,6.47105,10.0865,25.6403,24.0106,5.46742,19.4094,213,0,7.19318,-0.025,1250
3.79037e-07,1.6642e-08,-3.0797e-07,-0.000401019,-7.21636e-06,-0.0130611,24.1538,24.7081,6.33598,12.1247,27.6519,24.1435,3.40244,22.6995,213,0,8.15227,-0.075,1251
5.45004e-07,3.94312e-08,-6.34155e-07,-0.000304886,-1.63165e-05,-0.0127622,24.9228,25.3289,7.39025,11.1256,27.4832,24.9268,5.23196,21.0896,213,0,7.67273,-0.05,1252
3.92867e-07,2.45955e-08,-3.11339e-07,-0.000437766,-1.04673e-05,-0.0131796,23.8419,24.4433,5.909,12.2416,27.4096,23.8582,2.92637,22.9149,213,0,7.19318,-0.075,1253
8.21088e-07,1.87939e-07,-9.5919e-07,-0.000384752,-6.59951e-05,-0.0130576,24.1126,24.5612,6.27674,10.1315,25.5331,24.1474,5.27007,19.6069,213,0,4.31591,-0.025,1254
8.34182e-07,1.35156e-07,-9.75192e-07,-0.000484263,-4.60933e-05,-0.0131742,23.6505,24.2672,5.79063,10.4551,25.4595,23.6996,4.54923,20.0882,213,0,5.275,-0.025,1255
3.6425e-07,4.26637e-08,-3.19582e-07,-0.000428931,-1.67051e-05,-0.013478,23.3686,23.9488,5.00327,12.1219,26.5799,23.4046,2.33619,22.8223,213,0,5.275,-0.075,1256
5.03129e-07,7.58553e-08,-6.59244e-07,-0.000290157,-2.15273e-05,-0.0131726,24.2854,24.6634,6.15457,11.3915,26.7983,24.2898,4.01529,21.6381,213,0,5.75455,-0.05,1257
3.93004e-07,3.46981e-08,-3.14789e-07,-0.000433136,-8.959e-06,-0.0128493,24.4008,24.9978,6.92625,12.451,28.4175,24.3919,3.51543,23.1532,213,0,6.23409,-0.075,1258
7.70995e-07,3.55707e-07,-9.69761e-07,-0.000521911,-0.000113234,-0.013535,22.833,23.4081,4.51827,11.0005,24.9287,22.903,2.92762,21.0614,213,0,2.39773,-0.025,1259
8.02348e-07,2.60408e-07,-9.49619e-07,-0.000381623,-8.48013e-05,-0.0128926,24.3622,24.78,6.75415,10.0258,25.7354,24.4771,5.68376,19.4531,213,0,3.35682,-0.025,1260
3.61004e-07,6.13503e-08,-3.17285e-07,-0.000312132,-2.08642e-05,-0.0131961,24.1809,24.5908,6.04793,12.2473,27.5737,24.1668,3.07913,22.9813,213,0,4.31591,-0.075,1261
5.70662e-07,1.47615e-07,-6.32685e-07,-0.000270715,-5.10296e-05,-0.0127958,24.9148,25.224,7.2869,11.109,27.3502,24.9432,5.1323,21.1175,213,0,3.83636,-0.05,1262
3.53894e-07,8.81839e-08,-3.13005e-07,-0.000306545,-3.466e-05,-0.013086,24.356,24.7386,6.37007,12.141,27.6598,24.427,3.37788,22.8378,213,0,3.35682,-0.075,1263
4.60604e-07,2.72483e-07,-6.63409e-07,-0.000326167,-6.68338e-05,-0.0132741,23.9345,24.2995,5.7115,11.5303,26.4741,24.058,3.41346,21.9525,213,0,1.91818,-0.05,1264
3.45199e-07,1.18931e-07,-3.17577e-07,-0.000352154,-3.35204e-05,-0.0128744,24.5662,25.0147,6.94233,12.3081,28.2752,24.589,3.65905,22.9957,213,0,2.39773,-0.075,1265
9.17408e-10,1.53353e-08,-1.53732e-06,-2.64939e-05,-2.38146e-05,-0.00829203,29.5577,29.7429,-0.0594305,14.9013,29.7429,29.5581,-0.0597938,29.7107,213,10.0134,9.7416,0,1266
-1.14204e-07,-1.65964e-07,-1.53695e-06,-4.52238e-05,-5.93038e-05,-0.00574553,28.6345,27.2593,-0.142515,14.5121,28.8114,27.1526,-0.21277,28.2314,213,13.7296,15.2355,0,1267
1.24522e-07,-1.49622e-07,-1.53858e-06,-4.70964e-05,-5.36657e-05,-0.00613284,28.3073,27.7169,-0.0920479,14.3503,28.5419,27.5491,-0.158805,28.2174,213,6.18269,14.9568,0,1268
-1.46044e-07,1.5519e-07,-1.53927e-06,-5.366e-05,-5.57921e-05,-0.00959009,25.2292,25.0928,-0.127388,12.8117,25.4123,24.9936,-0.211249,25.4168,213,14.2936,5.68936,0,1269
1.5537e-07,1.52444e-07,-1.53931e-06,-5.61203e-05,-5.33227e-05,-0.00835002,25.7819,25.906,-0.110299,13.1643,26.1326,25.6409,-0.195932,26.0862,213,5.63995,5.72837,0,1270
2.29865e-07,-3.83612e-09,-1.53267e-06,-8.0123e-05,-2.28065e-05,-0.00610587,25.3218,30.466,-0.092751,15.3647,30.5513,25.3218,-0.178046,28.477,213,4.7017,10.5121,0,1271
-2.48466e-07,-1.78125e-09,-1.53115e-06,-8.50269e-05,-2.26723e-05,-0.00526707,25.0515,31.1921,0.143868,15.6195,31.2875,25.0515,0.0484743,28.6349,213,15.6129,10.4186,0,1272
-9.27328e-10,2.58499e-07,-1.53198e-06,-2.42911e-05,-8.86143e-05,-0.0070879,29.096,23.851,0.0294323,14.646,29.2089,23.8506,-0.0830539,27.0143,213,10.05,4.34406,0,1273
-1.39446e-10,-3.62048e-07,-1.5614e-06,-2.16353e-05,-0.000119583,-0.00713839,27.9563,19.9797,-1.16912,14.7695,28.1633,19.9793,-1.37567,26.4155,213,10.0608,17.341,0,1274
2.87051e-07,-3.49636e-07,-1.56465e-06,-0.000105669,-0.000111371,-0.00784551,19.0643,18.3449,-0.883469,10.7929,20.2653,17.5808,-1.32037,20.3765,213,3.55449,17.5362,0,1275
-2.87162e-07,-3.49243e-07,-1.56336e-06,-0.000104177,-0.000113742,-0.00510559,18.3757,17.4016,-1.1415,10.7261,19.867,16.354,-1.58519,19.9293,213,16.5455,17.5362,0,1276
-7.52615e-09,-9.99262e-08,-1.53745e-06,-2.5072e-05,-3.9897e-05,-0.00727811,30.3625,29.1495,-0.125302,15.2609,30.3795,29.1495,-0.14226,29.9257,213,10.3529,13.8132,0,1277
3.22032e-07,3.20731e-07,-1.53602e-06,-0.000109811,-0.000112256,-0.0100306,19.8116,19.6707,0.182736,10.5036,20.7268,19.2186,-0.280356,20.2951,213,3.42753,3.4426,0,1278
-3.22064e-07,3.20816e-07,-1.53501e-06,-0.000110354,-0.000107385,-0.00943419,19.4756,19.4044,-0.122206,10.5488,20.5011,18.8533,-0.596595,20.3239,213,16.6725,3.4426,0,1279
-3.48652e-07,-8.89545e-08,-1.53903e-06,-0.000120721,-3.53089e-05,-0.00611232,19.8176,27.5388,0.184424,13.8693,27.7259,19.8278,-0.01283,24.7534,213,16.6836,13.7257,0,1280
3.58117e-07,-8.42165e-08,-1.53959e-06,-0.000124706,-3.373e-05,-0.00640831,19.5792,27.4176,0.104199,13.8384,27.5958,19.5864,-0.0811273,24.6675,213,3.35136,13.5834,0,1281
-3.75848e-07,7.00925e-08,-1.54844e-06,-0.000126369,-3.07555e-05,-0.0078473,19.4973,26.5307,-0.611568,13.811,26.7714,19.4957,-0.850598,24.798,213,16.8783,7.55598,0,1282
3.87973e-07,7.05301e-08,-1.54442e-06,-0.000129686,-3.09802e-05,-0.00839442,19.1517,25.9737,-0.644855,13.5627,26.2279,19.1503,-0.897601,24.3701,213,3.14081,7.54437,0,1283
7.74865e-08,-4.02114e-08,-1.53847e-06,-3.64969e-05,-2.6513e-05,-0.00907989,27.7545,28.3473,-0.103871,14.239,28.3609,27.754,-0.116973,28.1793,213,7.45502,12.0306,0,1284
-7.02944e-08,-4.66462e-07,-1.57122e-06,-3.01369e-05,-0.000120765,-0.00743292,25.3474,17.9913,-4.65425,15.361,25.7207,17.9649,-5.0012,27.6716,213,12.997,18.2849,0,1285
7.04235e-08,-4.58017e-07,-1.57039e-06,-3.0561e-05,-0.000123923,-0.0074412,25.2225,17.6528,-4.86975,15.3808,25.5698,17.6277,-5.19185,27.6594,213,7.10122,18.2227,0,1286
-7.89282e-08,3.91061e-07,-1.54155e-06,-3.44489e-05,-0.000129605,-0.00967556,24.8776,19.3462,-0.2844,12.8713,25.1649,19.3522,-0.577763,23.3846,213,12.9374,3.10549,0,1287
8.28641e-08,3.94921e-07,-1.54385e-06,-3.43886e-05,-0.000133819,-0.00781034,25.908,18.4306,0.00880944,13.2236,26.1797,18.4351,-0.26742,23.5501,213,7.01182,3.07026,0,1288
-3.51124e-08,9.09621e-08,-1.53844e-06,-2.79354e-05,-3.8105e-05,-0.00698491,30.3919,29.6001,-0.123642,15.2733,30.4086,29.5977,-0.137984,30.1493,213,11.3651,7.17602,0,1289
9.23262e-08,3.70452e-08,-1.5382e-06,-3.9204e-05,-2.5458e-05,-0.0084483,28.067,29.0165,-0.0841983,14.567,29.0333,28.0668,-0.100731,28.663,213,7.07258,8.84263,0,1290
-8.27944e-08,-2.49332e-08,-1.53771e-06,-3.76882e-05,-2.45566e-05,-0.00835723,28.4486,29.3296,-0.057908,14.7056,29.3415,28.4485,-0.0697475,28.9751,213,12.7731,11.4408,0,1291
-1.21661e-07,4.71671e-08,-1.53671e-06,-4.7526e-05,-2.71848e-05,-0.0095454,26.37,27.5159,-0.0544391,13.8146,27.5451,26.3706,-0.0841983,27.0612,213,13.6969,8.47257,0,1292
4.36963e-08,1.24555e-07,-1.53853e-06,-2.9103e-05,-4.72082e-05,-0.00955825,27.363,26.3099,-0.124659,13.7737,27.3928,26.31,-0.154559,27.0222,213,8.42997,6.37684,0,1293
6.21567e-07,-5.17688e-09,-1.60016e-06,-0.000137559,-2.19635e-05,-0.00970199,15.5306,24.1742,-3.16634,14.5008,25.0047,15.5306,-3.99692,25.6143,213,1.72913,10.5791,0,1294
-5.2801e-07,-5.27727e-09,-1.57204e-06,-0.000149663,-2.12548e-05,-0.00801182,15.6227,25.8788,-1.94435,14.4005,26.3682,15.6217,-2.43276,25.2086,213,17.8468,10.55,0,1295
3.88208e-08,-1.57184e-07,-1.53483e-06,-2.79779e-05,-5.77345e-05,-0.00955484,27.2797,25.5806,-0.0147755,13.6925,27.3254,25.5797,-0.0595658,26.5552,213,8.5447,15.0032,0,1296
-1.67687e-07,-6.04131e-08,-1.53863e-06,-6.14225e-05,-2.96438e-05,-0.00780884,26.4793,28.6817,-0.218414,14.5045,28.7374,26.4768,-0.271553,27.9473,213,14.565,12.7714,0,1297
6.28718e-10,5.63546e-07,-1.58366e-06,-2.2627e-05,-0.000149469,-0.0080487,25.1919,15.0695,-3.28544,14.8737,25.8268,15.0696,-3.9205,26.0888,213,10.05,2.07595,0,1298
4.57017e-07,1.57321e-07,-1.54851e-06,-0.000151931,-5.42975e-05,-0.00506069,14.1698,23.9577,-0.933206,12.888,24.3822,14.2059,-1.39376,22.4867,213,2.5655,5.48394,0,1299
-4.53834e-07,1.56988e-07,-1.54918e-06,-0.000150427,-5.4685e-05,-0.00592258,14.8059,23.6845,-0.973727,12.7624,24.0987,14.8441,-1.42605,22.3816,213,17.5229,5.4856,0,1300
4.71699e-07,-1.78507e-07,-1.55967e-06,-0.000154377,-6.0274e-05,-0.0081401,15.1244,22.0715,-1.35967,12.1913,22.5374,15.144,-1.84516,21.6541,213,2.42281,15.5525,0,1301
-4.69612e-07,-1.79166e-07,-1.56011e-06,-0.000154219,-6.07827e-05,-0.0067325,15.3343,23.3581,0.991081,11.7366,23.8998,15.3572,0.426497,20.5778,213,17.6663,15.5762,0,1302
-1.65907e-07,5.04136e-07,-1.56086e-06,-5.74527e-05,-0.000160103,-0.00781658,22.8346,15.0184,-0.374795,12.2149,23.4288,15.0503,-1.00099,21.5019,213,14.8383,2.29006,0,1303
1.67349e-07,5.04883e-07,-1.56016e-06,-5.69832e-05,-0.000162123,-0.00632541,23.0952,13.6996,-0.286208,12.3105,23.6947,13.7402,-0.926288,21.4522,213,5.23654,2.28419,0,1304
1.69575e-07,-6.52353e-08,-1.53854e-06,-6.26498e-05,-3.06629e-05,-0.00881531,25.7278,27.6409,-0.122292,13.9393,27.6982,25.7285,-0.180338,26.9478,213,5.49904,12.9384,0,1305
1.85471e-08,-5.17446e-07,-1.55296e-06,-1.90587e-05,-0.000108292,-0.0100843,25.058,20.1088,-3.31745,14.5411,25.4122,20.1072,-3.67001,26.826,213,9.09319,18.7371,0,1306
-4.84018e-08,-1.72472e-07,-1.53665e-06,-2.89031e-05,-6.30385e-05,-0.00837062,28.1906,25.8709,-0.120833,14.2133,28.2504,25.8666,-0.176316,27.3129,213,11.9095,15.2601,0,1307
-1.33126e-07,-5.09155e-07,-1.54646e-06,-4.85448e-05,-8.43773e-05,-0.00863573,24.9296,22.7519,-2.10037,14.2382,25.9231,22.2112,-2.55319,26.8137,213,14.8098,18.8691,0,1308
1.33385e-07,-5.10148e-07,-1.5453e-06,-5.02643e-05,-8.21729e-05,-0.00859325,24.9974,22.8612,-1.8572,14.2066,26.0595,22.2954,-2.35358,26.7306,213,5.28995,18.8617,0,1309
-5.4679e-08,1.96297e-07,-1.53776e-06,-2.96107e-05,-6.70681e-05,-0.00490812,31.1728,27.3502,-0.130339,15.7204,31.2421,27.3491,-0.198599,29.6863,213,12.0861,5.12052,0,1310
4.05197e-07,-4.81923e-07,-1.55149e-06,-0.000136097,-6.5767e-05,-0.0084909,16.5123,21.1791,-3.16159,13.6058,23.3256,15.0902,-3.88601,24.1701,213,2.14526,18.9677,0,1311
-4.05596e-07,-4.82227e-07,-1.55398e-06,-0.000132809,-6.09441e-05,-0.00891912,16.9235,21.2845,-3.02969,13.5209,23.3166,15.5869,-3.7252,24.1243,213,17.9547,18.9677,0,1312
-1.96077e-08,-5.48246e-07,-1.53485e-06,-1.88566e-05,-7.79032e-05,-0.00725699,29.7634,25.6366,-1.17428,16.0223,30.3252,25.62,-1.71946,29.9703,213,11.0714,18.9673,0,1313
2.48626e-07,-1.71718e-07,-1.53014e-06,-8.91859e-05,-6.02274e-05,-0.00830919,22.6337,24.5505,0.411941,12.2558,24.7575,22.5928,0.245828,23.5042,213,4.28237,15.4499,0,1314
-2.40788e-07,-1.72774e-07,-1.53088e-06,-8.49533e-05,-6.29371e-05,-0.00879663,22.7688,24.3009,0.345752,12.1681,24.5162,22.7193,0.179968,23.4894,213,15.7391,15.4667,0,1315
1.93601e-07,6.82177e-08,-1.53675e-06,-6.62538e-05,-3.09879e-05,-0.00717596,25.9608,28.8888,-0.138431,14.586,28.962,25.9592,-0.209959,27.7925,213,5.13071,7.70224,0,1316
4.99422e-07,5.09883e-07,-1.59713e-06,-0.00015012,-0.000142773,-0.00904558,12.5439,13.3183,-3.66021,9.97992,15.0456,12.0707,-4.91425,18.6512,213,2.01339,2.00672,0,1317
-5.00684e-07,5.09198e-07,-1.60288e-06,-0.00015107,-0.000143273,-0.00851937,11.6648,11.8747,-3.92034,9.869,14.3009,10.7554,-5.43711,18.2257,213,18.0866,2.00672,0,1318
1.04448e-08,6.84618e-08,-1.5378e-06,-2.62987e-05,-3.17988e-05,-0.00835879,29.2591,28.8543,-0.0715304,14.6736,29.2676,28.8539,-0.0796518,29.1426,213,9.66001,7.81294,0,1319
-5.71505e-08,1.93821e-08,-1.53737e-06,-3.21353e-05,-2.39157e-05,-0.0071934,30.1874,30.8133,-0.0741655,15.4496,30.8193,30.1872,-0.0799598,30.5881,213,12.0395,9.57535,0,1320
-7.94844e-08,-8.75727e-08,-1.53857e-06,-3.72211e-05,-3.66776e-05,-0.00782065,28.7007,28.6698,-0.126658,14.4788,28.8072,28.5871,-0.150365,28.8481,213,12.7677,13.5357,0,1321
-6.12934e-07,-5.07277e-08,-1.573e-06,-0.000155882,-2.85835e-05,-0.00968652,14.6513,23.7432,-1.67488,13.5165,24.5484,14.6558,-2.48465,23.6902,213,18.3671,12.4538,0,1322
6.18124e-07,-4.98426e-08,-1.58082e-06,-0.000147976,-2.76549e-05,-0.00601282,12.1381,25.7767,-2.49973,15.0861,26.7213,12.1448,-3.45096,26.1349,213,1.73286,12.4538,0,1323
1.37652e-08,-3.49807e-08,-1.53772e-06,-2.63778e-05,-2.60992e-05,-0.00782302,30.0241,30.0753,-0.0819763,15.0807,30.0771,30.0246,-0.0842618,30.1351,213,9.53483,11.8123,0,1324
-1.68413e-07,2.7438e-07,-1.53379e-06,-6.16425e-05,-9.4458e-05,-0.00859227,24.2155,21.9182,-0.0107107,12.3299,24.4458,21.8913,-0.214076,23.487,213,14.7961,4.01482,0,1325
1.71784e-07,2.71369e-07,-1.53535e-06,-6.02912e-05,-9.44618e-05,-0.00978263,23.6947,21.953,0.0643069,12.0322,23.9211,21.9343,-0.143392,23.1352,213,5.26117,4.03922,0,1326
-1.40487e-07,-3.0212e-07,-1.54541e-06,-5.22458e-05,-0.000107001,-0.0078332,24.9835,20.971,-0.0943222,12.7828,25.262,20.9018,-0.30359,23.6884,213,14.4897,16.9732,0,1327
1.46558e-07,-3.02831e-07,-1.54861e-06,-5.42468e-05,-0.000104827,-0.00780432,24.9814,21.0627,0.421508,12.5241,25.2572,20.9993,0.209061,23.214,213,5.50959,16.9835,0,1328
-4.52211e-08,6.34469e-07,-1.58977e-06,-2.78685e-05,-0.000153995,-0.00808117,24.554,13.9181,-2.47568,14.4148,25.4529,13.9203,-3.37676,25.133,213,11.907,1.63898,0,1329
4.58812e-08,6.38616e-07,-1.60292e-06,-2.61564e-05,-0.000149697,-0.00867702,24.0264,14.1338,-3.64708,14.6965,24.8851,14.136,-4.50795,25.7594,213,8.191,1.59139,0,1330
6.27179e-07,3.6589e-08,-1.6017e-06,-0.000134818,-2.48709e-05,-0.00991458,15.2487,23.5732,-3.57146,14.4656,24.4655,15.2507,-4.46572,25.5995,213,1.67719,8.72451,0,1331
-6.18997e-07,3.93776e-08,-1.59221e-06,-0.000149866,-2.46833e-05,-0.00973737,14.7817,23.6265,-3.16998,14.267,24.4949,14.7824,-4.03908,25.1273,213,18.3999,8.6561,0,1332
1.15511e-07,-1.19662e-09,-1.53764e-06,-4.59833e-05,-2.29073e-05,-0.00781672,28.137,29.8027,-0.0952436,14.9703,29.8241,28.137,-0.116592,29.1338,213,6.55982,10.4182,0,1333
4.66386e-08,2.3299e-07,-1.53436e-06,-2.8041e-05,-7.93233e-05,-0.00505142,30.7831,25.6038,-0.101979,15.536,30.8758,25.6054,-0.196267,28.8008,213,8.28541,4.63955,0,1334
-2.67586e-07,1.27484e-07,-1.53481e-06,-9.53831e-05,-4.82574e-05,-0.0077585,22.607,25.99,0.167816,13.0844,26.1694,22.5948,0.00060313,24.5773,213,15.9607,6.12915,0,1335
2.73448e-07,1.24887e-07,-1.53343e-06,-9.6416e-05,-4.66858e-05,-0.00775293,22.4612,26.0607,0.339164,13.0451,26.2532,22.4449,0.162973,24.4099,213,4.08561,6.1772,0,1336
-2.21984e-07,3.54598e-08,-1.53163e-06,-7.86009e-05,-2.56285e-05,-0.00833486,24.6495,28.1768,0.131118,14.1106,28.2654,24.6479,0.0441813,26.5976,213,15.3079,8.85484,0,1337
-3.05422e-07,-3.59015e-08,-1.54169e-06,-0.000103572,-2.33201e-05,-0.00712835,22.1106,28.6262,-0.253702,14.5998,28.7867,22.1094,-0.412961,26.4996,213,16.237,11.8908,0,1338
3.19446e-07,-2.8156e-08,-1.53402e-06,-0.000111922,-2.30869e-05,-0.00775988,21.5895,28.0624,0.206534,14.0776,28.2117,21.5902,0.0565139,25.4976,213,3.73685,11.564,0,1339
3.51597e-08,-3.03287e-07,-1.54292e-06,-2.63713e-05,-0.000107581,-0.00715835,28.3825,21.888,0.248207,14.2281,28.548,21.879,0.09172,25.7771,213,8.54576,16.8465,0,1340
5.1357e-08,7.22494e-10,-1.53766e-06,-3.06913e-05,-2.315e-05,-0.00698492,30.5554,31.1786,-0.0783855,15.6326,31.1827,30.5554,-0.0824314,30.9562,213,8.2378,10.3456,0,1341
7.92655e-08,-9.15674e-08,-1.53838e-06,-3.72246e-05,-3.78921e-05,-0.00706473,29.2958,29.2359,-0.131946,14.7789,29.4028,29.1519,-0.154938,29.4331,213,7.34187,13.6436,0,1342
5.46438e-07,-3.19536e-07,-1.60582e-06,-0.000138159,-0.000100618,-0.00822931,13.0282,17.2583,-2.53998,11.0575,18.4129,13.0358,-3.70216,19.9768,213,1.74471,17.2695,0,1343
-5.47775e-07,-3.20212e-07,-1.60575e-06,-0.000126449,-0.000100638,-0.0104168,14.2478,17.2972,-4.04259,11.7458,18.362,14.2699,-5.12953,21.7363,213,18.3553,17.2695,0,1344
-5.73717e-07,2.70381e-07,-1.59152e-06,-0.000116692,-9.09647e-05,-0.0103968,14.9055,19.1033,-2.27854,11.7358,20.132,14.9379,-3.33959,21.3537,213,18.3605,3.86348,0,1345
5.73157e-07,2.69525e-07,-1.59195e-06,-0.000118504,-8.50068e-05,-0.00944242,13.4953,18.5916,-2.79722,11.7186,19.5932,13.5405,-3.84398,21.0731,213,1.7395,3.86348,0,1346
-1.64198e-09,1.42016e-07,-1.53805e-06,-2.51267e-05,-5.18304e-05,-0.00932562,27.838,26.2625,-0.0951486,14.0011,27.8725,26.2624,-0.129626,27.2328,213,10.1025,6.04783,0,1347
-1.327e-07,6.90633e-09,-1.5348e-06,-5.17375e-05,-2.28379e-05,-0.00904677,26.6284,28.3491,-0.0310838,14.2185,28.3776,26.6283,-0.059466,27.604,213,13.8951,10.0731,0,1348
-2.83007e-07,5.84397e-07,-1.59395e-06,-9.44114e-05,-0.000124581,-0.00819007,17.6991,13.155,-3.57591,11.9327,19.0083,13.127,-4.85717,21.5358,213,16.4567,1.66528,0,1349
2.83551e-07,5.83589e-07,-1.59639e-06,-9.77767e-05,-0.000109257,-0.00818328,17.7386,13.5797,-3.81905,12.1802,19.1683,13.523,-5.19208,22.0857,213,3.64332,1.66528,0,1350
-6.49523e-07,8.65987e-08,-1.57187e-06,-0.000151561,-3.63736e-05,-0.0081197,12.5774,23.8131,-1.25236,13.5275,24.7956,12.602,-2.25942,23.4683,213,18.6002,7.02499,0,1351
6.56685e-07,8.59333e-08,-1.57561e-06,-0.000146267,-3.66934e-05,-0.00817227,12.7557,23.7098,-1.63339,13.6896,24.7171,12.7771,-2.66205,23.7755,213,1.4767,7.03602,0,1352
3.28403e-07,2.05897e-08,-1.5317e-06,-0.000113726,-2.28205e-05,-0.00660168,21.2311,29.0435,0.375071,14.4682,29.1774,21.2313,0.24103,25.8944,213,3.66993,9.42161,0,1353
-6.5695e-08,-5.81645e-07,-1.49053e-06,-2.59205e-05,-3.04507e-05,-0.00753928,30.9257,29.3238,3.41255,14.7418,32.0333,29.079,2.54974,28.123,213,13.4296,19.6862,0,1354
6.4739e-08,-5.84258e-07,-1.49311e-06,-2.58515e-05,-2.97927e-05,-0.00693491,31.4518,29.4552,3.11292,15.1116,32.5046,29.2339,2.2814,28.7278,213,6.66893,19.7159,0,1355
-3.01195e-08,3.81326e-07,-1.53875e-06,-2.46867e-05,-0.000127388,-0.00778273,27.2213,19.45,-0.0332805,13.874,27.4685,19.4492,-0.279616,24.7335,213,11.2803,3.22224,0,1356
-6.4705e-07,-1.09893e-07,-1.59065e-06,-0.000143736,-3.98602e-05,-0.00759208,13.2962,23.6254,-2.29461,14.0365,24.6965,13.307,-3.37656,24.4557,213,18.5834,14.1057,0,1357
6.48878e-07,-1.08158e-07,-1.59637e-06,-0.000137123,-3.90305e-05,-0.00758043,12.831,23.2551,-3.65371,14.4827,24.272,12.8538,-4.69345,25.2713,213,1.50141,14.0725,0,1358
-3.70545e-08,-3.22969e-07,-1.55215e-06,-2.48252e-05,-0.000113328,-0.00532453,29.902,21.2545,0.418319,14.9014,30.0628,21.2519,0.260133,26.5187,213,11.6732,17.0542,0,1359
-9.19724e-08,9.68171e-08,-1.53854e-06,-3.93125e-05,-3.92284e-05,-0.00832197,27.857,27.8569,-0.130474,14.0768,27.9932,27.7508,-0.160514,28.0333,213,13.0695,6.9805,0,1360
-2.06387e-07,-5.36961e-07,-1.4873e-06,-6.81203e-05,-1.94937e-05,-0.0106134,24.5106,25.7419,1.93775,13.2345,27.6565,23.3464,1.18738,24.5989,213,16.4366,19.4934,0,1361
2.05882e-07,-5.36177e-07,-1.48638e-06,-7.2216e-05,4.69828e-06,-0.009934,24.8791,26.3675,1.92103,13.6566,28.4484,23.584,1.13522,25.2351,213,3.6634,19.4934,0,1362
-9.91127e-08,6.66631e-07,-1.59033e-06,-3.81835e-05,-0.000149022,-0.0080698,23.6733,13.4032,-1.77917,13.799,24.7428,13.4096,-2.8551,24.0274,213,13.4184,1.40691,0,1363
9.9391e-08,6.66867e-07,-1.58669e-06,-3.98302e-05,-0.000142773,-0.00807023,23.6613,13.6903,-1.66787,13.8448,24.8375,13.6982,-2.85204,24.132,213,6.64605,1.38917,0,1364
9.48055e-08,9.27019e-08,-1.53891e-06,-3.9703e-05,-3.74559e-05,-0.00781967,28.2358,28.3875,-0.139464,14.3232,28.4769,28.1766,-0.16957,28.4975,213,6.9646,7.07915,0,1365
3.52841e-08,3.91138e-07,-1.53071e-06,-2.70742e-05,-0.000136712,-0.00772548,27.0631,18.7345,0.665685,13.4501,27.3116,18.7403,0.411398,23.8016,213,8.71765,3.14424,0,1366
-3.48698e-08,-4.70404e-08,-1.53784e-06,-2.83078e-05,-2.80612e-05,-0.00556192,32.2558,32.2765,-0.0725826,16.1962,32.3148,32.2227,-0.0777034,32.3465,213,11.3328,12.2539,0,1367
-7.98328e-08,-2.66188e-07,-1.54114e-06,-3.44787e-05,-9.4319e-05,-0.00948757,25.9174,22.5134,-0.0661851,13.1247,26.0528,22.5084,-0.196615,24.6689,213,13.037,16.5052,0,1368
-1.8983e-07,8.35542e-08,-1.53707e-06,-6.78746e-05,-3.54749e-05,-0.00710419,25.9351,28.4788,-0.167728,14.4007,28.5603,25.9271,-0.241213,27.5793,213,14.9332,7.25558,0,1369
1.00724e-07,2.33e-07,-1.53683e-06,-4.12008e-05,-7.9661e-05,-0.00779679,26.967,24.0651,0.0981201,13.5577,27.0945,24.0567,-0.0209804,25.7314,213,6.69726,4.58662,0,1370
-3.72939e-07,2.60272e-08,-1.5437e-06,-0.000127214,-2.36108e-05,-0.0070539,19.5527,28.0019,0.0337747,14.1883,28.2059,19.5531,-0.170668,25.1906,213,16.8092,9.20711,0,1371
-1.01417e-07,2.41695e-07,-1.53729e-06,-4.27534e-05,-8.35183e-05,-0.00779362,26.7115,23.6693,0.0456205,13.4663,26.8509,23.6573,-0.0817388,25.4863,213,13.4363,4.47459,0,1372
7.97632e-08,-2.5642e-07,-1.5418e-06,-3.40297e-05,-8.94773e-05,-0.0055426,29.1904,23.8239,-0.0461702,14.7353,29.3184,23.8021,-0.152274,27.1363,213,7.0929,16.4027,0,1373
2.62768e-09,-6.22679e-07,-1.48335e-06,-1.53076e-05,-3.30933e-05,-0.00615797,32.8106,28.0149,3.03731,15.5973,33.532,27.9935,2.33737,28.8272,213,9.90917,19.9787,0,1374
3.47668e-08,-7.89273e-08,-1.53767e-06,-2.82338e-05,-3.46797e-05,-0.00706471,30.3805,29.84,-0.100112,15.2538,30.3959,29.8362,-0.11171,30.2316,213,8.75502,13.2687,0,1375
-1.87733e-07,-1.10938e-07,-1.53877e-06,-6.7614e-05,-4.18301e-05,-0.00686188,25.8623,27.9228,-0.172709,14.1415,28.0251,25.8453,-0.25798,27.2586,213,14.9572,14.2174,0,1376
-2.60119e-09,-2.06462e-07,-1.53435e-06,-2.33034e-05,-7.49248e-05,-0.00884599,27.9651,24.7114,0.103182,14.0051,28.0392,24.7114,0.0290336,26.5035,213,10.1462,15.7302,0,1377
1.7193e-07,2.33899e-08,-1.53447e-06,-6.21573e-05,-2.41602e-05,-0.00894715,25.7143,28.0688,-0.019897,14.0961,28.1208,25.7139,-0.0714811,27.0692,213,5.49854,9.35274,0,1378
-2.33377e-08,4.56405e-08,-1.53761e-06,-2.77217e-05,-2.79767e-05,-0.00782102,29.8355,29.8226,-0.0915828,14.9739,29.8518,29.8107,-0.0959654,29.9272,213,10.9233,8.5713,0,1379
3.24114e-08,-6.12319e-07,-1.48426e-06,-1.83803e-05,-2.00441e-05,-0.00856067,29.9206,27.3372,2.55702,14.5617,30.8281,27.2819,1.70475,27.5222,213,8.05316,19.9139,0,1380
1.6622e-07,-2.59837e-08,-1.53715e-06,-6.12971e-05,-2.31473e-05,-0.00780724,26.5647,29.3147,-0.174809,14.7968,29.3664,26.5652,-0.227095,28.2971,213,5.59049,11.4926,0,1381
2.11259e-07,-1.10746e-07,-1.53739e-06,-7.55588e-05,-4.19369e-05,-0.00779381,24.4125,26.897,-0.289492,13.6996,27.0085,24.4022,-0.390724,26.1935,213,4.82887,14.2321,0,1382
-6.23039e-08,5.7018e-08,-1.53802e-06,-3.25579e-05,-3.02454e-05,-0.00706673,30.0324,30.208,-0.0757191,15.163,30.239,30.0127,-0.0870125,30.2135,213,12.2189,8.15515,0,1383
-1.73575e-07,-2.25467e-08,-1.53441e-06,-6.3165e-05,-2.38604e-05,-0.00853733,25.9446,28.5012,0.00278576,14.3017,28.5533,25.9454,-0.0500368,27.3926,213,14.6166,11.3189,0,1384
3.94929e-08,3.54796e-08,-1.53772e-06,-2.91165e-05,-2.57756e-05,-0.00876364,28.7021,28.9211,-0.0777625,14.5044,28.9261,28.702,-0.0826221,28.8973,213,8.62056,8.93834,0,1385
-4.26243e-07,-5.45998e-07,-1.50786e-06,-6.43885e-05,-8.83494e-07,-0.00819063,18.6047,23.9864,0.182217,13.3277,25.9933,17.4423,-0.662223,23.5734,213,18.944,19.91,0,1386
4.25998e-07,-5.44205e-07,-1.51098e-06,-6.14116e-05,5.23005e-07,-0.00823806,18.4298,23.5648,-1.20368,13.7758,25.5826,17.1773,-1.96896,24.4572,213,1.15601,19.91,0,1387
-3.67106e-08,-5.98851e-07,-1.48325e-06,-1.92596e-05,-2.74424e-05,-0.0067603,32.0919,28.8403,3.11154,15.471,33.1691,28.6475,2.22717,28.9472,213,12.2505,19.8277,0,1388
-2.66177e-07,2.06027e-07,-1.53689e-06,-9.454e-05,-7.00831e-05,-0.00776194,21.9046,23.514,-0.164352,12.102,23.8111,21.8362,-0.392997,23.2795,213,16.0131,4.78246,0,1389
2.62069e-07,1.98651e-07,-1.53716e-06,-9.127e-05,-6.77269e-05,-0.00913891,21.965,23.3302,-0.180906,11.9929,23.5889,21.9222,-0.396861,23.1974,213,4.13792,4.89164,0,1390
5.24951e-08,6.9424e-08,-1.53834e-06,-3.13954e-05,-3.24973e-05,-0.00782218,29.2844,29.181,-0.116916,14.7213,29.3132,29.1648,-0.129516,29.3688,213,8.17991,7.77003,0,1391
6.35779e-07,6.39083e-07,-1.60887e-06,-4.95969e-05,-4.72012e-05,-0.00913316,13.5905,14.2745,-4.46378,12.8895,18.0423,13.0957,-7.73678,23.6962,213,1.0453,1.08451,0,1392
-6.30266e-07,6.32975e-07,-1.59714e-06,-6.61897e-05,-6.57414e-05,-0.00828071,12.5215,12.9493,-3.08712,11.1718,16.1906,12.3459,-6.15288,20.6908,213,19.0547,1.08451,0,1393
-3.1579e-08,-9.28495e-09,-1.53736e-06,-2.83698e-05,-2.36871e-05,-0.00919057,28.3765,28.6601,-0.0654952,14.3645,28.6618,28.3765,-0.0672338,28.5875,213,11.2003,10.7758,0,1394
8.26723e-08,1.5787e-07,-1.53918e-06,-3.73014e-05,-5.62963e-05,-0.00706294,28.5839,27.0412,-0.216314,14.4594,28.6483,27.031,-0.2705,28.145,213,7.21373,5.70799,0,1395
5.72603e-07,7.24141e-07,-1.528e-06,-0.000127033,-0.000156416,-0.00777013,15.6127,12.6088,0.467191,10.0203,18.1421,12.4451,-1.89847,17.886,213,1.43629,0.542257,0,1396
6.99966e-07,7.14288e-07,-1.41319e-06,-0.000157566,-0.000154248,-0.00723368,13.625,13.8506,1.92842,9.30422,17.3376,13.3373,-1.27086,16.9658,213,0.52265,0.542257,0,1397
7.23283e-07,5.84383e-07,-1.52858e-06,-0.00015862,-0.000130306,-0.00777256,11.9754,15.0157,-0.179496,10.2086,17.5136,12.2015,-2.90352,18.3472,213,0.52265,1.50135,0,1398
-7.0676e-07,7.22232e-07,-1.40021e-06,-0.000171362,-0.000166004,-0.00717123,12.0692,12.4521,2.60638,8.30517,15.6101,12.5178,-1.00024,15.3004,213,19.5774,0.542257,0,1399
-5.67669e-07,7.21072e-07,-1.51216e-06,-0.000132021,-0.000163505,-0.00764296,15.3238,11.9185,1.69814,9.07974,17.4556,12.1887,-0.703882,16.1822,213,18.6637,0.542257,0,1400
-7.20544e-07,5.80581e-07,-1.51294e-06,-0.000166308,-0.000135059,-0.00764585,11.7642,14.9162,1.29595,9.27301,17.1185,12.2854,-1.42752,16.6637,213,19.5774,1.50135,0,1401
5.70106e-07,-5.61642e-07,-1.44232e-06,-0.000178228,-5.07916e-05,-0.00625704,13.4197,24.6944,3.00322,12.315,26.3942,12.959,1.76414,21.3596,213,0.578007,19.5459,0,1402
4.4124e-07,-6.26312e-07,-1.49085e-06,-0.000157846,-0.00011272,-0.00758323,13.7839,17.1466,0.536553,9.62854,18.4275,13.8691,-0.829565,17.4308,213,0.578007,20.505,0,1403
3.30956e-07,-5.96705e-07,-1.50501e-06,-9.61756e-05,-0.000136138,-0.00659788,18.7387,14.8539,-1.47395,11.5319,20.9706,13.2412,-2.09317,20.3325,213,1.49164,20.505,0,1404
-4.41671e-07,-6.31841e-07,-1.48491e-06,-0.00016031,-0.000112736,-0.00755851,13.5256,17.0845,0.486577,9.59419,18.295,13.695,-0.893335,17.3518,213,19.522,20.505,0,1405
-5.71929e-07,-5.62339e-07,-1.44009e-06,-0.00017709,-5.60637e-05,-0.00724226,14.4672,24.3023,4.14924,12.1224,26.2184,14.7267,1.97355,21.0062,213,19.522,19.5459,0,1406
-3.30366e-07,-5.97151e-07,-1.50747e-06,-9.59868e-05,-0.00013477,-0.00661076,18.688,14.7516,-1.50021,11.4071,20.7786,13.1963,-2.03551,20.1244,213,18.6084,20.505,0,1407
2.86572e-07,7.20428e-07,-1.51581e-06,-9.55377e-05,-0.000186627,-0.00764011,18.4056,11.6703,0.324958,10.6788,19.9996,11.7593,-1.35806,18.6563,213,3.64893,0.832639,0,1408
3.89687e-07,7.00008e-07,-1.52991e-06,-0.00012663,-0.00016422,-0.00770202,15.1582,11.3055,-0.781888,9.83562,16.9204,11.5123,-2.75086,17.6017,213,2.7353,0.832639,0,1409
3.77138e-07,5.45497e-07,-1.58704e-06,-0.000130957,-0.000147656,-0.008243,14.1344,12.8797,-3.60124,10.2489,15.7191,12.4726,-4.77879,19.0829,213,2.82835,1.836,0,1410
5.0478e-07,6.53651e-07,-1.593e-06,-0.00014658,-0.000165127,-0.00796694,12.7433,11.3682,-1.97731,9.06098,14.5438,11.1686,-3.57821,16.6923,213,1.92033,1.00336,0,1411
5.65225e-07,5.71327e-07,-1.63593e-06,-0.000147315,-0.0001377,-0.0098017,12.8998,13.6681,-4.52833,10.7534,15.2504,13.0456,-6.2564,20.4935,213,1.52934,1.54562,0,1412
2.12001e-07,7.38627e-07,-1.52137e-06,-7.14153e-05,-0.000183149,-0.00892214,20.0957,12.6013,-1.61912,12.0156,21.2153,12.6786,-2.81595,21.1004,213,4.56257,0.832639,0,1413
8.86756e-08,7.97546e-07,-1.50002e-06,-3.729e-05,-0.000200178,-0.00762389,24.2862,12.0114,1.07777,12.911,25.5774,12.0426,-0.244639,22.3713,213,6.97757,0.694585,0,1414
1.26322e-07,7.87877e-07,-1.4978e-06,-4.63284e-05,-0.000196029,-0.00774921,22.7005,11.1737,-0.719897,12.9014,23.8855,11.1861,-1.91736,22.3469,213,6.06394,0.694585,0,1415
1.60144e-07,6.93828e-07,-1.57037e-06,-5.56313e-05,-0.000184834,-0.00798706,22.3481,12.7689,0.0750013,12.3487,23.5332,12.823,-1.16424,21.4513,213,5.35918,1.1421,0,1416
2.18885e-07,5.46352e-07,-1.58731e-06,-7.41116e-05,-0.000160184,-0.00640084,20.8911,13.2143,-0.614481,11.7618,21.9066,13.2014,-1.61709,20.6001,213,4.43993,1.97474,0,1417
1.29532e-07,5.84088e-07,-1.58532e-06,-4.80912e-05,-0.000165685,-0.00948023,22.9023,15.9237,-0.773918,12.6848,23.7364,15.9489,-1.63319,22.5099,213,5.9413,1.83668,0,1418
3.688e-08,7.83235e-07,-1.50942e-06,-2.76089e-05,-0.000201268,-0.00774262,25.4439,12.3415,1.75797,12.9051,26.4991,12.3553,0.688932,22.3866,213,8.66368,0.795696,0,1419
6.28147e-08,7.80349e-07,-1.51827e-06,-2.92953e-05,-0.000198199,-0.00770308,24.3407,11.6469,-1.03143,13.7653,25.4146,11.6576,-2.11598,23.8422,213,7.75005,0.795696,0,1420
6.92878e-08,6.53039e-07,-1.59278e-06,-3.43441e-05,-0.000172085,-0.00961098,23.2053,14.9003,-2.26167,13.6094,24.0752,14.9123,-3.14355,23.9878,213,7.41853,1.49028,0,1421
-1.17184e-08,7.38331e-07,-1.55365e-06,-2.3563e-05,-0.000190667,-0.006817,25.0005,10.758,-2.66025,14.7464,25.9162,10.7586,-3.57658,25.5448,213,10.5068,1.03798,0,1422
1.0721e-08,7.36761e-07,-1.54976e-06,-2.606e-05,-0.000192727,-0.00678558,25.2904,11.0717,-1.04288,14.0365,26.1608,11.0705,-1.91217,24.3348,213,9.59318,1.03798,0,1423
2.27529e-08,5.99884e-07,-1.59857e-06,-2.41415e-05,-0.000159132,-0.00961445,23.9383,15.8508,-3.39718,14.3843,24.6549,15.8508,-4.11374,25.5316,213,9.1205,1.83367,0,1424
-6.23231e-08,7.76635e-07,-1.52223e-06,-3.16769e-05,-0.000194129,-0.00666578,24.8248,10.9096,-0.509858,13.8043,25.9552,10.9227,-1.65334,23.9412,213,12.3489,0.819491,0,1425
-3.54001e-08,7.80858e-07,-1.52021e-06,-2.64781e-05,-0.000196512,-0.00779358,24.6677,11.8715,-0.855756,13.7705,25.6743,11.8759,-1.86673,23.8513,213,11.4353,0.819491,0,1426
-2.12425e-08,5.98388e-07,-1.59071e-06,-2.45363e-05,-0.000167743,-0.00955307,24.4305,15.8759,-1.60827,13.7022,25.113,15.8765,-2.29133,24.1493,213,10.9785,1.85747,0,1427
-1.25374e-07,7.85979e-07,-1.50376e-06,-4.49594e-05,-0.000193606,-0.00778514,22.7551,11.3013,-1.10856,13.0858,23.9053,11.3089,-2.26634,22.6706,213,14.0183,0.703454,0,1428
-8.86321e-08,7.95704e-07,-1.50404e-06,-3.68824e-05,-0.00019697,-0.00872318,23.9021,13.5538,0.728128,12.9097,25.213,13.5774,-0.606364,22.3965,213,13.1046,0.703454,0,1429
-6.98016e-08,6.51129e-07,-1.58599e-06,-3.53829e-05,-0.000177457,-0.00799112,23.996,13.1956,-1.36179,13.4867,24.802,13.1992,-2.17136,23.4354,213,12.6627,1.52294,0,1430
-2.87211e-07,7.21226e-07,-1.51968e-06,-9.52462e-05,-0.000185733,-0.00761457,18.5704,11.8596,0.471125,10.5456,20.0194,11.9536,-1.07185,18.4331,213,16.4511,0.832639,0,1431
-2.12164e-07,7.38637e-07,-1.52252e-06,-7.28536e-05,-0.000182353,-0.00884365,20.2526,12.8528,-1.11761,11.8023,21.323,12.9464,-2.28161,20.7272,213,15.5374,0.832639,0,1432
-2.16887e-07,5.46703e-07,-1.58489e-06,-7.40248e-05,-0.000162828,-0.00790243,20.8527,14.1155,-0.59958,11.5807,21.7015,14.1271,-1.45995,20.4546,213,15.6475,1.97767,0,1433
-1.59033e-07,6.93095e-07,-1.57442e-06,-5.53851e-05,-0.000184243,-0.00801355,22.2533,12.6996,-0.248654,12.4346,23.4133,12.7469,-1.45593,21.6098,213,14.7283,1.14503,0,1434
-1.28101e-07,5.82657e-07,-1.58883e-06,-4.68711e-05,-0.000168528,-0.0079452,23.3729,14.2883,-0.774802,12.8956,24.1736,14.3305,-1.61769,22.5435,213,14.1283,1.84849,0,1435
-3.88867e-07,7.01119e-07,-1.5343e-06,-0.00012404,-0.000175223,-0.00619929,14.0229,9.4862,-1.38428,9.46675,15.6335,9.79129,-3.29998,16.7927,213,17.3647,0.832639,0,1436
-5.04204e-07,6.51458e-07,-1.59428e-06,-0.000145783,-0.000164923,-0.0096634,14.0857,12.851,-2.53007,9.94651,15.8606,12.5784,-4.03242,18.472,213,18.1797,1.00336,0,1437
-3.76829e-07,5.46596e-07,-1.58383e-06,-0.000131708,-0.000144919,-0.00817632,14.3233,12.6212,-2.46888,9.93764,16.0348,12.2814,-3.84052,18.2898,213,17.2716,1.836,0,1438
-5.64511e-07,5.67711e-07,-1.65353e-06,-0.000144364,-0.000135453,-0.00867625,12.0815,12.7135,-5.29576,10.923,14.7658,11.8136,-7.08011,20.5296,213,18.5707,1.54562,0,1439
6.95328e-07,-3.37845e-07,-1.54074e-06,-0.000190362,-0.000112081,-0.00773688,10.4086,16.283,-0.648554,9.73112,17.3706,10.764,-2.09161,17.142,213,0.872357,17.2666,0,1440
6.52662e-07,-4.43541e-07,-1.56551e-06,-0.000180217,-9.80377e-05,-0.00945138,13.1239,18.4637,-0.792083,11.0631,19.6992,13.5232,-2.42691,19.7752,213,0.872357,18.2257,0,1441
4.83299e-07,-4.04858e-07,-1.61449e-06,-0.000148175,-9.46299e-05,-0.00657248,13.5218,18.1988,-2.05092,11.5205,20.0333,12.6442,-3.00781,20.3774,213,1.94499,18.1186,0,1442
5.53455e-07,-5.0273e-07,-1.5369e-06,-0.000169241,-6.81517e-05,-0.00780338,13.0422,20.8496,-2.52455,12.9138,22.2583,12.6783,-3.56931,22.6144,213,1.07263,19.0747,0,1443
4.22488e-07,-5.04813e-07,-1.52393e-06,-0.000132763,-4.66282e-05,-0.0103317,18.4467,22.9744,-2.3015,13.7749,24.539,17.5912,-3.01068,24.8163,213,1.65064,19.4388,0,1444
7.28903e-07,-2.46737e-07,-1.52197e-06,-0.000193545,-8.27054e-05,-0.00766275,10.7223,18.9401,-1.23603,11.4063,20.1834,10.8723,-2.62928,19.8671,213,0.872357,16.3075,0,1445
7.87315e-07,-9.98134e-08,-1.51054e-06,-0.000199656,-4.01569e-05,-0.00770841,11.5422,23.4729,-0.0926682,12.9742,24.6445,11.5819,-1.30392,22.4721,213,0.750703,13.7499,0,1446
7.80502e-07,-1.44613e-07,-1.50667e-06,-0.000193309,-5.10916e-05,-0.00656366,8.80693,21.6781,-2.40318,13.0679,22.6655,8.8867,-3.47035,22.6455,213,0.750703,14.709,0,1447
6.82239e-07,-1.79066e-07,-1.55908e-06,-0.000190789,-6.35573e-05,-0.0094238,14.3936,22.0369,1.6854,11.0649,22.8765,14.4927,0.746677,19.3516,213,1.21141,15.449,0,1448
5.12452e-07,-2.39583e-07,-1.57696e-06,-0.000153331,-7.94896e-05,-0.00819057,13.6904,19.7244,-1.86785,11.635,20.5463,13.7242,-2.72361,20.7191,213,2.08376,16.411,0,1449
5.60063e-07,-1.36985e-07,-1.58457e-06,-0.00016773,-4.98831e-05,-0.00930914,16.4802,23.9903,2.55659,11.6406,24.884,16.5402,1.60289,20.4298,213,1.96211,14.8125,0,1450
7.74078e-07,-4.33184e-08,-1.53833e-06,-0.000196471,-2.46259e-05,-0.00673198,10.471,25.5443,-0.175655,13.9552,26.6367,10.4765,-1.27358,24.2714,213,0.866429,11.9815,0,1451
7.72168e-07,-6.96067e-08,-1.54084e-06,-0.000193659,-3.2926e-05,-0.00782665,12.7641,24.8538,1.27588,13.1579,26.2148,12.7799,-0.100928,22.7918,213,0.866429,12.9406,0,1452
6.34084e-07,-7.69874e-08,-1.58423e-06,-0.00017569,-3.53526e-05,-0.00643523,11.5752,24.0243,-3.51053,14.8781,25.128,11.5891,-4.62821,25.8045,213,1.61713,13.2632,0,1453
7.76444e-07,5.37656e-09,-1.52385e-06,-0.000196595,-2.39934e-05,-0.00773075,11.7081,25.108,-0.098152,13.6242,26.1275,11.7114,-1.12088,23.611,213,0.864564,10.085,0,1454
7.73553e-07,-1.92273e-08,-1.52447e-06,-0.00019536,-2.64138e-05,-0.00772702,11.8229,24.9245,-0.165934,13.6325,26.0094,11.8278,-1.25571,23.6187,213,0.864564,11.0441,0,1455
6.20678e-07,-2.61495e-08,-1.59425e-06,-0.000166392,-2.38305e-05,-0.00834459,14.5421,25.0959,-2.2914,14.3262,25.7268,14.5454,-2.92559,25.0122,213,1.73099,11.5164,0,1456
7.76757e-07,5.56777e-08,-1.52301e-06,-0.000191792,-2.82036e-05,-0.00774118,11.8621,24.7424,-0.15825,13.4586,25.745,11.8736,-1.1723,23.3147,213,0.838594,8.19862,0,1457
7.79464e-07,2.74862e-08,-1.51576e-06,-0.000199861,-2.77333e-05,-0.0076749,11.6119,24.9416,0.571589,13.2479,26.0035,11.6139,-0.492304,22.9744,213,0.838594,9.15771,0,1458
6.24476e-07,1.51946e-08,-1.60281e-06,-0.000165219,-2.25238e-05,-0.00943485,14.8551,23.9548,-3.79944,14.6829,24.7607,14.855,-4.6052,25.8764,213,1.70316,9.65178,0,1459
7.91077e-07,1.18115e-07,-1.50902e-06,-0.000197016,-4.24287e-05,-0.0103324,14.5015,22.5415,-0.176043,12.7032,23.8661,14.541,-1.5402,22.2603,213,0.73835,6.39528,0,1460
7.95163e-07,8.01276e-08,-1.51427e-06,-0.000198441,-3.49507e-05,-0.00766181,11.7904,24.4745,1.02313,12.8933,25.6344,11.8059,-0.152283,22.3515,213,0.73835,7.35437,0,1461
6.41298e-07,5.89101e-08,-1.5921e-06,-0.000174749,-2.86658e-05,-0.00828529,13.5905,24.418,-2.16223,14.237,25.3633,13.5936,-3.11059,24.7822,213,1.57694,7.88026,0,1462
7.22373e-07,2.77785e-07,-1.51731e-06,-0.00019395,-9.07088e-05,-0.00883587,12.3357,18.9275,-0.0217596,10.7115,20.0665,12.5314,-1.35645,18.8228,213,0.86975,3.84992,0,1463
7.41118e-07,2.02335e-07,-1.52128e-06,-0.000187447,-6.86096e-05,-0.0102818,13.7753,20.0601,-2.45393,12.4055,21.1818,13.8289,-3.62916,22.0729,213,0.86975,4.80901,0,1464
5.1695e-07,2.07573e-07,-1.57491e-06,-0.000163217,-6.91232e-05,-0.00634806,13.1779,21.5908,-0.161487,11.5676,22.2487,13.2451,-0.886596,20.1991,213,2.1525,4.67371,0,1465
6.7619e-07,1.51508e-07,-1.57271e-06,-0.000189481,-5.1886e-05,-0.00642589,11.4664,23.6571,2.08829,11.8886,24.7502,11.4886,0.97296,20.6374,213,1.28275,5.61924,0,1466
5.50925e-07,1.18202e-07,-1.57768e-06,-0.000170926,-4.72164e-05,-0.00637208,12.884,23.8927,-0.57681,12.7771,24.4155,12.9231,-1.13871,22.1678,213,2.0211,6.25998,0,1467
7.00239e-07,3.81964e-07,-1.53483e-06,-0.000176091,-0.000123061,-0.00780169,10.9244,15.2736,-0.678602,9.59349,16.725,11.2565,-2.46202,17.1208,213,0.86975,2.89083,0,1468
6.52799e-07,5.11656e-07,-1.59243e-06,-0.000170011,-0.000148117,-0.00788105,11.0327,12.8098,-1.5723,9.36008,15.054,10.8824,-3.66619,17.0222,213,1.00669,1.96245,0,1469
5.36724e-07,3.70421e-07,-1.57732e-06,-0.000160843,-0.000128381,-0.00797223,12.4386,14.8454,-1.71943,9.63109,16.2852,12.2564,-2.97698,17.5971,213,1.87644,2.9351,0,1470
-7.22163e-07,2.77416e-07,-1.51674e-06,-0.000193647,-9.13988e-05,-0.00870796,12.6127,19.1428,0.513455,10.7592,20.5035,12.7805,-1.015,18.8813,213,19.2303,3.84992,0,1471
-6.99252e-07,3.81936e-07,-1.53728e-06,-0.000164851,-0.000124018,-0.00921583,13.4908,16.8789,0.17225,9.90038,18.3025,13.7378,-1.4983,17.9589,213,19.2303,2.89083,0,1472
-5.36082e-07,3.70582e-07,-1.58021e-06,-0.00015881,-0.000128,-0.00930384,13.089,15.3417,-2.20795,9.97322,16.5899,12.9893,-3.3565,18.4121,213,18.2236,2.9351,0,1473
-6.51989e-07,5.11325e-07,-1.59956e-06,-0.000167958,-0.000150223,-0.00642407,9.50776,10.9193,-0.851945,8.15824,13.3231,9.24539,-2.99338,14.7079,213,19.0933,1.96245,0,1474
-7.41678e-07,2.01928e-07,-1.51985e-06,-0.000189077,-6.79546e-05,-0.0103591,13.5741,19.9189,-2.72852,12.5507,21.12,13.6258,-3.9813,22.3187,213,19.2303,4.80901,0,1475
-7.95274e-07,8.03021e-08,-1.51304e-06,-0.000204106,-3.39801e-05,-0.00766243,11.2485,24.4078,1.08889,12.8268,25.5635,11.2718,-0.0900736,22.2649,213,19.3501,7.34886,0,1476
-7.89952e-07,1.1828e-07,-1.50637e-06,-0.000200813,-4.31098e-05,-0.010292,14.3387,22.5136,0.0154071,12.6015,23.8461,14.3786,-1.35701,22.0504,213,19.3501,6.38977,0,1477
-6.75484e-07,1.51453e-07,-1.56772e-06,-0.000190837,-5.19698e-05,-0.006403,11.4189,23.7242,2.37885,11.731,24.7679,11.4481,1.30592,20.3807,213,18.8115,5.62007,0,1478
-5.15251e-07,2.07825e-07,-1.57334e-06,-0.000163388,-6.96889e-05,-0.00634197,13.2184,21.5936,0.0212106,11.4777,22.2485,13.2915,-0.706855,20.0391,213,17.9417,4.67454,0,1479
-5.46012e-07,1.17986e-07,-1.57488e-06,-0.000171491,-4.70192e-05,-0.00636501,12.8165,23.8799,-0.646816,12.8025,24.4006,12.8533,-1.20433,22.21,213,18.0616,6.25529,0,1480
-7.82694e-07,2.90494e-08,-1.50636e-06,-0.000210513,-2.77189e-05,-0.00879778,12.2984,24.1057,0.239714,13.1364,25.3075,12.3016,-0.965315,22.7533,213,19.25,9.1235,0,1481
-7.76961e-07,5.70078e-08,-1.51836e-06,-0.000200862,-2.74321e-05,-0.00771044,11.1095,24.6572,-0.0543357,13.3471,25.6428,11.121,-1.05143,23.1477,213,19.25,8.16441,0,1482
-6.33526e-07,6.06691e-08,-1.58545e-06,-0.000180276,-2.84016e-05,-0.00821014,13.2616,24.4849,-1.76373,14.0675,25.4267,13.2643,-2.70827,24.44,213,18.5001,7.84054,0,1483
-7.26874e-07,-1.83714e-08,-1.55127e-06,-0.000199122,-2.36348e-05,-0.00942732,13.7151,24.2871,-0.360053,13.3281,25.2905,13.7172,-1.36561,23.1515,213,18.9734,11.0295,0,1484
-7.27367e-07,5.84262e-09,-1.54811e-06,-0.000201866,-2.44835e-05,-0.00784624,12.0043,25.2721,0.581371,13.3039,26.2303,12.0049,-0.377484,23.0614,213,18.9734,10.0705,0,1485
-5.74273e-07,1.6348e-08,-1.58664e-06,-0.000164327,-2.35055e-05,-0.00798561,15.0994,25.5691,-1.7051,14.3334,26.2654,15.0994,-2.40136,25.0274,213,18.1234,9.60305,0,1486
-7.7375e-07,-6.89812e-08,-1.53346e-06,-0.000193932,-3.45595e-05,-0.00928366,14.4909,24.5881,2.74356,12.1592,25.82,14.501,1.50158,21.0771,213,19.2336,12.9406,0,1487
-7.7889e-07,-4.26815e-08,-1.53167e-06,-0.000206184,-2.34722e-05,-0.00891219,13.3632,25.1637,1.92132,12.9733,26.5078,13.3793,0.561159,22.471,213,19.2336,11.9815,0,1488
-5.68023e-07,-2.56565e-08,-1.5774e-06,-0.00016933,-2.35291e-05,-0.00795033,14.3102,25.3154,-1.8558,14.1494,25.879,14.3105,-2.41977,24.643,213,18.107,11.5019,0,1489
-7.777e-07,-1.45254e-07,-1.50684e-06,-0.000196048,-5.27499e-05,-0.00775703,11.8282,22.7695,1.33712,12.1725,24.1905,11.8989,-0.154575,21.0838,213,19.3417,14.7256,0,1490
-7.87564e-07,-1.00242e-07,-1.5111e-06,-0.000197279,-4.09093e-05,-0.00657305,10.0494,23.7665,0.00693408,12.9344,24.803,10.0856,-1.06575,22.4738,213,19.3417,13.7665,0,1491
-6.31004e-07,-7.78093e-08,-1.57864e-06,-0.000175942,-3.52264e-05,-0.00931367,14.206,23.3284,-1.80635,13.5889,24.3414,14.2232,-2.83653,23.7913,213,18.4753,13.2798,0,1492
-6.93589e-07,-3.37496e-07,-1.54392e-06,-0.000188405,-0.000111968,-0.00790974,10.3458,15.9784,-1.05996,9.61419,16.8892,10.7143,-2.33921,17.0037,213,19.2276,17.2666,0,1493
-7.28138e-07,-2.45792e-07,-1.52373e-06,-0.000184923,-8.29231e-05,-0.0102693,14.0142,19.4397,-1.61389,11.8059,20.6685,14.1149,-2.94339,21.1123,213,19.2276,16.3075,0,1494
-5.10957e-07,-2.40257e-07,-1.5748e-06,-0.000161725,-8.12023e-05,-0.00789034,14.1461,20.2233,-0.553404,11.2233,21.0381,14.1862,-1.40838,19.9247,213,18.0108,16.4229,0,1495
-6.83144e-07,-1.79612e-07,-1.56374e-06,-0.000189879,-6.13372e-05,-0.00639724,11.059,22.4406,1.98817,11.1488,23.2905,11.2043,0.992977,19.333,213,18.8832,15.4608,0,1496
-5.57989e-07,-1.40336e-07,-1.5786e-06,-0.000168954,-4.88871e-05,-0.00790867,14.064,22.9024,-1.66704,12.9973,23.613,14.068,-2.38156,22.7751,213,18.1249,14.841,0,1497
-6.55338e-07,-4.41481e-07,-1.57071e-06,-0.000181684,-9.51515e-05,-0.00636241,10.1342,17.6882,-0.125963,10.2448,18.7144,10.7572,-1.77516,17.8914,213,19.2276,18.2257,0,1498
-5.51107e-07,-5.00174e-07,-1.53822e-06,-0.000169286,-7.46183e-05,-0.00789588,12.5519,19.7173,-3.22536,12.7242,21.106,12.2803,-4.34238,22.3811,213,19.0274,19.0747,0,1499
-4.85102e-07,-4.05913e-07,-1.61329e-06,-0.000140008,-9.44794e-05,-0.0109027,16.0137,18.8146,-2.49917,11.8411,20.2367,15.5379,-3.44552,21.7175,213,18.155,18.1186,0,1500
-4.23246e-07,-5.08436e-07,-1.52334e-06,-0.000131956,-4.984e-05,-0.00890871,17.2582,22.5845,-4.14531,14.412,24.3348,15.8517,-4.48914,25.6567,213,18.4494,19.4388,0,1501
-1.68047e-07,-5.9922e-07,-1.48155e-06,-5.13911e-05,-0.000131001,-0.00859006,23.8351,18.7844,-0.600105,12.7811,24.6744,18.2328,-0.88785,23.0274,213,16.441,20.2967,0,1502
-2.27802e-07,-5.7859e-07,-1.48585e-06,-8.13588e-05,-0.000118767,-0.00755998,21.8157,19.0422,0.0796633,11.7148,23.2747,17.8179,-0.154949,21.2338,213,17.3547,20.2967,0,1503
-2.93094e-07,-5.07355e-07,-1.51462e-06,-0.000105128,-4.59029e-05,-0.00873306,21.3767,24.7206,0.10139,13.855,27.081,19.7467,-0.628977,24.8677,213,17.1957,19.2305,0,1504
-3.1828e-07,-5.46627e-07,-1.49196e-06,-0.000110376,-0.00010766,-0.00900871,18.7665,18.9408,-1.7022,12.0675,21.9375,16.2652,-2.19753,21.858,213,18.1137,20.0338,0,1505
-1.23926e-07,-6.17311e-07,-1.48556e-06,-4.39525e-05,-0.00011741,-0.00993039,25.0711,21.1539,1.78483,12.5728,26.1497,20.856,1.00417,22.961,213,15.5274,20.2967,0,1506
-4.92954e-08,-6.49734e-07,-1.48263e-06,-2.11474e-05,-0.000147947,-0.00854901,26.9476,18.7634,1.48094,13.5218,27.736,18.7634,0.692531,23.8581,213,13.1102,20.3931,0,1507
-7.20032e-08,-6.46445e-07,-1.48474e-06,-2.93111e-05,-0.000130664,-0.00746704,27.5444,19.7789,1.79248,13.7251,28.4042,19.7576,0.953988,24.309,213,14.0239,20.3931,0,1508
-9.54268e-08,-5.50385e-07,-1.51315e-06,-3.56871e-05,-6.23274e-05,-0.00920734,27.0674,25.6298,0.473828,14.0948,28.1785,25.0036,-0.011142,26.7439,213,14.1197,19.2777,0,1509
-9.99776e-08,-5.98346e-07,-1.48295e-06,-3.47715e-05,-0.000114286,-0.00606441,26.4518,19.3851,-3.43965,15.1034,26.7383,19.1275,-3.46852,27.2117,213,14.714,19.9846,0,1510
-1.6811e-07,-5.26241e-07,-1.51641e-06,-6.0182e-05,-7.00821e-05,-0.00929925,24.6946,24.3551,0.264246,13.4136,26.4826,23.1759,-0.344554,25.3362,213,15.6232,19.1813,0,1511
-2.32678e-08,-6.73794e-07,-1.48443e-06,-1.65596e-05,-0.000141347,-0.00851354,27.485,19.2201,1.46537,13.8611,28.3446,19.2034,0.622438,24.4677,213,11.6071,20.4638,0,1512
-3.8468e-08,-6.63391e-07,-1.48275e-06,-1.68895e-05,-0.000156012,-0.00750123,27.9278,17.5039,1.47237,14.0142,28.7284,17.4756,0.700018,24.4299,213,12.5207,20.4638,0,1513
-5.02231e-08,-5.89465e-07,-1.48962e-06,-2.27681e-05,-4.65595e-05,-0.00609594,33.3688,31.2139,4.66806,15.1091,34.3169,30.8351,4.09877,28.6364,213,12.84,19.7569,0,1514
8.04225e-09,-6.86068e-07,-1.48514e-06,-1.46676e-05,-0.000163687,-0.0075158,27.8752,16.6289,1.35705,14.0878,28.7103,16.6162,0.534613,24.4822,213,9.52276,20.5393,0,1515
-5.76512e-09,-6.90547e-07,-1.48761e-06,-1.57006e-05,-0.000148791,-0.00852213,27.3106,18.485,1.32029,13.8624,28.1774,18.4861,0.452467,24.3701,213,10.4364,20.5393,0,1516
-1.48671e-08,-6.25707e-07,-1.48368e-06,-1.52035e-05,-0.000116678,-0.00752435,29.2469,21.7235,1.42467,14.567,29.9075,21.7141,0.773496,26.0234,213,11.0175,20.0336,0,1517
-7.77596e-09,-5.838e-07,-1.49843e-06,-1.7438e-05,-5.98545e-05,-0.00614826,32.3483,28.6091,1.48779,16.1024,33.0652,28.5196,0.860428,30.1897,213,10.4903,19.473,0,1518
-2.78733e-08,-5.73643e-07,-1.50396e-06,-1.93271e-05,-5.49215e-05,-0.00617554,32.4138,29.2914,1.81117,15.9182,33.0339,29.285,1.19751,30.1373,213,11.6609,19.3975,0,1519
3.67991e-08,-6.73715e-07,-1.48364e-06,-1.80809e-05,-0.000155347,-0.00855516,26.9795,18.1008,1.36698,13.6292,27.8088,18.088,0.550483,23.9278,213,7.68112,20.507,0,1520
2.10389e-08,-6.78003e-07,-1.48406e-06,-1.58178e-05,-0.00015659,-0.00858772,27.104,17.9507,1.29102,13.6053,27.8027,17.9508,0.592198,23.862,213,8.59476,20.507,0,1521
1.69038e-08,-6.1379e-07,-1.48858e-06,-1.59229e-05,-5.93086e-05,-0.0061039,32.6458,28.6524,1.86316,15.9893,33.2532,28.6337,1.27451,29.9374,213,8.98116,19.9463,0,1522
7.21881e-08,-6.49038e-07,-1.48624e-06,-2.90264e-05,-0.000132376,-0.00747823,27.4548,19.5243,1.61749,13.7635,28.3085,19.5066,0.781489,24.3499,213,6.07538,20.4079,0,1523
4.94852e-08,-6.52644e-07,-1.48414e-06,-2.1353e-05,-0.0001488,-0.00750719,27.6905,18.1245,1.47437,13.8804,28.4632,18.1239,0.70233,24.301,213,6.98901,20.4079,0,1524
4.75037e-08,-5.96335e-07,-1.49241e-06,-2.14933e-05,-5.3531e-05,-0.00757034,31.3436,29.0939,3.69513,14.594,32.2695,28.7815,3.08156,27.6097,213,7.36105,19.8149,0,1525
1.67577e-07,-5.98557e-07,-1.48153e-06,-5.13429e-05,-0.000131713,-0.0085471,23.894,18.8079,-0.440119,12.877,24.862,18.2917,-0.891961,23.1781,213,3.65897,20.2967,0,1526
1.23637e-07,-6.16073e-07,-1.4862e-06,-4.34234e-05,-0.000120003,-0.00895518,25.6665,20.9678,1.86662,12.9013,26.8432,20.6171,1.04061,23.3214,213,4.57261,20.2967,0,1527
9.98392e-08,-5.97516e-07,-1.48404e-06,-3.57416e-05,-0.000113293,-0.00755202,25.825,19.9754,-2.48373,14.3679,26.1568,19.7388,-2.57897,26.1249,213,5.38589,19.9809,0,1528
9.46391e-08,-5.52205e-07,-1.51259e-06,-3.56411e-05,-5.87543e-05,-0.00769569,28.3137,26.6001,0.30938,14.8454,29.5573,25.7995,-0.133587,28.0017,213,5.97944,19.2888,0,1529
1.6807e-07,-5.26102e-07,-1.51577e-06,-6.00862e-05,-6.88947e-05,-0.00922663,24.8519,24.6233,0.46982,13.4275,26.719,23.3619,-0.135918,25.3437,213,4.47668,19.1776,0,1530
2.27368e-07,-5.78969e-07,-1.48415e-06,-8.08117e-05,-0.000104902,-0.00899952,21.8689,19.6928,0.205414,11.6251,23.1474,18.7226,-0.102881,21.384,213,2.74534,20.2967,0,1531
3.1777e-07,-5.47504e-07,-1.4875e-06,-0.000112773,-0.000109127,-0.0075444,17.8375,18.1078,-2.56017,12.4028,21.8023,14.5862,-3.00338,22.0996,213,1.98626,20.0338,0,1532
2.92439e-07,-5.07416e-07,-1.51249e-06,-0.000105077,-5.81546e-05,-0.00875618,21.3566,24.6194,0.115291,13.7839,26.9915,19.676,-0.576267,24.7352,213,2.90433,19.2305,0,1533
5.68544e-09,3.9979e-08,-1.53752e-06,-2.65322e-05,-2.7563e-05,-0.00782145,29.9543,29.8753,-0.0815821,15.0208,29.9575,29.8748,-0.0842232,30.0004,213,9.83668,8.77727,0,1534
-6.32812e-09,5.6769e-08,-1.53762e-06,-2.67282e-05,-3.00514e-05,-0.0093271,28.191,28.008,-0.0885411,14.1455,28.1968,28.0079,-0.0941738,28.197,213,10.2916,8.19212,0,1535
-1.10991e-08,2.99205e-08,-1.53741e-06,-2.67878e-05,-2.58968e-05,-0.00782123,29.9979,30.0565,-0.0637321,15.061,30.0567,29.9992,-0.0652733,30.0933,213,10.4683,9.15645,0,1536
1.98413e-08,2.51902e-08,-1.53749e-06,-2.78328e-05,-2.49537e-05,-0.00932825,28.2239,28.3925,-0.0700865,14.2326,28.3933,28.225,-0.0719344,28.3814,213,9.31696,9.33997,0,1537
2.46135e-08,5.10392e-08,-1.53776e-06,-2.76782e-05,-2.8864e-05,-0.00932856,28.1394,28.0597,-0.0767463,14.1158,28.1492,28.0555,-0.0823637,28.1848,213,9.14028,8.37564,0,1538
-3.96062e-08,3.19812e-08,-1.53749e-06,-2.99172e-05,-2.58005e-05,-0.00631414,31.2806,31.6442,-0.103834,15.8786,31.6493,31.2795,-0.107838,31.5739,213,11.4814,9.07333,0,1539
-2.64936e-08,1.7453e-08,-1.53736e-06,-2.86807e-05,-2.39727e-05,-0.00782054,29.8502,30.1993,-0.049125,15.126,30.2009,29.8505,-0.0510118,30.0782,213,11.0264,9.65848,0,1540
-4.40246e-08,4.97525e-09,-1.5374e-06,-3.0322e-05,-2.39328e-05,-0.00782053,29.686,30.1489,-0.0697349,15.1123,30.1519,29.686,-0.07275,29.9944,213,11.6199,10.1756,0,1541
-1.50631e-08,3.04143e-09,-1.5373e-06,-2.73107e-05,-2.38193e-05,-0.00889707,28.7888,29.0088,-0.0580036,14.5339,29.0094,28.7886,-0.0584257,28.9581,213,10.6068,10.2587,0,1542
7.27542e-09,-9.38892e-09,-1.53741e-06,-2.6605e-05,-2.43079e-05,-0.00631547,31.7492,31.9559,-0.0740103,16.0151,31.956,31.7494,-0.0742321,31.9274,213,9.77409,10.7769,0,1543
3.1967e-08,-1.65817e-08,-1.53764e-06,-2.86267e-05,-2.42802e-05,-0.0078224,29.84,30.1622,-0.0646751,15.1158,30.1647,29.8398,-0.0669144,30.0705,213,8.88632,11.0789,0,1544
2.52677e-08,7.98171e-09,-1.53747e-06,-2.84486e-05,-2.35473e-05,-0.0078215,29.8817,30.2452,-0.0661745,15.1568,30.2463,29.8817,-0.0673144,30.133,213,9.12558,10.0436,0,1545
-8.51681e-09,-2.19327e-08,-1.53743e-06,-2.71822e-05,-2.45518e-05,-0.00932813,28.2848,28.4471,-0.0722834,14.2604,28.4477,28.2852,-0.0732085,28.44,213,10.3676,11.294,0,1546
4.54418e-08,1.76203e-08,-1.53768e-06,-3.00631e-05,-2.46609e-05,-0.00631527,31.3009,31.7828,-0.0986998,15.9445,31.7866,31.3008,-0.1024,31.6489,213,8.42918,9.64196,0,1547
-7.73099e-08,-1.69581e-07,-1.53652e-06,-3.61055e-05,-6.09033e-05,-0.006294,29.2735,27.0607,-0.174027,14.7972,29.3622,27.0302,-0.232239,28.5001,213,12.8195,15.2478,0,1548
-6.32143e-08,-1.24283e-07,-1.53737e-06,-3.25477e-05,-4.84884e-05,-0.00931634,27.3427,26.364,0.0054254,13.7067,27.384,26.3576,-0.0294395,26.9149,213,12.3386,14.3979,0,1549
-9.67216e-08,-1.22099e-07,-1.53831e-06,-4.19978e-05,-4.74149e-05,-0.00781082,27.8412,27.3822,-0.175375,14.0848,27.9469,27.3238,-0.222652,27.8632,213,13.2486,14.3856,0,1550
-9.60833e-08,-2.10652e-07,-1.53632e-06,-4.05267e-05,-7.6995e-05,-0.0077952,27.0816,24.3779,-0.0774945,13.6946,27.2102,24.3508,-0.178981,26.0773,213,13.3833,15.8703,0,1551
-6.35097e-08,-2.14678e-07,-1.5378e-06,-3.16254e-05,-7.81203e-05,-0.0103033,25.8356,23.5323,-0.0640781,13.0484,25.9357,23.5292,-0.161057,24.9806,213,12.4733,15.8827,0,1552
-1.67535e-07,-1.68866e-07,-1.53416e-06,-6.36661e-05,-5.94048e-05,-0.00928645,24.4772,24.6615,0.110563,12.5027,25.0089,24.2369,0.0034825,24.6285,213,14.7343,15.3511,0,1553
-1.84989e-07,-2.30004e-07,-1.53207e-06,-6.89365e-05,-8.28035e-05,-0.00881691,23.6529,22.7872,-0.0414991,12.0951,23.9833,22.6221,-0.206791,23.539,213,15.1144,16.2199,0,1554
-1.27584e-07,-2.25735e-07,-1.53437e-06,-4.87501e-05,-8.08938e-05,-0.0052681,27.7319,24.5746,0.0260552,14.0206,27.9446,24.4845,-0.0965697,26.4812,213,14.1096,16.1043,0,1555
-1.47975e-07,-1.36197e-07,-1.53811e-06,-5.55414e-05,-5.03191e-05,-0.00629714,27.2336,27.6991,-0.187479,14.1122,27.9661,27.0373,-0.258222,27.7716,213,14.3434,14.7265,0,1556
-2.13199e-07,-1.38968e-07,-1.53592e-06,-7.74622e-05,-5.09563e-05,-0.00778253,24.1883,26.0682,0.080916,13.1291,26.2164,24.1627,-0.041753,25.2939,213,15.3481,14.8421,0,1557
-1.26159e-07,-9.90953e-08,-1.53922e-06,-5.02545e-05,-3.91034e-05,-0.0078143,27.1725,27.9993,-0.0777113,14.0897,28.0593,27.1548,-0.120031,27.7382,213,13.8624,13.8766,0,1558
-1.07289e-07,-2.847e-07,-1.54289e-06,-4.3794e-05,-9.91077e-05,-0.00890515,25.509,21.9733,0.235178,12.8163,25.7127,21.9247,0.0801142,23.9642,213,13.7634,16.7392,0,1559
1.01122e-07,-1.18011e-07,-1.53877e-06,-4.20987e-05,-4.58339e-05,-0.00630617,29.0356,28.7079,-0.210904,14.711,29.1711,28.6124,-0.250945,29.1467,213,6.76228,14.3002,0,1560
5.7629e-08,-1.20955e-07,-1.53701e-06,-3.218e-05,-4.70422e-05,-0.00780897,28.8533,27.7212,-0.0400113,14.4807,28.8902,27.7154,-0.0712066,28.3923,213,7.94328,14.3234,0,1561
7.58619e-08,-1.53801e-07,-1.5369e-06,-3.62223e-05,-5.56418e-05,-0.00780253,28.1723,26.7325,-0.00788224,14.1518,28.2441,26.7124,-0.0595407,27.5697,213,7.36369,14.98,0,1562
5.86098e-08,-2.01597e-07,-1.53535e-06,-3.08953e-05,-7.35475e-05,-0.00779019,28.1936,25.0089,-0.150373,14.2543,28.2788,25.0032,-0.229832,27.0201,213,7.8188,15.7029,0,1563
1.00621e-07,-1.96285e-07,-1.5363e-06,-4.11842e-05,-7.15635e-05,-0.006291,28.1693,25.4776,-0.457502,14.4122,28.2919,25.4302,-0.532629,27.5055,213,6.6378,15.6798,0,1564
1.46516e-07,-1.01065e-07,-1.5391e-06,-5.40056e-05,-4.11631e-05,-0.00781354,26.6888,27.641,-0.172147,13.9852,27.7394,26.6492,-0.230932,27.4415,213,5.84086,13.9476,0,1565
1.1905e-07,-7.76629e-08,-1.5389e-06,-4.81214e-05,-3.45472e-05,-0.00932455,26.3173,27.1786,-0.0716126,13.6645,27.2199,26.3135,-0.109114,26.8873,213,6.42045,13.291,0,1566
1.63106e-07,-1.28844e-07,-1.53749e-06,-6.13215e-05,-4.77544e-05,-0.00629384,26.6845,27.882,0.00625945,14.0632,28.0521,26.5949,-0.0742395,27.4268,213,5.50578,14.5945,0,1567
1.89607e-07,-8.61615e-08,-1.53858e-06,-6.91422e-05,-3.61687e-05,-0.00887822,24.8147,26.849,-0.224749,13.6205,26.9312,24.8175,-0.309807,26.2481,213,5.16395,13.5852,0,1568
1.36217e-07,-2.14181e-07,-1.53471e-06,-5.07869e-05,-7.73578e-05,-0.00777874,25.9754,24.0054,-0.189793,13.2454,26.1715,23.9388,-0.31932,25.448,213,5.84614,15.9702,0,1569
1.9158e-07,-2.29176e-07,-1.53213e-06,-7.11994e-05,-8.20107e-05,-0.00775542,23.5655,22.7571,-0.583973,12.353,23.9574,22.5298,-0.748555,24.024,213,4.89598,16.2167,0,1570
1.76883e-07,-1.599e-07,-1.53379e-06,-6.71021e-05,-5.73627e-05,-0.00777721,25.0429,25.765,0.24738,12.9437,26.0243,24.8942,0.136814,25.3413,213,5.23253,15.2034,0,1571
2.29486e-07,-1.38365e-07,-1.53451e-06,-8.13791e-05,-5.08813e-05,-0.008847,23.3217,25.2861,0.0846867,12.7391,25.4301,23.3105,-0.0481177,24.4873,213,4.55562,14.841,0,1572
1.09406e-07,-2.79404e-07,-1.54435e-06,-4.46198e-05,-9.57169e-05,-0.00671854,27.1543,22.7379,1.02175,13.2409,27.3589,22.6779,0.877159,24.4792,213,6.30125,16.6931,0,1573
-1.16694e-07,1.23758e-07,-1.53888e-06,-4.64209e-05,-4.71797e-05,-0.00889325,26.4492,26.4026,-0.192386,13.4268,26.61,26.2931,-0.243636,26.6966,213,13.6816,6.33493,0,1574
-7.18514e-08,1.39687e-07,-1.53898e-06,-3.43507e-05,-5.27397e-05,-0.00630648,29.7983,28.1731,-0.0957346,14.993,29.8477,28.1662,-0.138289,29.1816,213,12.5778,6.05051,0,1575
-9.35391e-08,1.75527e-07,-1.53886e-06,-4.09898e-05,-6.15686e-05,-0.00780966,27.4579,25.9321,-0.126512,13.8693,27.5382,25.9258,-0.200485,26.9686,213,13.1899,5.40494,0,1576
-7.60058e-08,2.18094e-07,-1.53778e-06,-3.57833e-05,-7.53667e-05,-0.00629295,28.8555,25.3389,-0.0625194,14.5588,28.9581,25.3334,-0.159563,27.4851,213,12.7612,4.79756,0,1577
-1.22806e-07,1.94437e-07,-1.53951e-06,-4.74516e-05,-6.91756e-05,-0.00888497,25.843,24.5145,0.00420763,13.0257,25.956,24.5012,-0.0955003,25.3554,213,13.865,5.08198,0,1578
-1.32286e-07,2.58258e-07,-1.53655e-06,-5.08758e-05,-8.79447e-05,-0.00777984,25.8034,23.0551,0.188375,12.9846,25.9983,23.0196,0.0289883,24.6155,213,14.1162,4.24471,0,1579
-1.57412e-07,2.07912e-07,-1.53924e-06,-5.78129e-05,-7.26927e-05,-0.00930397,24.7571,23.7692,-0.102816,12.5793,24.9243,23.7335,-0.23436,24.5849,213,14.5448,4.85209,0,1580
-2.12271e-07,2.38328e-07,-1.53689e-06,-7.67293e-05,-8.10516e-05,-0.0062717,23.5824,23.1915,-0.137369,12.2341,24.1137,22.8774,-0.354558,23.8741,213,15.4046,4.39864,0,1581
-1.97818e-07,1.79442e-07,-1.53877e-06,-7.20709e-05,-6.28678e-05,-0.00628731,24.8669,25.6832,0.0727941,12.991,25.9235,24.758,-0.0585881,25.4194,213,15.1534,5.23591,0,1582
-1.98653e-07,1.41179e-07,-1.53814e-06,-7.18851e-05,-5.19017e-05,-0.00779479,24.5786,26.1033,-0.0998237,13.2235,26.234,24.561,-0.212967,25.6514,213,15.1271,5.90926,0,1583
-2.25455e-07,1.04171e-07,-1.53639e-06,-7.95654e-05,-4.16162e-05,-0.0062801,24.63,27.9927,-0.0822716,14.1526,28.1122,24.6213,-0.19307,26.7313,213,15.4469,6.69236,0,1584
-1.66903e-07,1.15665e-07,-1.53844e-06,-6.14468e-05,-4.47673e-05,-0.0093135,25.0613,25.9618,-0.11928,13.1252,26.0537,25.0468,-0.196653,25.7617,213,14.6134,6.47247,0,1585
-2.66969e-07,1.6306e-07,-1.53493e-06,-9.28968e-05,-5.85313e-05,-0.00927494,21.9333,23.9338,-0.535491,12.4458,24.1496,21.9239,-0.741942,23.8567,213,15.9869,5.4558,0,1586
-1.34278e-07,8.99909e-08,-1.53821e-06,-5.21805e-05,-3.76362e-05,-0.00630296,28.1185,29.4053,-0.12078,14.8149,29.4635,28.1058,-0.166255,28.9748,213,14.0014,7.11804,0,1587
1.74221e-07,1.0474e-07,-1.5383e-06,-6.11763e-05,-4.22712e-05,-0.00780793,25.844,27.3222,-0.113232,13.8013,27.4118,25.832,-0.190865,26.8477,213,5.38533,6.7153,0,1588
2.30452e-07,9.39625e-08,-1.53548e-06,-8.12067e-05,-3.90355e-05,-0.0077897,23.9899,27.1165,-0.0748147,13.7098,27.233,23.9853,-0.186714,25.9487,213,4.60816,6.93972,0,1589
2.07226e-07,1.38537e-07,-1.53762e-06,-7.49182e-05,-4.96609e-05,-0.00779444,24.3331,26.1367,-0.0300204,13.2106,26.2713,24.3184,-0.14993,25.5009,213,4.86278,5.95279,0,1590
1.22832e-07,1.20062e-07,-1.53921e-06,-4.81044e-05,-4.61376e-05,-0.00781506,27.1779,27.3237,-0.10703,13.8183,27.4767,27.0778,-0.159964,27.4394,213,6.30227,6.40376,0,1591
1.38023e-07,7.97231e-08,-1.53864e-06,-5.32343e-05,-3.44195e-05,-0.0078152,26.975,28.3491,-0.127291,14.2844,28.3974,26.9708,-0.171405,27.8829,213,6.04765,7.39069,0,1592
1.63992e-07,2.05103e-07,-1.53921e-06,-5.84936e-05,-7.15397e-05,-0.00780252,25.3718,24.4045,-0.10242,12.9123,25.5849,24.3288,-0.239806,25.2201,213,5.45056,4.8838,0,1593
1.32787e-07,2.52747e-07,-1.53716e-06,-5.11173e-05,-8.39008e-05,-0.00929949,24.8649,22.8246,-0.0657752,12.6433,25.0575,22.7954,-0.229147,24.2349,213,5.97922,4.31292,0,1594
1.26329e-07,1.89134e-07,-1.53883e-06,-4.83717e-05,-6.77903e-05,-0.0078044,26.5086,25.0875,-0.0896586,13.3997,26.6162,25.0733,-0.183077,26.0621,213,6.16861,5.1575,0,1595
2.02623e-07,1.74514e-07,-1.53886e-06,-7.34875e-05,-6.09116e-05,-0.00779661,24.1621,25.0559,-0.0209824,12.7031,25.252,24.0993,-0.154297,24.85,213,4.88893,5.31001,0,1596
2.12537e-07,2.32805e-07,-1.53835e-06,-7.61526e-05,-7.86373e-05,-0.0077889,23.2858,23.0631,-0.160029,12.0727,23.7704,22.7936,-0.375074,23.6722,213,4.69954,4.46543,0,1597
2.6775e-07,1.58456e-07,-1.53425e-06,-9.49906e-05,-5.71639e-05,-0.00924613,21.9979,24.0847,-0.462192,12.4768,24.2932,21.9875,-0.660351,23.8843,213,4.11177,5.53442,0,1598
1.15633e-07,1.5523e-07,-1.53934e-06,-4.61692e-05,-5.467e-05,-0.00932226,25.9253,25.3645,-0.209846,13.1512,26.0214,25.3394,-0.280873,25.968,213,6.42684,5.71818,0,1599
8.85851e-08,1.22057e-07,-1.53933e-06,-3.88744e-05,-4.72018e-05,-0.00631014,29.3853,28.652,-0.20755,14.8478,29.4496,28.6261,-0.245966,29.2925,213,7.08916,6.39357,0,1600
9.15309e-08,1.92047e-07,-1.53841e-06,-3.90786e-05,-6.83275e-05,-0.00781062,27.3957,25.2668,-0.145488,13.857,27.4847,25.2616,-0.229256,26.672,213,6.95549,5.14731,0,1601
1.99278e-07,9.57242e-09,-1.53303e-06,-7.19868e-05,-2.32025e-05,-0.00777684,25.509,29.0551,-0.0721446,14.6326,29.1245,25.5081,-0.140654,27.635,213,5.10012,9.93243,0,1602
1.41611e-07,1.11303e-08,-1.53633e-06,-5.39723e-05,-2.34893e-05,-0.00780555,27.3384,29.5506,-0.00762932,14.812,29.5835,27.3383,-0.0405088,28.5677,213,6.02918,9.88546,0,1603
1.64406e-07,-2.4105e-09,-1.53545e-06,-6.15447e-05,-2.29746e-05,-0.00629394,27.5159,30.9357,-0.0207061,15.5185,30.976,27.5159,-0.061001,29.4597,213,5.63076,10.4651,0,1604
1.39066e-07,-1.36188e-08,-1.53718e-06,-5.35213e-05,-2.28901e-05,-0.00931743,26.2022,27.9734,-0.104681,14.0732,28.0074,26.2025,-0.139013,27.2888,213,6.07515,10.9554,0,1605
1.96115e-07,-1.49109e-08,-1.53512e-06,-7.01422e-05,-2.28888e-05,-0.00629007,26.3863,30.584,-0.183672,15.4542,30.6545,26.3861,-0.25397,29.0107,213,5.1461,11.0024,0,1606
2.75026e-07,8.50816e-09,-1.53008e-06,-9.55513e-05,-2.24784e-05,-0.00775894,23.0818,28.4995,0.123434,14.3206,28.6319,23.0821,-0.0092708,26.309,213,4.18582,9.96686,0,1607
2.71219e-07,-1.58837e-08,-1.53238e-06,-9.39692e-05,-2.31969e-05,-0.00776705,23.302,28.5398,0.314673,14.2294,28.6565,23.3023,0.197671,26.1954,213,4.21928,11.038,0,1608
3.25157e-07,-3.25015e-09,-1.53167e-06,-0.000114047,-2.27436e-05,-0.00625832,20.9171,29.0137,-0.389077,14.8292,29.1416,20.9169,-0.516795,26.5205,213,3.70339,10.4928,0,1609
2.32227e-07,-2.71948e-08,-1.53521e-06,-8.2681e-05,-2.29257e-05,-0.00778715,24.4348,28.8721,0.254126,14.3966,28.9593,24.4356,0.166138,26.819,213,4.66367,11.5283,0,1610
2.39102e-07,2.19865e-08,-1.53092e-06,-8.55155e-05,-2.37552e-05,-0.00776521,24.166,28.7685,0.331982,14.3138,28.8641,24.166,0.236425,26.5917,213,4.58424,9.38718,0,1611
-3.65117e-07,-3.80665e-09,-1.54188e-06,-0.000125211,-2.23058e-05,-0.00780879,19.8226,27.452,-0.335517,14.1189,27.6772,19.8225,-0.560559,25.2441,213,16.7299,10.4843,0,1612
-4.0335e-07,-1.9856e-08,-1.55155e-06,-0.000133852,-2.16622e-05,-0.00784422,18.8728,27.2555,-0.294572,14.0901,27.5725,18.8691,-0.607828,24.9923,213,17.0419,11.2204,0,1613
-2.76032e-07,-1.89537e-08,-1.53498e-06,-9.44288e-05,-2.32839e-05,-0.00628267,23.3356,29.6564,-0.278571,15.0785,29.7676,23.3353,-0.389402,27.5107,213,15.9249,11.1547,0,1614
-3.04999e-07,1.17593e-08,-1.53373e-06,-0.000105204,-2.31299e-05,-0.00627353,22.0337,29.3167,-0.2446,14.9402,29.4764,22.0333,-0.403959,26.9413,213,16.2111,9.81287,0,1615
-4.45741e-07,1.02177e-08,-1.55421e-06,-0.000145937,-2.33973e-05,-0.00784242,17.5566,26.7957,-0.012091,13.7198,27.1113,17.5572,-0.328254,24.1257,213,17.328,9.87856,0,1616
-1.82968e-07,2.64118e-09,-1.53139e-06,-6.74293e-05,-2.26272e-05,-0.0077743,25.9599,29.2816,0.0841354,14.6548,29.3377,25.9599,0.0280946,27.7751,213,14.754,10.2459,0,1617
-1.72696e-07,2.08314e-08,-1.53195e-06,-6.42878e-05,-2.40495e-05,-0.00927656,25.3086,27.6909,0.0602781,13.8681,27.7438,25.3083,0.00766152,26.6021,213,14.6015,9.46397,0,1618
-2.35507e-07,1.62171e-08,-1.53047e-06,-8.09466e-05,-2.36599e-05,-0.00626683,25.1065,30.1997,0.0174488,15.1815,30.2906,25.1054,-0.0723256,28.131,213,15.4604,9.63674,0,1619
-2.88011e-07,3.0345e-08,-1.53357e-06,-0.000100134,-2.45574e-05,-0.00884663,22.3371,27.1513,-0.033856,13.7364,27.2954,22.3366,-0.177457,25.3597,213,16.0586,9.03098,0,1620
-2.30828e-07,-2.97135e-08,-1.53505e-06,-8.20292e-05,-2.34786e-05,-0.00929523,23.7083,27.2167,-0.170071,13.7855,27.309,23.7078,-0.261908,25.9584,213,15.4268,11.6048,0,1621
-2.08092e-07,-1.19704e-08,-1.53196e-06,-7.3946e-05,-2.36782e-05,-0.00627369,25.9869,30.451,0.0323002,15.2802,30.5219,25.9867,-0.038414,28.564,213,15.1148,10.8688,0,1622
-1.52312e-07,-7.63368e-09,-1.53398e-06,-5.76559e-05,-2.34396e-05,-0.00778843,26.9998,29.4615,-0.0335036,14.7858,29.4997,26.9999,-0.0718148,28.4042,213,14.2558,10.696,0,1623
-1.06269e-09,3.85515e-07,-1.53465e-06,-2.36005e-05,-0.000134493,-0.00626958,27.7675,17.9382,-1.46444,14.9122,28.0644,17.9369,-1.76006,26.2682,213,10.05,3.21001,0,1624
-1.47026e-08,4.65067e-07,-1.55546e-06,-2.3469e-05,-0.000153338,-0.00783037,26.2844,16.5591,-0.785586,13.8939,26.6454,16.555,-1.14243,24.3637,213,10.6651,2.6491,0,1625
-1.58105e-08,3.14963e-07,-1.53264e-06,-2.3993e-05,-0.000108673,-0.00927964,26.6482,21.5476,0.0853086,13.4598,26.8263,21.5481,-0.0932811,24.707,213,10.6651,3.78315,0,1626
1.61841e-08,3.18432e-07,-1.52422e-06,-2.76129e-05,-0.000111986,-0.00773471,27.3528,21.0475,-0.225111,13.9478,27.5115,21.0478,-0.384122,25.2911,213,9.38382,3.74415,0,1627
1.61617e-08,4.7393e-07,-1.54737e-06,-2.61943e-05,-0.000156753,-0.00929524,24.9116,17.0129,-0.950279,13.3546,25.3336,17.0161,-1.37554,23.6729,213,9.38382,2.6101,0,1628
-2.56959e-08,2.2607e-07,-1.53607e-06,-2.64994e-05,-7.77701e-05,-0.00629122,29.8692,25.3106,-0.187754,15.1214,29.9619,25.3111,-0.280859,28.2064,213,11.0681,4.73229,0,1629
-2.67315e-08,1.6774e-07,-1.53854e-06,-2.70685e-05,-5.96288e-05,-0.00630494,30.5005,27.6107,-0.00134347,15.2956,30.5451,27.6109,-0.0461268,29.2348,213,11.0943,5.58418,0,1630
-1.05105e-09,1.92978e-07,-1.53716e-06,-2.43765e-05,-6.83698e-05,-0.0103076,26.5277,24.3117,-0.0568938,13.3618,26.5972,24.3116,-0.12632,25.6572,213,10.0763,5.19595,0,1631
-4.2151e-08,2.74401e-07,-1.53642e-06,-2.71925e-05,-9.6778e-05,-0.00628289,29.1894,23.014,-0.0494012,14.7555,29.3255,23.014,-0.185501,26.9161,213,11.6832,4.17138,0,1632
2.16911e-08,1.82625e-07,-1.53662e-06,-2.6923e-05,-6.51514e-05,-0.00629488,30.459,27.0664,0.334484,15.1115,30.5083,27.0663,0.285275,28.6575,213,9.19395,5.34369,0,1633
2.18928e-08,2.45647e-07,-1.53185e-06,-2.69497e-05,-8.34798e-05,-0.00626964,29.6748,24.6417,-0.0449055,14.9571,29.7716,24.6426,-0.142676,27.7082,213,9.1677,4.4918,0,1634
4.11755e-08,3.01946e-07,-1.52996e-06,-2.70528e-05,-0.000105536,-0.006253,29.2064,22.2227,0.614316,14.4541,29.3625,22.2266,0.454348,26.0829,213,8.50153,3.89189,0,1635
-1.05932e-08,-4.58298e-07,-1.57083e-06,-2.12642e-05,-0.000114373,-0.00797262,27.418,20.5369,-1.3931,14.7244,27.7367,20.5371,-1.71208,26.5904,213,10.5661,18.1541,0,1636
-7.07753e-11,-5.33542e-07,-1.54256e-06,-1.92854e-05,-0.000102792,-0.00941993,25.9555,20.9982,-2.93995,14.8615,26.3699,20.9969,-3.35302,27.4339,213,10.0823,18.8522,0,1637
9.92797e-09,-4.41888e-07,-1.57414e-06,-2.03318e-05,-0.000112576,-0.00798423,27.8596,20.9854,-0.57511,14.5595,28.2025,20.9838,-0.916421,26.2645,213,9.57701,18.0391,0,1638
2.59056e-08,-4.13387e-07,-1.57373e-06,-2.22658e-05,-0.000112467,-0.00950213,26.2031,20.8067,-0.991367,13.925,26.5326,20.8033,-1.3175,25.4734,213,8.81947,17.7918,0,1639
1.65183e-08,-3.33505e-07,-1.55213e-06,-2.29938e-05,-0.000115328,-0.00785334,27.677,20.8312,-0.261954,14.1507,27.8585,20.8306,-0.442902,25.5238,213,9.30329,17.0938,0,1640
-1.81547e-08,-3.42311e-07,-1.55666e-06,-2.2667e-05,-0.000118441,-0.00635228,28.8547,20.4157,-0.37246,14.8084,29.0516,20.4115,-0.565163,26.3801,213,10.867,17.1976,0,1641
-2.79963e-08,-4.40201e-07,-1.57204e-06,-2.14289e-05,-0.000117276,-0.00797095,27.9301,20.8239,0.261808,14.1935,28.2903,20.8221,-0.0966018,25.4871,213,11.3723,18.0107,0,1642
1.60871e-08,-2.5177e-07,-1.53656e-06,-2.44419e-05,-8.95083e-05,-0.00628769,29.7594,23.9967,-0.0967921,15.0184,29.8513,23.9934,-0.185465,27.5785,213,9.346,16.2883,0,1643
-1.51482e-09,-2.75133e-07,-1.54192e-06,-2.23652e-05,-9.65025e-05,-0.00889985,27.244,22.5172,-0.445893,13.9863,27.3858,22.5164,-0.586816,25.8837,213,10.1035,16.5356,0,1644
-2.0108e-08,-2.5998e-07,-1.54088e-06,-2.35949e-05,-9.03992e-05,-0.00781451,28.4296,23.4767,-0.0808639,14.3657,28.5414,23.4741,-0.190085,26.5629,213,10.9097,16.3922,0,1645
3.75499e-07,-2.4913e-07,-1.5497e-06,-0.000130575,-8.48522e-05,-0.00630705,16.2655,20.313,-1.52262,11.3661,20.8218,16.1444,-1.91031,20.7918,213,2.98865,16.5444,0,1646
3.44927e-07,-1.739e-07,-1.53564e-06,-0.000120485,-5.94192e-05,-0.00777668,18.9056,23.356,-1.12119,12.5208,23.6295,18.923,-1.4121,23.0516,213,3.35259,15.5012,0,1647
2.70737e-07,-2.48533e-07,-1.53514e-06,-9.93516e-05,-8.70641e-05,-0.00774656,21.0193,21.7476,0.0539394,11.3766,22.5207,20.5326,-0.232457,21.8271,213,3.91843,16.4931,0,1648
4.01053e-07,-3.30817e-07,-1.57846e-06,-0.000139885,-0.00010674,-0.00946079,16.0683,17.8787,-2.12081,10.8882,18.8648,15.8731,-2.9117,20.4455,213,2.6496,17.4029,0,1649
2.0546e-07,-3.26995e-07,-1.55415e-06,-7.58907e-05,-0.000110126,-0.00933565,22.1164,19.9093,-0.1143,11.5149,22.6011,19.7391,-0.42871,21.7405,213,4.53204,17.2598,0,1650
1.42668e-07,-4.11547e-07,-1.57586e-06,-5.11281e-05,-0.000111299,-0.00798069,24.823,20.3619,-0.278648,13.0145,25.3467,20.2417,-0.682184,23.8891,213,5.39977,17.9226,0,1651
1.98122e-07,-4.32363e-07,-1.57035e-06,-7.47059e-05,-0.000107075,-0.0079603,21.8894,19.5022,-2.0264,12.5828,22.7281,19.0745,-2.43745,23.5523,213,4.42222,18.199,0,1652
2.55984e-07,-4.5317e-07,-1.56435e-06,-9.06803e-05,-9.46201e-05,-0.00785996,21.9008,21.6087,1.32683,11.7071,24.1415,19.9675,0.727333,21.6313,213,3.60894,18.5148,0,1653
3.50019e-07,-4.22265e-07,-1.58277e-06,-0.000126365,-9.84216e-05,-0.00689406,15.8376,18.0929,-3.36967,11.8151,19.7223,14.7463,-3.90781,21.5768,213,2.84987,18.2519,0,1654
-2.66468e-07,-2.49559e-07,-1.53442e-06,-9.56176e-05,-8.76533e-05,-0.00624954,21.0827,21.7866,-0.019114,11.5076,22.708,20.4495,-0.307269,21.9732,213,16.1423,16.5015,0,1655
-3.39064e-07,-1.74682e-07,-1.53551e-06,-0.000119309,-6.19299e-05,-0.00882246,19.3589,23.0774,-0.9509,12.2943,23.3501,19.3738,-1.23855,22.8614,213,16.7027,15.5214,0,1656
-3.74384e-07,-2.49697e-07,-1.54786e-06,-0.000129665,-8.50961e-05,-0.00629716,16.2606,20.2072,-1.80813,11.4761,20.7503,16.1112,-2.20183,21.0201,213,17.1059,16.5562,0,1657
-4.00819e-07,-3.30517e-07,-1.57651e-06,-0.00014068,-0.000110322,-0.00797176,14.7653,17.0162,-2.44982,10.6872,18.0779,14.5503,-3.29657,19.8472,213,17.4504,17.4029,0,1658
-1.97948e-07,-4.31999e-07,-1.57173e-06,-7.44491e-05,-0.000105588,-0.00641302,22.1783,19.4085,-2.18068,12.8127,23.0776,18.8764,-2.54788,23.8046,213,15.6777,18.2027,0,1659
-1.39954e-07,-4.12214e-07,-1.5786e-06,-5.09898e-05,-0.00011056,-0.010532,23.4533,20.4342,-0.876823,12.5932,23.9193,20.3584,-1.26701,23.6081,213,14.6498,17.9211,0,1660
-2.01593e-07,-3.26726e-07,-1.55216e-06,-7.53237e-05,-0.000113337,-0.00785631,22.3066,19.4883,-0.317933,11.7376,22.8345,19.2831,-0.640637,21.9163,213,15.5176,17.2547,0,1661
-2.55801e-07,-4.52616e-07,-1.56518e-06,-9.07791e-05,-9.52217e-05,-0.00786205,21.86,21.5306,1.29543,11.7023,24.0889,19.9128,0.684308,21.6212,213,16.4911,18.5148,0,1662
-3.49847e-07,-4.22399e-07,-1.58189e-06,-0.000125742,-9.81498e-05,-0.00540438,15.1315,17.865,-3.4559,11.8167,19.6153,13.9435,-4.01816,21.3697,213,17.2501,18.2519,0,1663
1.49882e-08,-1.26451e-07,-1.5361e-06,-2.59818e-05,-4.84024e-05,-0.00630201,30.9796,28.9845,-0.117203,15.5727,31.0041,28.9842,-0.141376,30.1862,213,9.44881,14.4082,0,1664
3.69114e-08,-1.13144e-07,-1.53667e-06,-2.81919e-05,-4.52255e-05,-0.0103194,26.7116,25.847,-0.0385184,13.4019,26.7389,25.846,-0.0648498,26.3687,213,8.64986,14.136,0,1665
1.272e-08,-8.91638e-08,-1.53737e-06,-2.63313e-05,-3.72863e-05,-0.00631034,31.3552,30.3757,-0.0255566,15.7055,31.3709,30.3744,-0.040022,30.9247,213,9.55397,13.541,0,1666
-4.95462e-09,-1.45299e-07,-1.53566e-06,-2.4124e-05,-5.55276e-05,-0.00930681,27.9449,26.057,0.207569,13.9051,27.9814,26.057,0.171068,26.8998,213,10.2496,14.7717,0,1667
1.7176e-08,-1.80252e-07,-1.53338e-06,-2.55298e-05,-6.59565e-05,-0.00885032,27.9764,25.4276,0.115314,13.9858,28.0321,25.4267,0.0605277,26.7641,213,9.34547,15.3667,0,1668
-4.04398e-08,-9.40399e-08,-1.53792e-06,-2.96914e-05,-3.82511e-05,-0.00631106,30.8449,30.0772,-0.180878,15.5321,30.8668,30.0717,-0.197295,30.6743,213,11.5603,13.6744,0,1669
-2.7546e-08,-1.32409e-07,-1.53673e-06,-2.71615e-05,-5.07637e-05,-0.00780655,29.2627,27.4904,-0.00675434,14.6676,29.2959,27.4898,-0.0393148,28.4751,213,11.1312,14.5367,0,1670
-2.40881e-08,-1.89019e-07,-1.53597e-06,-2.57132e-05,-6.91638e-05,-0.00778537,28.9636,25.8402,0.146459,14.4658,29.0214,25.8392,0.0897305,27.4791,213,11.0279,15.4952,0,1671
-2.07528e-08,-7.11012e-08,-1.53788e-06,-2.69782e-05,-3.36972e-05,-0.00782051,29.7488,29.2313,-0.0788315,14.9235,29.7594,29.2294,-0.0875439,29.5855,213,10.8429,13.0335,0,1672
-5.60826e-08,-6.58684e-08,-1.53835e-06,-3.19968e-05,-3.22154e-05,-0.00631413,30.7849,30.767,-0.141247,15.5041,30.8564,30.706,-0.151752,30.9332,213,12.0503,12.8948,0,1673
2.81179e-09,-6.40258e-08,-1.53779e-06,-2.577e-05,-3.25274e-05,-0.00932712,28.2263,27.8155,-0.0755942,14.1574,28.2328,27.8155,-0.082072,28.1085,213,9.94388,12.8127,0,1674
-1.0179e-08,-4.08895e-08,-1.53771e-06,-2.71204e-05,-2.68302e-05,-0.00631538,31.6032,31.6274,-0.0690373,15.8514,31.6307,31.603,-0.0721221,31.689,213,10.4338,12.0331,0,1675
2.40951e-08,-5.54031e-08,-1.53784e-06,-2.73665e-05,-3.03853e-05,-0.0078209,29.7821,29.568,-0.0851614,14.94,29.7889,29.567,-0.091015,29.7696,213,9.14492,12.5405,0,1676
3.86104e-07,2.24475e-07,-1.54609e-06,-0.000133649,-7.85684e-05,-0.00780867,17.3426,21.4264,-0.253313,11.2899,21.8698,17.3558,-0.709935,20.6953,213,2.99652,4.46327,0,1677
4.32079e-07,2.92715e-07,-1.55612e-06,-0.000145244,-9.58469e-05,-0.00784177,15.2296,18.717,-1.03464,10.5658,19.4232,15.1972,-1.70843,19.3676,213,2.58352,3.65304,0,1678
2.91259e-07,2.53041e-07,-1.5372e-06,-0.000100254,-8.65711e-05,-0.0102802,20.8399,21.4881,-0.0783672,11.1815,21.9507,20.7113,-0.412326,21.7698,213,3.78273,4.16712,0,1679
3.4687e-07,1.75604e-07,-1.53567e-06,-0.000121361,-6.06805e-05,-0.0062565,18.7896,24.1827,-0.154,12.4492,24.4587,18.7991,-0.439562,22.6062,213,3.35171,5.18779,0,1680
2.31939e-07,4.04507e-07,-1.53882e-06,-8.13467e-05,-0.000142218,-0.00625644,21.0912,15.712,0.342985,10.8742,21.5839,15.7269,-0.164579,19.4915,213,4.33204,2.8634,0,1681
1.68893e-07,3.72939e-07,-1.52952e-06,-5.88277e-05,-0.000133155,-0.00773309,23.6196,18.1425,0.143494,12.0623,23.9379,18.1544,-0.186702,21.8156,213,5.24885,3.16171,0,1682
2.36828e-07,2.95879e-07,-1.53351e-06,-8.41776e-05,-0.000106699,-0.00920918,21.8363,20.7308,0.141845,11.2216,22.2579,20.6365,-0.185399,21.6781,213,4.34435,3.74091,0,1683
3.00887e-07,4.39219e-07,-1.5497e-06,-0.000101963,-0.000146237,-0.0102941,19.3289,17.0857,-0.788234,10.8202,20.1297,17.0073,-1.51065,20.2604,213,3.53543,2.55394,0,1684
4.0143e-07,4.05437e-07,-1.54573e-06,-0.000139349,-0.00014018,-0.00778773,14.924,14.7625,-0.618576,8.9293,16.4415,14.0436,-1.41714,16.7886,213,2.72046,2.72466,0,1685
-4.32508e-07,2.93112e-07,-1.55581e-06,-0.000145531,-9.45982e-05,-0.00939327,16.3719,19.2522,-0.99354,10.7718,19.9188,16.3366,-1.62486,19.9947,213,17.5165,3.65304,0,1686
-3.84796e-07,2.24215e-07,-1.54711e-06,-0.000132969,-7.88456e-05,-0.00781489,17.3638,21.3765,-0.351911,11.3081,21.8061,17.3923,-0.810074,20.7642,213,17.0977,4.4641,0,1687
-3.48527e-07,1.78789e-07,-1.53816e-06,-0.000121273,-6.15919e-05,-0.00777147,19.115,23.5336,-0.342889,12.235,23.8208,19.1341,-0.649232,22.4959,213,16.768,5.13403,0,1688
-2.9342e-07,2.57445e-07,-1.53689e-06,-0.00010308,-8.83344e-05,-0.00927392,20.6739,21.4037,-0.0226048,11.1468,21.9249,20.4989,-0.368765,21.6159,213,16.3428,4.11253,0,1689
-2.34614e-07,2.9743e-07,-1.5322e-06,-8.38515e-05,-0.000101693,-0.00924781,21.8325,20.6728,0.1932,11.2042,22.2657,20.5755,-0.142734,21.613,213,15.7343,3.72871,0,1690
-1.66386e-07,3.74933e-07,-1.53043e-06,-6.03478e-05,-0.000133436,-0.0077349,23.6279,18.065,-0.0509086,12.1668,23.9511,18.0735,-0.382582,21.992,213,14.8172,3.15244,0,1691
-2.30489e-07,4.04103e-07,-1.53797e-06,-8.09562e-05,-0.00014217,-0.00775571,21.0236,16.4852,-0.0779336,11.0863,21.5605,16.4824,-0.61201,20.12,213,15.7554,2.86633,0,1692
-3.00854e-07,4.3879e-07,-1.54689e-06,-0.000102022,-0.000146612,-0.00782442,18.3603,15.0544,-0.920679,10.3771,19.1653,14.9176,-1.58885,18.99,213,16.5646,2.55394,0,1693
-4.02175e-07,4.04772e-07,-1.5457e-06,-0.000138791,-0.000141162,-0.00776297,14.9954,14.8196,-0.285393,8.97882,16.7069,14.0735,-1.25078,16.7965,213,17.3795,2.72466,0,1694
-2.4272e-07,-7.40577e-08,-1.53892e-06,-8.70243e-05,-3.23041e-05,-0.00779638,23.6382,27.6952,0.0700976,13.9182,27.8011,23.6377,-0.0352935,26.0059,213,15.6243,13.2486,0,1695
-2.26728e-07,-4.73776e-08,-1.53775e-06,-8.11434e-05,-2.62472e-05,-0.00780547,24.3855,28.4546,-0.0749871,14.3593,28.5495,24.3847,-0.169113,26.8793,213,15.401,12.3311,0,1696
-3.26814e-07,-5.95009e-08,-1.54201e-06,-0.000111344,-2.91311e-05,-0.00629936,21.0238,28.3273,-0.309555,14.499,28.5087,21.0222,-0.489295,26.0737,213,16.4603,12.8083,0,1697
-2.5739e-07,-9.91565e-08,-1.53776e-06,-9.19712e-05,-3.80808e-05,-0.00779167,23.0302,27.0257,0.249052,13.5202,27.1568,23.0317,0.116464,25.232,213,15.8204,13.9716,0,1698
-1.77491e-07,-8.35588e-08,-1.5394e-06,-6.43663e-05,-3.54126e-05,-0.00781018,25.9387,27.942,-0.306535,14.1962,28.0168,25.9329,-0.375595,27.41,213,14.7611,13.4944,0,1699
-4.07373e-07,-1.28046e-07,-1.54605e-06,-0.000140561,-4.77905e-05,-0.00629407,16.7957,25.003,-0.344274,12.9521,25.2726,16.8135,-0.631676,22.8793,213,17.1749,14.651,0,1700
-2.91678e-07,-1.25042e-07,-1.53535e-06,-0.000102553,-4.74113e-05,-0.00776871,21.6284,25.7166,0.126386,12.9918,25.9104,21.6341,-0.0731097,24.1312,213,16.2113,14.5962,0,1701
-4.82339e-07,-9.81278e-08,-1.55512e-06,-0.000157878,-3.7987e-05,-0.0078835,14.8674,23.7562,-3.15024,14.0837,24.3665,14.9078,-3.80097,24.8283,213,17.6335,13.9157,0,1702
-4.3625e-07,-4.18841e-08,-1.55521e-06,-0.00014504,-2.57839e-05,-0.00939849,18.1812,25.2915,-0.759317,13.3974,25.6616,18.1849,-1.13315,23.9484,213,17.302,12.1723,0,1703
-4.67705e-07,-6.82659e-08,-1.55305e-06,-0.000155227,-3.22e-05,-0.00632804,15.1775,26.0902,-1.15296,13.9301,26.3951,15.1847,-1.46507,24.2804,213,17.5253,13.0898,0,1704
3.00077e-07,-1.21423e-07,-1.53532e-06,-0.000105425,-4.63724e-05,-0.00776593,21.362,25.7402,0.123224,13.0086,25.9356,21.3715,-0.0816579,24.0621,213,3.81687,14.5166,0,1705
4.14042e-07,-1.24264e-07,-1.54719e-06,-0.00014268,-4.74089e-05,-0.00629761,16.985,25.4099,0.76048,12.6241,25.6997,17.0042,0.451472,22.2158,213,2.88709,14.5679,0,1706
4.9047e-07,-9.5328e-08,-1.55784e-06,-0.000158261,-3.57735e-05,-0.00941865,15.3777,22.6917,-4.46703,14.18,23.2789,15.4047,-5.08117,25.3571,213,2.42638,13.8279,0,1707
3.39147e-07,-5.31777e-08,-1.53896e-06,-0.000119026,-2.779e-05,-0.00776575,20.7995,27.2988,-0.0591714,13.8811,27.4991,20.8033,-0.263203,25.0936,213,3.54411,12.5737,0,1708
2.34295e-07,-4.48663e-08,-1.53669e-06,-8.34829e-05,-2.63542e-05,-0.00929684,23.5875,26.9777,-0.122819,13.655,27.082,23.5883,-0.227938,25.7415,213,4.61795,12.2512,0,1709
2.47834e-07,-7.41042e-08,-1.53755e-06,-8.89354e-05,-3.21183e-05,-0.00628537,23.8042,28.8428,-0.0620593,14.5708,28.9619,23.8027,-0.179694,26.9352,213,4.4252,13.2609,0,1710
2.7604e-07,-9.64481e-08,-1.5371e-06,-9.71302e-05,-3.7542e-05,-0.00778812,22.4683,26.8862,0.129253,13.5279,27.0355,22.4685,-0.0202349,25.086,213,4.09011,13.9077,0,1711
4.74822e-07,-6.61684e-08,-1.55281e-06,-0.000157771,-3.19388e-05,-0.00633303,14.9633,26.1195,-0.909307,13.8425,26.4471,14.9644,-1.23798,24.0918,213,2.54211,13.0186,0,1712
4.49789e-07,-3.8314e-08,-1.55004e-06,-0.000150808,-2.48644e-05,-0.00631421,16.0927,27.2659,-0.875383,14.3918,27.5871,16.0925,-1.19642,25.0951,213,2.73486,12.0089,0,1713
-3.18332e-07,9.51251e-08,-1.53927e-06,-0.000111081,-3.80911e-05,-0.00779058,21.0756,26.4144,-0.00431035,13.4157,26.6234,21.0703,-0.207991,24.5309,213,16.4195,6.84256,0,1714
-3.50001e-07,1.40384e-07,-1.53674e-06,-0.000122126,-5.1947e-05,-0.00776616,19.4784,24.6882,0.0555386,12.5751,24.9422,19.4878,-0.207861,22.915,213,16.7418,5.80737,0,1715
-4.13595e-07,1.05844e-07,-1.55036e-06,-0.000137164,-4.23437e-05,-0.0078459,17.6379,24.668,-1.23662,13.3137,25.0182,17.6603,-1.60918,23.8166,213,17.2006,6.52079,0,1716
-4.96513e-07,7.65483e-08,-1.5703e-06,-0.000160541,-3.31767e-05,-0.00791671,15.4598,24.9618,-1.28143,13.5881,25.423,15.4703,-1.75312,23.8143,213,17.7393,7.29048,0,1717
-4.86365e-07,5.2515e-08,-1.5694e-06,-0.000154721,-2.6588e-05,-0.00949756,15.8536,23.5043,-4.50129,14.5217,24.0262,15.8475,-5.0171,25.9397,213,17.6391,8.10604,0,1718
-4.86394e-07,3.28718e-08,-1.56582e-06,-0.000156491,-2.33631e-05,-0.00947466,16.0065,23.9397,-3.95176,14.4267,24.4218,16.0042,-4.43157,25.7001,213,17.6046,8.9316,0,1719
-3.74595e-07,4.64318e-08,-1.54719e-06,-0.000127291,-2.67333e-05,-0.00631286,19.4404,28.3476,0.408055,14.1706,28.5496,19.4382,0.208274,25.0603,213,16.8437,8.38154,0,1720
-2.68412e-07,7.65968e-08,-1.53628e-06,-9.48747e-05,-3.3167e-05,-0.00779421,22.7016,27.3288,-0.193195,13.9037,27.4721,22.7004,-0.33536,25.7553,213,15.9058,7.40578,0,1721
-2.89454e-07,5.2094e-08,-1.53623e-06,-0.000100268,-2.82229e-05,-0.00778401,22.3415,27.683,-0.0677743,14.032,27.8397,22.3414,-0.224331,25.7588,213,16.0931,8.20541,0,1722
-2.05878e-07,5.76685e-08,-1.53422e-06,-7.38572e-05,-2.97678e-05,-0.00777051,25.2501,28.3919,0.0542078,14.2484,28.4738,25.2455,-0.0231088,27.0277,213,15.1206,8.05521,0,1723
4.21466e-07,1.06531e-07,-1.54785e-06,-0.000140434,-4.23269e-05,-0.00783183,17.3028,24.5766,-1.24767,13.2804,24.9351,17.3223,-1.62574,23.6903,213,2.85316,6.51416,0,1724
3.54797e-07,1.39184e-07,-1.5346e-06,-0.000123877,-5.13048e-05,-0.00625304,18.9256,25.3681,0.15797,12.86,25.6198,18.932,-0.100188,23.1135,213,3.32556,5.83057,0,1725
3.26838e-07,9.42233e-08,-1.5366e-06,-0.000112951,-3.79985e-05,-0.00884862,20.8649,25.6668,0.0347024,13.0397,25.8915,20.8629,-0.187999,23.9642,213,3.61321,6.86079,0,1726
5.07923e-07,7.65791e-08,-1.56834e-06,-0.000163387,-3.36137e-05,-0.00790697,15.0794,24.7645,-1.47697,13.6027,25.2434,15.0856,-1.96198,23.811,213,2.30876,7.29019,0,1727
2.75379e-07,6.92283e-08,-1.5342e-06,-9.79789e-05,-3.0516e-05,-0.00627392,22.7783,28.7561,0.0202236,14.5095,28.8976,22.7784,-0.121406,26.4948,213,4.13576,7.6233,0,1728
2.53667e-07,4.25881e-08,-1.53175e-06,-8.93289e-05,-2.67469e-05,-0.00627103,23.9854,29.5346,0.0232926,14.867,29.6472,23.9828,-0.0867227,27.3453,213,4.40032,8.56192,0,1729
3.5756e-07,4.3802e-08,-1.53786e-06,-0.000121579,-2.69712e-05,-0.00777219,20.2011,27.3658,0.527144,13.5945,27.542,20.1991,0.352962,24.3622,213,3.40537,8.48299,0,1730
4.9824e-07,5.1443e-08,-1.56678e-06,-0.000157497,-2.71865e-05,-0.00948355,15.5046,23.2968,-4.73597,14.5738,23.8573,15.4984,-5.29024,25.9963,213,2.409,8.13444,0,1731
4.6294e-07,2.85996e-08,-1.55702e-06,-0.000151298,-2.30792e-05,-0.00942005,16.9458,24.5901,-2.76401,14.1036,25.017,16.9451,-3.19021,25.1618,213,2.67356,9.07306,0,1732
7.86246e-08,-6.3537e-08,-1.53849e-06,-3.70896e-05,-3.18967e-05,-0.00782012,28.8216,29.1439,-0.0944657,14.6461,29.1783,28.8067,-0.113978,29.1083,213,7.39844,12.8371,0,1733
1.17729e-07,-5.23321e-08,-1.53873e-06,-4.77584e-05,-2.86416e-05,-0.00781843,27.7275,29.1368,-0.0800035,14.6351,29.1637,27.727,-0.106403,28.5789,213,6.47703,12.4845,0,1734
1.68196e-07,-4.42373e-08,-1.53804e-06,-6.18939e-05,-2.71716e-05,-0.00780924,26.5248,28.9706,-0.00985185,14.5378,29.0177,26.5256,-0.0578218,27.9131,213,5.54476,12.2155,0,1735
1.16357e-07,-3.27729e-08,-1.53837e-06,-4.74246e-05,-2.49024e-05,-0.00781769,27.8679,29.5378,-0.101873,14.8437,29.5614,27.8684,-0.125995,28.8781,213,6.52276,11.7616,0,1736
6.39954e-08,-1.90191e-08,-1.53817e-06,-3.30946e-05,-2.44609e-05,-0.00933037,27.7604,28.2922,-0.0932781,14.2001,28.2994,27.7607,-0.100785,28.1347,213,7.84641,11.1881,0,1737
4.30943e-08,-3.7858e-08,-1.53796e-06,-3.07157e-05,-2.64709e-05,-0.00782329,29.5535,29.8909,-0.108719,15.0059,29.8976,29.5524,-0.114238,29.8407,213,8.49493,11.9214,0,1738
5.47142e-08,-5.81647e-08,-1.53816e-06,-3.1996e-05,-3.06586e-05,-0.00782056,29.2949,29.4059,-0.0987639,14.775,29.4405,29.2709,-0.109409,29.4655,213,8.10502,12.6497,0,1739
9.54011e-08,-1.97716e-08,-1.53833e-06,-4.14439e-05,-2.41683e-05,-0.00889779,27.5279,28.6056,-0.104369,14.3718,28.6224,27.5279,-0.1212,28.2123,213,7.00742,11.2244,0,1740
8.01796e-08,-1.61186e-10,-1.53806e-06,-3.82418e-05,-2.28635e-05,-0.00631462,30.3575,31.7165,-0.0939921,15.9151,31.7264,30.3575,-0.103872,31.1684,213,7.39881,10.3819,0,1741
5.56173e-08,-8.51712e-08,-1.53787e-06,-3.18664e-05,-3.61642e-05,-0.00631067,30.6604,30.2731,-0.153252,15.4326,30.6959,30.2536,-0.169325,30.6465,213,8.04844,13.4562,0,1742
-1.00065e-07,-3.83338e-07,-1.57119e-06,-4.11103e-05,-0.000120083,-0.0064256,26.303,19.2896,-0.796215,13.9201,26.6826,19.2715,-1.15763,24.9735,213,13.7434,17.629,0,1743
-9.79158e-08,-4.90126e-07,-1.56353e-06,-3.8486e-05,-0.000108034,-0.00640674,25.6288,19.4859,-4.48876,15.4637,26.1165,19.3203,-4.81083,28.1514,213,13.9034,18.577,0,1744
-7.08064e-08,-5.37823e-07,-1.53721e-06,-2.73053e-05,-8.43229e-05,-0.007801,27.421,23.1899,-2.07585,15.0846,27.8182,23.0679,-2.351,28.0968,213,13.2133,18.9855,0,1745
-4.13209e-08,-5.10835e-07,-1.55559e-06,-2.49859e-05,-0.000107244,-0.00794069,26.341,20.2787,-3.74976,15.4793,26.783,20.2625,-4.1756,28.2681,213,12.0342,18.6261,0,1746
-5.28134e-08,-3.95077e-07,-1.56758e-06,-2.8654e-05,-0.000122968,-0.00638046,28.1655,19.807,0.239992,14.2616,28.475,19.7857,-0.0481822,25.3225,213,12.3351,17.6695,0,1747
-5.43219e-08,-5.47329e-07,-1.5307e-06,-2.66133e-05,-8.36662e-05,-0.00926908,26.589,23.1895,-1.00704,14.1028,26.9153,23.1463,-1.29017,26.5226,213,12.6237,19.0563,0,1748
-7.51754e-08,-3.5841e-07,-1.56079e-06,-3.22215e-05,-0.000112432,-0.0094217,24.9732,20.2032,-2.05191,13.8132,25.2784,20.1942,-2.3481,25.4679,213,13.017,17.395,0,1749
-5.70438e-08,-2.93908e-07,-1.54623e-06,-2.99079e-05,-0.000101992,-0.00632188,28.8369,22.4469,0.431659,14.3378,28.9704,22.4502,0.294812,26.0352,213,12.3551,16.7797,0,1750
5.24413e-08,-3.78541e-07,-1.56995e-06,-2.88553e-05,-0.000117969,-0.00794894,27.0106,20.3174,-0.0426001,13.8163,27.312,20.294,-0.320563,24.8774,213,7.82349,17.5346,0,1751
4.09446e-08,-4.90905e-07,-1.56243e-06,-2.50079e-05,-0.000115421,-0.00640645,26.43,18.4248,-6.05774,16.5926,26.7806,18.4211,-6.40461,29.8953,213,8.0972,18.4799,0,1752
2.62156e-08,-5.73227e-07,-1.51204e-06,-1.89995e-05,-8.20434e-05,-0.010148,26.7603,23.6387,0.111075,13.7704,27.2095,23.6319,-0.331348,25.9378,213,8.57317,19.3255,0,1753
5.08324e-08,-5.50615e-07,-1.52996e-06,-2.57023e-05,-8.74145e-05,-0.00775481,28.1331,23.5577,-0.58066,14.6076,28.416,23.4934,-0.799254,27.0915,213,7.57719,19.0683,0,1754
9.79809e-08,-4.87008e-07,-1.562e-06,-3.90853e-05,-0.000109802,-0.00797243,24.6664,19.4082,-3.98202,14.7684,25.1744,19.2806,-4.36241,27.0754,213,6.19558,18.5422,0,1755
1.02345e-07,-3.78844e-07,-1.56916e-06,-4.21805e-05,-0.000119111,-0.00792376,25.4269,19.6616,-0.596379,13.3649,25.7879,19.646,-0.941805,24.2493,213,6.3054,17.6031,0,1756
7.01137e-08,-5.36625e-07,-1.53722e-06,-2.81624e-05,-8.69125e-05,-0.00778963,27.2048,22.8036,-2.53484,15.1432,27.5351,22.6897,-2.75129,28.1779,213,6.88508,18.9693,0,1757
7.54763e-08,-3.48481e-07,-1.5606e-06,-3.1327e-05,-0.000110744,-0.00793217,26.0529,20.1649,-2.48561,14.5476,26.3401,20.1473,-2.75519,26.5463,213,7.09706,17.3127,0,1758
5.64145e-08,-2.79438e-07,-1.54193e-06,-2.97197e-05,-9.69724e-05,-0.00529489,29.864,23.277,0.391015,14.8616,29.9917,23.2719,0.268399,26.9981,213,7.81933,16.6246,0,1759
-1.16577e-07,4.45266e-07,-1.54536e-06,-4.61393e-05,-0.000149154,-0.00778016,24.2548,16.5277,-0.412545,12.7768,24.6866,16.5503,-0.866965,22.6114,213,13.8879,2.69778,0,1760
-1.16886e-07,3.29302e-07,-1.5334e-06,-4.65351e-05,-0.000115222,-0.00776603,25.3341,20.2416,-0.144677,12.9648,25.5621,20.2364,-0.36748,23.7195,213,13.8667,3.56016,0,1761
-8.80725e-08,5.17171e-07,-1.56156e-06,-3.69923e-05,-0.00016364,-0.00791478,24.4497,15.0599,-1.15229,13.3128,24.9511,15.0807,-1.67452,23.314,213,13.1779,2.2562,0,1762
-6.62865e-08,2.78229e-07,-1.53766e-06,-3.13994e-05,-9.79686e-05,-0.00779846,27.3842,22.4487,-0.147981,13.9202,27.5375,22.4504,-0.302961,25.6777,213,12.5118,4.11301,0,1763
-5.27162e-08,3.86625e-07,-1.54146e-06,-2.95627e-05,-0.000127444,-0.00930011,25.5658,19.5526,-0.178476,13.1462,25.8395,19.5534,-0.452981,23.7809,213,12.1088,3.16387,0,1764
-8.91296e-08,3.08501e-07,-1.53652e-06,-3.86501e-05,-0.000106761,-0.00885804,25.7927,21.3881,0.0520356,13.0565,25.9809,21.384,-0.132074,24.145,213,13.1869,3.79004,0,1765
-3.71647e-08,4.96393e-07,-1.56028e-06,-2.60988e-05,-0.000161316,-0.00636373,26.6401,14.6508,-1.06516,14.3581,27.1467,14.6484,-1.56941,24.9383,213,11.5936,2.43061,0,1766
-6.09806e-08,5.02357e-07,-1.55807e-06,-3.15862e-05,-0.000162429,-0.00940503,24.3209,16.5253,-0.819476,13.0599,24.8079,16.5308,-1.31198,23.1206,213,12.4222,2.37224,0,1767
1.21258e-07,3.29096e-07,-1.53354e-06,-4.87489e-05,-0.000113632,-0.00926357,24.3911,20.4679,-0.0879698,12.4764,24.6299,20.464,-0.322846,23.1526,213,6.13649,3.55474,0,1768
1.20388e-07,4.47283e-07,-1.54587e-06,-4.79535e-05,-0.000152202,-0.00629036,24.2386,15.026,-1.24313,13.1034,24.5903,15.0476,-1.61647,22.9734,213,6.12418,2.67723,0,1769
9.02037e-08,5.21954e-07,-1.56627e-06,-3.85605e-05,-0.000162842,-0.00639823,24.741,13.7157,-1.85161,13.9315,25.3619,13.7442,-2.50106,24.2407,213,6.82894,2.22972,0,1770
9.14277e-08,3.04135e-07,-1.53802e-06,-3.7397e-05,-0.000105953,-0.0077899,26.5948,21.5537,0.126156,13.4159,26.7799,21.5465,-0.0517991,24.6355,213,6.85454,3.82844,0,1771
6.33099e-08,5.09189e-07,-1.56923e-06,-2.98564e-05,-0.000159056,-0.00795597,24.8876,15.2996,-2.07202,13.9163,25.3259,15.2959,-2.50665,24.415,213,7.60141,2.33083,0,1772
3.98822e-08,5.10332e-07,-1.57137e-06,-2.59684e-05,-0.000160774,-0.00641662,25.9369,13.9711,-2.92304,14.9011,26.411,13.9652,-3.39123,25.926,213,8.45432,2.36782,0,1773
5.72343e-08,3.94762e-07,-1.54465e-06,-2.79836e-05,-0.000135282,-0.00930285,25.4731,18.8957,-0.274047,13.1682,25.7678,18.8955,-0.568512,23.6609,213,7.86473,3.10725,0,1774
6.47087e-08,3.03911e-07,-1.53724e-06,-3.00475e-05,-0.000106075,-0.00779819,27.213,21.5762,-0.341072,13.9696,27.4064,21.5744,-0.532727,25.5278,213,7.64861,3.8549,0,1775
7.09822e-08,2.33368e-07,-1.53775e-06,-3.41119e-05,-7.99909e-05,-0.00628796,29.068,24.9962,0.357274,14.4647,29.1801,24.9906,0.250775,27.0787,213,7.49134,4.61308,0,1776
-1.77456e-08,1.14627e-07,-1.53841e-06,-2.62384e-05,-4.51282e-05,-0.00932854,27.8692,26.7706,-0.124407,14.0206,27.893,26.7704,-0.148082,27.497,213,10.7338,6.61193,0,1777
-4.4919e-08,1.3593e-07,-1.53892e-06,-2.90474e-05,-5.17123e-05,-0.00630841,30.4894,28.4822,-0.0954434,15.3262,30.524,28.4806,-0.128439,29.6835,213,11.7256,6.14827,0,1778
-6.11129e-08,9.39988e-08,-1.53862e-06,-3.35242e-05,-3.90212e-05,-0.00932991,27.4192,27.163,-0.136514,13.806,27.4538,27.1501,-0.158228,27.4614,213,12.2173,7.07826,0,1779
-1.21045e-08,7.93306e-08,-1.53797e-06,-2.68473e-05,-3.50843e-05,-0.00631304,31.3396,30.607,-0.0999719,15.7293,31.3491,30.6071,-0.109571,31.0943,213,10.5126,7.49448,0,1780
4.36845e-09,1.01032e-07,-1.53794e-06,-2.58008e-05,-4.17242e-05,-0.00781894,29.6165,28.4387,-0.100862,14.8769,29.6349,28.4385,-0.118998,29.1741,213,9.88126,6.93039,0,1781
-2.9366e-08,6.64844e-08,-1.53797e-06,-2.7782e-05,-3.25895e-05,-0.00631387,31.3058,30.8832,-0.100777,15.7121,31.3153,30.8818,-0.108868,31.2097,213,11.1442,7.87366,0,1782
-7.64954e-08,7.57233e-08,-1.53842e-06,-3.57611e-05,-3.47778e-05,-0.00674343,29.7968,29.8914,-0.117495,15.0493,29.9631,29.7433,-0.135618,29.9894,213,12.6442,7.56783,0,1783
-4.82415e-08,7.31088e-08,-1.53828e-06,-3.05614e-05,-3.40975e-05,-0.00782079,29.3419,29.0798,-0.0976787,14.7401,29.3692,29.0657,-0.110931,29.3296,213,11.792,7.66559,0,1784
-4.20349e-08,5.12355e-08,-1.53782e-06,-3.02425e-05,-2.8993e-05,-0.00889686,28.3713,28.4552,-0.114754,14.2964,28.4708,28.3629,-0.122021,28.5391,213,11.5711,8.36323,0,1785
1.36731e-07,5.20791e-08,-1.53807e-06,-5.30038e-05,-2.8242e-05,-0.00781418,27.219,29.0549,-0.0421597,14.5835,29.0893,27.2201,-0.0777145,28.2788,213,6.10164,8.27244,0,1786
9.36212e-08,6.22455e-08,-1.53874e-06,-3.96256e-05,-3.16279e-05,-0.00631313,29.8758,30.5893,-0.101432,15.3696,30.6177,29.8675,-0.121526,30.3711,213,7.01859,7.96089,0,1787
1.27996e-07,3.02263e-08,-1.5373e-06,-5.04342e-05,-2.48107e-05,-0.00781116,27.5866,29.4751,-0.0458717,14.7901,29.5046,27.5868,-0.0755464,28.6694,213,6.28556,9.09769,0,1788
1.82748e-07,4.45677e-08,-1.53508e-06,-6.30855e-05,-2.73422e-05,-0.00930264,25.1506,27.356,-0.0398956,13.759,27.4165,25.1517,-0.101444,26.4583,213,5.31462,8.52749,0,1789
7.07994e-08,1.8597e-08,-1.53796e-06,-3.52338e-05,-2.43559e-05,-0.0078215,29.1505,29.957,-0.0781946,15.0263,29.9655,29.1509,-0.0870337,29.6536,213,7.65519,9.59411,0,1790
1.03646e-07,1.74969e-08,-1.53778e-06,-4.23964e-05,-2.41828e-05,-0.00932576,26.9809,28.0939,-0.0975317,14.115,28.1135,26.9804,-0.116629,27.681,213,6.8162,9.63041,0,1791
6.40236e-08,3.63161e-08,-1.53802e-06,-3.41463e-05,-2.55823e-05,-0.00932908,27.6717,28.1762,-0.0830679,14.1394,28.186,27.6716,-0.092749,28.0251,213,7.84657,8.89048,0,1792
7.25037e-08,8.07729e-08,-1.53857e-06,-3.54265e-05,-3.48912e-05,-0.00932928,27.3243,27.3384,-0.119042,13.7764,27.4128,27.2708,-0.139959,27.482,213,7.57225,7.42459,0,1793
7.12994e-08,5.2257e-08,-1.5384e-06,-3.51426e-05,-2.93832e-05,-0.00782181,28.9881,29.4221,-0.113231,14.783,29.4395,28.9839,-0.126493,29.3409,213,7.62624,8.30633,0,1794
4.59305e-08,5.13864e-08,-1.53807e-06,-3.02894e-05,-2.92658e-05,-0.00631527,31.1132,31.2059,-0.0999095,15.6665,31.2258,31.1007,-0.107314,31.2708,213,8.40023,8.35418,0,1795
-1.20003e-07,-4.20413e-08,-1.53783e-06,-4.83886e-05,-2.6913e-05,-0.00630614,29.0154,30.9171,0.0242841,15.47,30.941,29.0149,0.000952051,30.0233,213,13.6691,12.1061,0,1796
-1.18183e-07,-7.31608e-08,-1.53909e-06,-4.82645e-05,-3.31858e-05,-0.00781913,27.5407,28.6612,-0.125937,14.4301,28.7006,27.5351,-0.159703,28.2955,213,13.6664,13.1535,0,1797
-8.15582e-08,-5.31337e-08,-1.53828e-06,-3.76506e-05,-2.98993e-05,-0.00932567,27.3608,27.7592,-0.112072,13.9544,27.7805,27.3556,-0.128205,27.6987,213,12.7704,12.4882,0,1798
-1.22119e-07,-2.35677e-08,-1.53665e-06,-4.91632e-05,-2.41422e-05,-0.0078068,27.7775,29.6428,0.0513516,14.8217,29.6684,27.7782,0.0250057,28.745,213,13.6949,11.3799,0,1799
-1.70887e-07,-4.03275e-08,-1.53678e-06,-6.23169e-05,-2.60709e-05,-0.00929856,25.5284,27.5703,-0.0099031,13.8454,27.6251,25.5293,-0.0656072,26.7046,213,14.5908,12.0452,0,1800
-6.9586e-08,-2.9822e-09,-1.53747e-06,-3.47376e-05,-2.37541e-05,-0.00631294,30.7575,31.7351,-0.0945712,15.9221,31.7423,30.7575,-0.101806,31.3633,213,12.4063,10.5081,0,1801
-9.05063e-08,1.31179e-08,-1.53702e-06,-4.07234e-05,-2.33541e-05,-0.00781366,28.6239,29.9075,-0.0726198,15.0047,29.9222,28.6237,-0.087128,29.3816,213,12.9673,9.82422,0,1802
-1.05978e-07,-8.74073e-09,-1.53664e-06,-4.44576e-05,-2.33487e-05,-0.00931599,26.935,28.1597,-0.0588573,14.128,28.1784,26.9349,-0.077515,27.6552,213,13.3341,10.7569,0,1803
-5.52533e-08,-1.70797e-08,-1.53765e-06,-3.2709e-05,-2.38338e-05,-0.00932726,27.8435,28.3856,-0.076666,14.2369,28.3914,27.8436,-0.0825299,28.204,213,11.9867,11.1083,0,1804
-5.70703e-08,-3.56039e-08,-1.53796e-06,-3.29237e-05,-2.6451e-05,-0.00782158,29.3272,29.8262,-0.0893058,14.9661,29.8352,29.3259,-0.0969556,29.6808,213,12.053,11.8473,0,1805
-3.33505e-08,-2.72371e-08,-1.53759e-06,-2.80148e-05,-2.55642e-05,-0.00631484,31.5392,31.7595,-0.0547956,15.9107,31.7639,31.5375,-0.0575101,31.7088,213,11.2666,11.5148,0,1806
-1.27404e-07,2.59355e-08,-1.53514e-06,-4.97258e-05,-2.50898e-05,-0.00779832,27.7702,29.5241,-0.0080999,14.7931,29.5514,27.7697,-0.0348348,28.7368,213,13.796,9.27283,0,1807
-8.61985e-08,3.2703e-08,-1.53727e-06,-3.95702e-05,-2.54926e-05,-0.00932206,27.2467,28.0798,-0.060668,14.0856,28.0948,27.2474,-0.0763245,27.7571,213,12.8682,9.02396,0,1808
-5.97908e-08,3.70794e-08,-1.53753e-06,-3.21166e-05,-2.65791e-05,-0.00781995,29.3992,29.8098,-0.101919,14.9651,29.8201,29.3971,-0.110057,29.7209,213,12.1292,8.86525,0,1809
-8.90661e-08,5.1707e-08,-1.53786e-06,-3.99388e-05,-2.83089e-05,-0.0078178,28.5402,29.3884,-0.0976821,14.7615,29.4075,28.5389,-0.11545,29.0984,213,12.9579,8.31386,0,1810
-1.65425e-07,4.12807e-08,-1.53355e-06,-6.18329e-05,-2.68352e-05,-0.00778804,26.4009,29.0175,0.0643212,14.5273,29.0688,26.3998,0.0141313,27.8164,213,14.5024,8.66371,0,1811
-1.52881e-07,6.42534e-08,-1.53682e-06,-5.71984e-05,-3.07181e-05,-0.00780302,26.6901,28.6533,-0.116179,14.4318,28.7007,26.6895,-0.162957,27.9124,213,14.315,7.86407,0,1812
-1.06048e-07,6.93208e-08,-1.53803e-06,-4.36814e-05,-3.28793e-05,-0.0103271,25.8704,26.3877,-0.0729018,13.2615,26.4201,25.868,-0.102852,26.2512,213,13.3832,7.72654,0,1813
2.03257e-08,1.33358e-07,-1.53774e-06,-2.69978e-05,-4.93882e-05,-0.00889259,28.1723,26.7563,-0.0588503,14.1487,28.2058,26.7556,-0.091574,27.6008,213,9.26624,6.21234,0,1814
2.67045e-08,9.40118e-08,-1.53807e-06,-2.74604e-05,-3.95314e-05,-0.0078192,29.4996,28.6047,-0.11043,14.8207,29.5154,28.6044,-0.125948,29.1965,213,9.04499,7.09489,0,1815
3.04804e-08,6.90293e-08,-1.53803e-06,-2.84233e-05,-3.22497e-05,-0.00782192,29.5998,29.2947,-0.117836,14.8694,29.6114,29.2927,-0.127378,29.5807,213,8.91996,7.79149,0,1816
4.79989e-08,9.44607e-08,-1.53849e-06,-3.00412e-05,-3.94545e-05,-0.00782097,29.1975,28.5145,-0.161169,14.6983,29.2179,28.5116,-0.178638,29.0498,213,8.30494,7.07344,0,1817
4.50704e-08,1.71805e-07,-1.53731e-06,-2.83715e-05,-6.25011e-05,-0.00780324,28.7566,26.2262,-0.0760649,14.4665,28.8058,26.2282,-0.127209,27.7342,213,8.35769,5.50819,0,1818
6.19326e-08,1.40723e-07,-1.53884e-06,-3.28707e-05,-5.24314e-05,-0.00889496,27.5492,26.3197,-0.135186,13.8855,27.5934,26.3181,-0.177708,27.1559,213,7.82185,6.04242,0,1819
6.31854e-08,1.92398e-07,-1.5379e-06,-3.24202e-05,-6.7945e-05,-0.00629789,29.4615,26.3084,-0.234749,14.9161,29.5302,26.3069,-0.30194,28.3582,213,7.74957,5.17377,0,1820
6.71334e-08,1.07857e-07,-1.53897e-06,-3.42168e-05,-4.21637e-05,-0.00932795,27.2564,26.7513,-0.130768,13.7266,27.2941,26.7418,-0.159012,27.1812,213,7.69729,6.728,0,1821
4.53406e-07,-1.59933e-08,-1.55093e-06,-0.000149388,-2.25998e-05,-0.0104023,17.8035,24.1332,-2.2626,13.6613,24.5966,17.8034,-2.72594,24.6386,213,2.73299,11.0715,0,1822
4.59313e-07,7.68247e-09,-1.55353e-06,-0.000150825,-2.18172e-05,-0.00634689,14.9694,26.4069,-4.01171,15.6838,26.8812,14.9697,-4.48635,27.4258,213,2.69953,10.0003,0,1823
3.72904e-08,-2.19727e-07,-1.53409e-06,-2.74537e-05,-7.92573e-05,-0.00928704,26.9858,23.8737,-0.178498,13.6766,27.0814,23.8714,-0.271823,25.8979,213,8.54523,15.9249,0,1824
9.91293e-09,-5.82346e-07,-1.50385e-06,-1.71875e-05,-8.41598e-05,-0.00765785,28.0122,23.093,-3.6987,15.8928,28.0518,23.0884,-3.7337,29.6174,213,9.50118,19.3579,0,1825
-4.27906e-08,-2.37714e-07,-1.53924e-06,-2.69294e-05,-8.36638e-05,-0.0063008,29.4875,24.4568,-0.502757,15.0982,29.5934,24.4512,-0.603068,27.982,213,11.7914,16.1572,0,1826
0,0,0,1.08729e-07,5.23886e-07,-0.0153929,21.5609,21.5615,-0.103355,10.8327,21.5615,21.5614,-0.103844,21.6653,213,10.0134,9.7416,-0.1,1827
0,0,0,5.66812e-07,1.30675e-06,-0.0153889,21.5702,21.5712,-0.0891494,10.9173,21.6582,21.5704,-0.176307,21.7907,213,13.7296,15.2355,-0.1,1828
0,0,0,7.85649e-07,1.12777e-06,-0.0154013,21.5502,21.5507,-0.126764,10.9187,21.6309,21.5498,-0.206548,21.797,213,6.18269,14.9568,-0.1,1829
0,0,0,1.51412e-10,1.5745e-10,-0.0154355,21.4898,21.4898,-0.234334,10.9653,21.5931,21.4898,-0.337596,21.8792,213,14.2936,5.68936,-0.1,1830
0,0,0,1.47145e-06,2.45047e-06,-0.0154494,21.4754,21.4768,-0.270293,10.9765,21.5793,21.4762,-0.373669,21.9016,213,5.63995,5.72837,-0.1,1831
0,0,0,-1.5123e-06,5.34141e-08,-0.0153607,21.6081,21.6103,-0.00853413,10.9249,21.7258,21.6081,-0.123967,21.7911,213,4.7017,10.5121,-0.1,1832
0,0,0,2.43253e-06,6.77926e-08,-0.0153148,21.6955,21.6922,0.137858,10.9094,21.8244,21.6955,0.00565154,21.7546,213,15.6129,10.4186,-0.1,1833
0,0,0,1.61809e-07,5.13463e-06,-0.0152735,21.7647,21.7717,0.268347,10.8864,21.9029,21.7717,0.130169,21.7074,213,10.05,4.34406,-0.1,1834
0,0,0,-1.56893e-07,-1.7506e-06,-0.0157912,20.9025,20.9002,-1.32189,11.4025,21.1928,20.9002,-1.61223,22.6602,213,10.0608,17.341,-0.1,1835
0,0,0,-3.57709e-06,-1.40191e-06,-0.0159869,20.5712,20.5743,-1.92378,11.7016,21.0254,20.5742,-2.3779,23.181,213,3.55449,17.5362,-0.1,1836
0,0,0,4.48904e-07,-4.44473e-06,-0.0157955,20.8928,20.8859,-1.33857,11.5548,21.3298,20.89,-1.7797,22.8928,213,16.5455,17.5362,-0.1,1837
0,0,0,2.6372e-07,8.66533e-07,-0.0154004,21.5497,21.5506,-0.125248,10.8587,21.5709,21.5506,-0.146437,21.7072,213,10.3529,13.8132,-0.1,1838
0,0,0,-5.7696e-08,4.06014e-06,-0.0152883,21.7379,21.7437,0.221108,11.2005,22.1815,21.7409,-0.219632,22.1841,213,16.6725,3.4426,-0.1,1839
0,0,0,3.0735e-10,3.14058e-10,-0.0154481,21.4691,21.4691,-0.272668,11.3362,21.9345,21.4691,-0.738032,22.4434,213,3.42753,3.4426,-0.1,1840
0,0,0,-1.6008e-07,1.0818e-06,-0.0154221,21.5131,21.5148,-0.191864,11.1282,21.7894,21.5136,-0.466979,22.1198,213,16.6836,13.7257,-0.1,1841
0,0,0,-2.66912e-06,2.00183e-06,-0.0154234,21.5048,21.5113,-0.198531,11.1466,21.8026,21.5055,-0.490591,22.1462,213,3.35136,13.5834,-0.1,1842
0,0,0,1.48761e-06,-7.00208e-07,-0.0154898,21.4041,21.401,-0.398394,11.2477,21.7489,21.4043,-0.746454,22.325,213,3.14081,7.54437,-0.1,1843
0,0,0,-2.20044e-06,-5.08766e-07,-0.0155173,21.348,21.3504,-0.487961,11.2348,21.6659,21.3482,-0.80367,22.3124,213,16.8783,7.55598,-0.1,1844
0,0,0,1.03255e-10,7.38126e-11,-0.0154094,21.5327,21.5327,-0.154625,10.8611,21.5501,21.5327,-0.172074,21.7135,213,7.45502,12.0306,-0.1,1845
0,0,0,1.64022e-06,-3.38558e-06,-0.0158435,20.8194,20.8123,-1.48115,11.6303,21.2991,20.813,-1.96155,23.0215,213,12.997,18.2849,-0.1,1846
0,0,0,-1.60203e-06,-4.4156e-06,-0.0158122,20.8591,20.8552,-1.39284,11.6029,21.3358,20.8556,-1.86994,22.9694,213,7.10122,18.2227,-0.1,1847
0,0,0,9.88064e-07,4.05867e-06,-0.0154247,21.5171,21.5215,-0.193149,11.2041,21.866,21.5216,-0.54218,22.238,213,12.9374,3.10549,-0.1,1848
0,0,0,1.51622e-06,2.34791e-06,-0.0154695,21.4424,21.4436,-0.331673,11.2459,21.8013,21.4435,-0.690513,22.3151,213,7.01182,3.07026,-0.1,1849
0,0,0,4.11472e-07,-2.00943e-07,-0.0154105,21.5318,21.531,-0.157569,10.8657,21.5527,21.5312,-0.17866,21.7206,213,11.3651,7.17602,-0.1,1850
0,0,0,1.49351e-06,7.80432e-07,-0.0154149,21.5295,21.5285,-0.167559,10.8692,21.5498,21.5293,-0.188675,21.7282,213,7.07258,8.84263,-0.1,1851
0,0,0,-3.66149e-07,-8.03909e-09,-0.0154021,21.5435,21.544,-0.13303,10.8551,21.5605,21.5436,-0.149646,21.7017,213,12.7731,11.4408,-0.1,1852
0,0,0,-2.05e-08,8.14615e-07,-0.0153983,21.5521,21.5533,-0.119618,10.8748,21.5915,21.5523,-0.158056,21.73,213,13.6969,8.47257,-0.1,1853
0,0,0,-1.81546e-07,2.37494e-08,-0.0154127,21.5268,21.5271,-0.164878,10.8855,21.5665,21.5271,-0.204552,21.7514,213,8.42997,6.37684,-0.1,1854
0,0,0,6.1566e-05,6.92801e-11,-0.0164549,20.0037,19.9171,-3.24167,12.1326,20.4704,20.0037,-3.79493,24.0354,213,1.72913,10.5791,-0.1,1855
0,0,0,4.17809e-05,1.13279e-06,-0.0165647,19.765,19.7078,-3.60705,12.1266,20.177,19.765,-4.07625,24.0499,213,17.8468,10.55,-0.1,1856
0,0,0,7.94401e-11,1.61468e-10,-0.0153821,21.5776,21.5776,-0.0712535,10.8842,21.6374,21.5776,-0.131053,21.7386,213,8.5447,15.0032,-0.1,1857
0,0,0,-2.06847e-06,-2.2099e-07,-0.0154208,21.5073,21.5099,-0.19305,10.921,21.5793,21.5075,-0.262708,21.8062,213,14.565,12.7714,-0.1,1858
0,0,0,1.08994e-06,4.82866e-05,-0.0167422,19.4269,19.4933,-4.13767,12.3118,19.9564,19.4933,-4.66714,24.3953,213,10.05,2.07595,-0.1,1859
0,0,0,-5.16131e-08,1.37263e-06,-0.015866,20.785,20.787,-1.54483,11.654,21.2747,20.7859,-2.03338,23.0675,213,2.5655,5.48394,-0.1,1860
0,0,0,2.10375e-06,6.01769e-07,-0.015834,20.8429,20.8407,-1.44503,11.6274,21.3253,20.8428,-1.92947,23.0173,213,17.5229,5.4856,-0.1,1861
0,0,0,5.05558e-06,4.3885e-06,-0.0157996,20.9146,20.9136,-1.32905,11.6363,21.4296,20.9125,-1.84303,23.0185,213,2.42281,15.5525,-0.1,1862
0,0,0,4.99879e-06,1.39028e-06,-0.0161189,20.3852,20.3801,-2.30778,11.8742,20.9107,20.3846,-2.83774,23.4898,213,17.6663,15.5762,-0.1,1863
0,0,0,1.37036e-06,6.91501e-06,-0.0162971,20.0906,20.0984,-2.84792,12.0521,20.6734,20.0984,-3.43076,23.8219,213,14.8383,2.29006,-0.1,1864
0,0,0,2.23181e-06,3.56813e-06,-0.016053,20.4885,20.4904,-2.10778,11.8837,21.0741,20.4903,-2.69325,23.4809,213,5.23654,2.28419,-0.1,1865
0,0,0,-1.81447e-06,1.48994e-07,-0.0154223,21.5063,21.509,-0.196571,10.9243,21.5802,21.5068,-0.268291,21.8119,213,5.49904,12.9384,-0.1,1866
0,0,0,5.43599e-11,2.76817e-10,-0.0155759,21.2593,21.2593,-0.662335,11.5334,21.8318,21.2593,-1.23487,22.7858,213,9.09319,18.7371,-0.1,1867
0,0,0,-4.20574e-07,-9.06208e-07,-0.0154008,21.544,21.5433,-0.130626,10.9091,21.6158,21.5434,-0.202487,21.7822,213,11.9095,15.2601,-0.1,1868
0,0,0,-6.51849e-07,5.85253e-06,-0.0153016,21.7172,21.7264,0.182489,11.3446,22.295,21.7252,-0.39414,22.4097,213,14.8098,18.8691,-0.1,1869
0,0,0,-1.50654e-06,7.67262e-06,-0.0153387,21.6568,21.6698,0.0712145,11.3712,22.2365,21.6673,-0.505988,22.4633,213,5.28995,18.8617,-0.1,1870
0,0,0,8.87035e-07,2.59837e-06,-0.0154178,21.5258,21.5282,-0.17461,10.9364,21.6119,21.5282,-0.260785,21.831,213,12.0861,5.12052,-0.1,1871
0,0,0,-4.0156e-06,4.93902e-07,-0.0155312,21.3213,21.3276,-0.531777,11.7581,22.1546,21.3242,-1.36161,23.1122,213,2.14526,18.9677,-0.1,1872
0,0,0,5.01203e-06,1.25387e-05,-0.0158271,20.8826,20.8932,-1.39967,11.8844,21.6252,20.8946,-2.1437,23.4122,213,17.9547,18.9677,-0.1,1873
0,0,0,5.33931e-07,9.52324e-06,-0.015258,21.7985,21.8111,0.323472,11.3628,22.4238,21.8111,-0.301796,22.4255,213,11.0714,18.9673,-0.1,1874
0,0,0,3.71084e-06,9.53195e-09,-0.0153225,21.6868,21.6815,0.116591,10.9757,21.8758,21.6846,-0.0755359,21.8564,213,15.7391,15.4667,-0.1,1875
0,0,0,-1.52985e-06,3.05255e-06,-0.0152838,21.7393,21.7457,0.230899,10.9581,21.9454,21.7412,0.0292812,21.8147,213,4.28237,15.4499,-0.1,1876
0,0,0,4.13086e-06,7.19472e-07,-0.0153863,21.5844,21.5796,-0.0761749,10.9177,21.6697,21.5839,-0.165738,21.7926,213,5.13071,7.70224,-0.1,1877
0,0,0,-4.64822e-06,-1.82177e-06,-0.0159808,20.5772,20.5812,-1.90776,12.3024,21.6379,20.5798,-2.967,24.0933,213,2.01339,2.00672,-0.1,1878
0,0,0,-4.36196e-06,9.28522e-06,-0.0162901,20.0886,20.1078,-2.83206,12.4601,21.0908,20.103,-3.82941,24.4413,213,18.0866,2.00672,-0.1,1879
0,0,0,2.56466e-07,1.51006e-06,-0.0154018,21.5484,21.5501,-0.128614,10.8488,21.5587,21.5501,-0.138932,21.6933,213,9.66001,7.81294,-0.1,1880
0,0,0,1.26038e-07,2.90829e-07,-0.0153961,21.5553,21.5556,-0.113434,10.8425,21.5636,21.5552,-0.121352,21.6808,213,12.0395,9.57535,-0.1,1881
0,0,0,-8.90781e-07,1.28309e-07,-0.0154138,21.523,21.5244,-0.169271,10.8771,21.5544,21.5235,-0.199736,21.7387,213,12.7677,13.5357,-0.1,1882
0,0,0,3.87741e-05,2.70655e-07,-0.0163078,20.1761,20.1219,-2.83023,12.1455,20.7904,20.1779,-3.50055,23.9906,213,1.73286,12.4538,-0.1,1883
0,0,0,6.99963e-05,-7.44083e-07,-0.0164093,20.103,20.0035,-3.09007,12.1338,20.5943,20.0954,-3.67323,24.0219,213,18.3671,12.4538,-0.1,1884
0,0,0,5.68677e-07,-2.1814e-07,-0.0153963,21.5555,21.5544,-0.114252,10.838,21.5586,21.5545,-0.117413,21.6739,213,9.53483,11.8123,-0.1,1885
0,0,0,-1.7276e-06,1.68702e-06,-0.0153501,21.6275,21.6323,0.026127,11.0259,21.8537,21.6303,-0.198091,21.941,213,14.7961,4.01482,-0.1,1886
0,0,0,2.84912e-06,-2.47099e-07,-0.0154123,21.5362,21.5318,-0.159265,11.0743,21.7624,21.5325,-0.386173,22.0345,213,5.26117,4.03922,-0.1,1887
0,0,0,5.48155e-07,-2.82022e-07,-0.0156817,21.0867,21.0855,-0.98468,11.2911,21.3417,21.0863,-1.24042,22.4555,213,5.50959,16.9835,-0.1,1888
0,0,0,7.76314e-07,-2.20512e-06,-0.0156148,21.1941,21.1899,-0.783364,11.24,21.4448,21.1911,-1.0352,22.3542,213,14.4897,16.9732,-0.1,1889
0,0,0,1.14102e-06,8.07907e-05,-0.016624,19.6744,19.7865,-3.72402,12.345,20.3205,19.7857,-4.36941,24.4269,213,11.907,1.63898,-0.1,1890
0,0,0,1.31007e-06,9.66287e-05,-0.0167481,19.4972,19.6314,-4.07598,12.4009,20.112,19.6303,-4.68974,24.5645,213,8.191,1.59139,-0.1,1891
0,0,0,7.49189e-05,3.25483e-07,-0.0164643,20.0296,19.9246,-3.24774,12.162,20.5039,20.0228,-3.82023,24.0872,213,18.3999,8.6561,-0.1,1892
0,0,0,5.15921e-05,2.56457e-08,-0.0163788,20.0982,20.0257,-3.02607,12.1352,20.6352,20.0978,-3.6352,24.0062,213,1.67719,8.72451,-0.1,1893
0,0,0,4.29299e-07,1.70298e-07,-0.0154042,21.5428,21.5424,-0.137781,10.8698,21.5721,21.5428,-0.167517,21.725,213,6.55982,10.4182,-0.1,1894
0,0,0,4.84339e-07,1.12429e-06,-0.0153833,21.5788,21.5797,-0.0725326,10.9464,21.6994,21.5799,-0.193381,21.8333,213,8.28541,4.63955,-0.1,1895
0,0,0,-1.49875e-06,-3.25582e-07,-0.0153983,21.5458,21.5474,-0.12382,11.0287,21.7406,21.5456,-0.316811,21.9606,213,15.9607,6.12915,-0.1,1896
0,0,0,-1.41951e-06,6.44286e-07,-0.0153814,21.5755,21.5784,-0.0703838,11.023,21.7766,21.5763,-0.269449,21.9466,213,4.08561,6.1772,-0.1,1897
0,0,0,-2.56818e-06,-9.88892e-08,-0.0153464,21.6281,21.6316,0.0330751,10.9102,21.7425,21.6282,-0.0778833,21.7634,213,15.3079,8.85484,-0.1,1898
0,0,0,1.52038e-06,4.5761e-07,-0.0154278,21.5078,21.5063,-0.207497,11.0521,21.7016,21.5077,-0.402644,22.0079,213,16.237,11.8908,-0.1,1899
0,0,0,-1.21279e-06,3.79517e-07,-0.0153425,21.6395,21.6417,0.0481165,11.0156,21.8604,21.6396,-0.17075,21.9216,213,3.73685,11.564,-0.1,1900
0,0,0,-3.4777e-07,-3.56444e-06,-0.0155351,21.3194,21.3149,-0.544206,11.1424,21.53,21.3149,-0.754753,22.178,213,8.54576,16.8465,-0.1,1901
0,0,0,5.61278e-07,3.0787e-07,-0.0153998,21.5507,21.5504,-0.1238,10.8428,21.5561,21.5507,-0.129518,21.6829,213,8.2378,10.3456,-0.1,1902
0,0,0,-4.68583e-07,1.9157e-07,-0.0154133,21.5252,21.5261,-0.166983,10.8786,21.5578,21.5259,-0.199395,21.7413,213,7.34187,13.6436,-0.1,1903
0,0,0,5.65447e-05,4.07236e-07,-0.0169421,19.1891,19.1101,-4.73492,12.5678,19.7628,19.1742,-5.37278,24.8465,213,1.74471,17.2695,-0.1,1904
0,0,0,5.29876e-05,1.72307e-06,-0.0167338,19.5224,19.4503,-4.1034,12.3489,20.043,19.481,-4.65476,24.4216,213,18.3553,17.2695,-0.1,1905
0,0,0,0.000102355,-1.31319e-06,-0.0167736,19.6026,19.4567,-4.14872,12.3759,20.0623,19.5377,-4.68944,24.4937,213,18.3605,3.86348,-0.1,1906
0,0,0,8.46023e-05,5.31381e-06,-0.0164081,20.1595,20.0479,-3.05244,12.1475,20.6524,20.1452,-3.64266,24.0455,213,1.7395,3.86348,-0.1,1907
0,0,0,7.07688e-11,1.46778e-10,-0.015411,21.5301,21.5301,-0.159408,10.8907,21.5761,21.5301,-0.205394,21.7585,213,10.1025,6.04783,-0.1,1908
0,0,0,-9.57638e-07,3.61193e-07,-0.0153775,21.5827,21.5846,-0.0583589,10.8606,21.6237,21.5827,-0.0975263,21.7008,213,13.8951,10.0731,-0.1,1909
0,0,0,1.35945e-06,5.65166e-05,-0.0168735,19.2255,19.3032,-4.52431,12.4513,19.8116,19.2839,-5.09107,24.643,213,16.4567,1.66528,-0.1,1910
0,0,0,-1.62937e-06,9.77002e-05,-0.0167584,19.4731,19.6129,-4.11045,12.4125,20.1241,19.5524,-4.70096,24.5442,213,3.64332,1.66528,-0.1,1911
0,0,0,7.43609e-05,-4.4219e-07,-0.0161843,20.4864,20.3811,-2.39607,12.0821,21.0725,20.4904,-3.09156,23.8784,213,18.6002,7.02499,-0.1,1912
0,0,0,7.81296e-05,-5.70387e-07,-0.0162461,20.3961,20.2853,-2.57883,12.1368,20.9881,20.4001,-3.28559,23.9851,213,1.4767,7.03602,-0.1,1913
0,0,0,-1.7826e-07,1.9099e-08,-0.0153044,21.7045,21.7048,0.165176,11.0038,21.9388,21.7045,-0.0687744,21.8913,213,3.66993,9.42161,-0.1,1914
0,0,0,-3.56568e-07,0.000106209,-0.014942,22.4735,22.6234,1.44449,11.0862,23.0468,22.6202,0.874417,21.9622,213,6.66893,19.7159,-0.1,1915
0,0,0,-4.74263e-07,0.000117721,-0.0148785,22.5962,22.7625,1.6567,11.0063,23.1347,22.7585,1.12219,21.8268,213,13.4296,19.6862,-0.1,1916
0,0,0,5.01742e-07,3.74352e-06,-0.0154268,21.5117,21.5163,-0.200802,11.181,21.8364,21.5163,-0.525494,22.2036,213,11.2803,3.22224,-0.1,1917
0,0,0,7.82425e-05,2.20232e-06,-0.0165,19.9842,19.8772,-3.34811,12.2767,20.5495,19.9677,-4.0039,24.2677,213,1.50141,14.0725,-0.1,1918
0,0,0,9.07027e-05,2.0258e-06,-0.0163488,20.2702,20.1454,-2.86683,12.1679,20.8046,20.2753,-3.5311,24.0754,213,18.5834,14.1057,-0.1,1919
0,0,0,4.17633e-07,-3.20311e-06,-0.0156329,21.1617,21.1566,-0.840683,11.2376,21.3981,21.1566,-1.07711,22.3555,213,11.6732,17.0542,-0.1,1920
0,0,0,3.50076e-07,6.89699e-07,-0.0154175,21.5216,21.5221,-0.177568,10.8897,21.5622,21.5212,-0.217199,21.7589,213,13.0695,6.9805,-0.1,1921
0,0,0,7.358e-07,5.82414e-05,-0.0149275,22.4217,22.5027,1.41157,10.9584,22.8924,22.468,0.975592,21.7077,213,16.4366,19.4934,-0.1,1922
0,0,0,-4.50199e-06,9.98648e-05,-0.0148713,22.5665,22.7134,1.64293,10.9634,23.094,22.6616,1.16725,21.7138,213,3.6634,19.4934,-0.1,1923
0,0,0,2.5848e-06,0.00012835,-0.01661,19.7799,19.9569,-3.60086,12.3593,20.4522,19.9501,-4.26637,24.4714,213,13.4184,1.40691,-0.1,1924
0,0,0,9.73628e-07,0.00011298,-0.0164318,20.0424,20.2001,-3.08517,12.2739,20.7551,20.1949,-3.79267,24.2725,213,6.64605,1.38917,-0.1,1925
0,0,0,7.67735e-07,1.10425e-06,-0.0154257,21.5101,21.5105,-0.20124,10.8938,21.5484,21.5102,-0.239244,21.7686,213,6.9646,7.07915,-0.1,1926
0,0,0,-2.24777e-08,7.80473e-07,-0.0153899,21.5659,21.567,-0.0939529,11.1845,21.9205,21.567,-0.448565,22.1944,213,8.71765,3.14424,-0.1,1927
0,0,0,2.81315e-07,1.71221e-08,-0.0154012,21.547,21.5466,-0.129219,10.8456,21.5545,21.5467,-0.136748,21.6873,213,11.3328,12.2539,-0.1,1928
0,0,0,5.47784e-07,-9.62116e-07,-0.0154555,21.4571,21.4549,-0.295918,11.0512,21.6315,21.4554,-0.470843,22.0148,213,13.037,16.5052,-0.1,1929
0,0,0,-1.90448e-06,4.3407e-07,-0.0154097,21.527,21.5303,-0.158084,10.9384,21.6241,21.5277,-0.252649,21.8287,213,14.9332,7.25558,-0.1,1930
0,0,0,1.00334e-06,1.92632e-06,-0.0154204,21.5208,21.5221,-0.183339,10.9937,21.6625,21.5221,-0.325043,21.9177,213,6.69726,4.58662,-0.1,1931
0,0,0,2.11256e-07,6.97643e-10,-0.0154587,21.4524,21.4521,-0.304592,11.1854,21.7592,21.4523,-0.611602,22.2189,213,16.8092,9.20711,-0.1,1932
0,0,0,-3.82432e-08,6.01531e-07,-0.0154186,21.5184,21.5193,-0.1819,11.0008,21.6691,21.5192,-0.332564,21.9271,213,13.4363,4.47459,-0.1,1933
0,0,0,3.74203e-07,7.11421e-07,-0.0154578,21.4555,21.4559,-0.300553,11.0387,21.6162,21.4559,-0.461259,21.9978,213,7.0929,16.4027,-0.1,1934
0,0,0,-1.42064e-07,0.000127671,-0.0148744,22.6203,22.8002,1.68622,11.1523,23.3056,22.8002,1.00094,22.0563,213,9.90917,19.9787,-0.1,1935
0,0,0,2.51142e-07,4.03636e-07,-0.015403,21.5446,21.5448,-0.134072,10.8553,21.5605,21.5449,-0.150086,21.7028,213,8.75502,13.2687,-0.1,1936
0,0,0,-1.8784e-06,5.36881e-07,-0.0154351,21.4856,21.489,-0.235286,10.9656,21.5922,21.4861,-0.338961,21.8783,213,14.9572,14.2174,-0.1,1937
0,0,0,1.8868e-07,-2.8086e-07,-0.0153768,21.5863,21.5857,-0.0553383,10.918,21.6835,21.5857,-0.152541,21.7873,213,10.1462,15.7302,-0.1,1938
0,0,0,1.75388e-10,6.7142e-11,-0.0153787,21.583,21.583,-0.0611415,10.8904,21.6514,21.583,-0.129496,21.7468,213,5.49854,9.35274,-0.1,1939
0,0,0,-3.61469e-08,-6.65388e-08,-0.0153968,21.5532,21.5532,-0.11627,10.8406,21.5591,21.5533,-0.122224,21.6784,213,10.9233,8.5713,-0.1,1940
0,0,0,2.0307e-07,0.000103934,-0.0149211,22.5057,22.6517,1.50535,11.1198,23.1242,22.6539,0.884607,22.0082,213,8.05316,19.9139,-0.1,1941
0,0,0,-1.68236e-06,3.73388e-07,-0.0154044,21.5364,21.5392,-0.141558,10.9029,21.6017,21.5364,-0.204114,21.7733,213,5.59049,11.4926,-0.1,1942
0,0,0,7.53544e-08,3.88936e-07,-0.0154232,21.5109,21.5114,-0.195889,10.9806,21.6384,21.5108,-0.322787,21.8977,213,4.82887,14.2321,-0.1,1943
0,0,0,4.03881e-07,2.93216e-07,-0.0154071,21.5382,21.538,-0.146416,10.858,21.5538,21.5382,-0.162222,21.7082,213,12.2189,8.15515,-0.1,1944
0,0,0,-1.29275e-06,-4.55473e-08,-0.0153764,21.5829,21.5846,-0.0561187,10.888,21.6523,21.5828,-0.123754,21.7414,213,14.6166,11.3189,-0.1,1945
0,0,0,3.03767e-07,5.87287e-07,-0.0153994,21.551,21.5514,-0.12273,10.8431,21.5573,21.5513,-0.128961,21.6833,213,8.62056,8.93834,-0.1,1946
0,0,0,9.51353e-05,8.33534e-05,-0.0152972,22.1439,22.1273,0.48068,11.4842,22.7959,22.1285,-0.172488,22.642,213,1.15601,19.91,-0.1,1947
0,0,0,9.54863e-05,8.32422e-05,-0.0152712,22.1875,22.1702,0.560286,11.4688,22.8422,22.1711,-0.0953835,22.6095,213,18.944,19.91,-0.1,1948
0,0,0,-1.36383e-07,0.000105611,-0.0148762,22.5812,22.7301,1.64462,11.1021,23.2156,22.7289,1.01145,21.9648,213,12.2505,19.8277,-0.1,1949
0,0,0,-2.2951e-06,1.69234e-07,-0.0154326,21.4878,21.4913,-0.228981,11.1074,21.7378,21.4893,-0.476982,22.0916,213,16.0131,4.78246,-0.1,1950
0,0,0,3.21398e-07,1.70695e-06,-0.0154344,21.4955,21.4974,-0.227412,11.1029,21.738,21.4952,-0.467697,22.0853,213,4.13792,4.89164,-0.1,1951
0,0,0,3.74787e-07,9.03579e-07,-0.0154087,21.5365,21.5372,-0.150301,10.8604,21.5535,21.537,-0.167194,21.7125,213,8.17991,7.77003,-0.1,1952
0,0,0,0.000120426,0.000113299,-0.0166807,19.9985,19.9885,-3.64752,12.8232,20.9976,19.9907,-4.64881,25.1581,213,1.0453,1.08451,-0.1,1953
0,0,0,0.000120138,0.000112464,-0.016555,20.2027,20.1919,-3.266,12.7092,21.1765,20.194,-4.24188,24.9416,213,19.0547,1.08451,-0.1,1954
0,0,0,-4.15207e-08,1.50555e-08,-0.0153935,21.5587,21.5588,-0.106147,10.8349,21.5613,21.5587,-0.10862,21.6686,213,11.2003,10.7758,-0.1,1955
0,0,0,4.02432e-07,1.3863e-06,-0.0154299,21.5025,21.5039,-0.21424,10.9292,21.5735,21.5037,-0.284977,21.8236,213,7.21373,5.70799,-0.1,1956
0,0,0,2.75016e-06,3.0873e-06,-0.0143262,23.3247,23.3252,3.15806,12.0675,25.307,23.3291,1.1719,23.2094,213,0.52265,0.542257,-0.1,1957
0,0,0,4.66612e-07,1.02804e-05,-0.0158366,20.8496,20.8634,-1.43963,12.7639,22.4768,20.8476,-3.05098,24.7534,213,1.43629,0.542257,-0.1,1958
0,0,0,1.05131e-05,-6.31973e-07,-0.0158481,20.8434,20.8277,-1.47618,12.7908,22.4743,20.8279,-3.10729,24.7994,213,0.52265,1.50135,-0.1,1959
0,0,0,1.43886e-06,8.92536e-06,-0.0156347,21.1817,21.1923,-0.824731,12.6117,22.797,21.1787,-2.4264,24.4544,213,18.6637,0.542257,-0.1,1960
0,0,0,3.6065e-06,4.08051e-06,-0.0142851,23.3964,23.3971,3.2864,12.0984,25.4373,23.4022,1.24042,23.2462,213,19.5774,0.542257,-0.1,1961
0,0,0,1.02488e-05,-2.53133e-07,-0.0157125,21.0658,21.0511,-1.06247,12.686,22.6878,21.0509,-2.68424,24.5945,213,19.5774,1.50135,-0.1,1962
0,0,0,7.90704e-06,6.50085e-06,-0.0151057,22.0661,22.0641,0.795022,11.8674,23.293,22.074,-0.441817,23.1494,213,0.578007,20.505,-0.1,1963
0,0,0,3.4534e-06,-6.22723e-06,-0.0147895,22.5508,22.5372,1.73108,11.7533,23.8914,22.5428,0.384822,22.8622,213,0.578007,19.5459,-0.1,1964
0,0,0,1.03605e-06,4.57942e-07,-0.0150433,22.1377,22.1369,0.964246,11.5788,23.1301,22.1363,-0.0275297,22.6771,213,1.49164,20.505,-0.1,1965
0,0,0,3.44328e-06,-5.29508e-06,-0.0147268,22.6552,22.6429,1.92372,11.7134,24.0005,22.6475,0.573777,22.7804,213,19.522,19.5459,-0.1,1966
0,0,0,7.74677e-06,6.47262e-06,-0.0150636,22.1347,22.1329,0.923188,11.8568,23.3809,22.1426,-0.332694,23.1193,213,19.522,20.505,-0.1,1967
0,0,0,1.39347e-06,1.67756e-06,-0.0150786,22.0828,22.0832,0.859044,11.6083,23.0804,22.0808,-0.136222,22.7333,213,18.6084,20.505,-0.1,1968
0,0,0,-2.70729e-08,1.34283e-05,-0.0156118,21.2222,21.2412,-0.749922,12.245,22.4798,21.2438,-2.01011,23.8959,213,2.7353,0.832639,-0.1,1969
0,0,0,1.40124e-06,-5.87202e-09,-0.0154072,21.5406,21.5386,-0.145598,12.3683,23.0654,21.5394,-1.67118,24.01,213,3.64893,0.832639,-0.1,1970
0,0,0,-3.48664e-06,-3.98423e-08,-0.0159843,20.578,20.5829,-1.91348,12.6367,21.9701,20.5805,-3.30325,24.608,213,1.92033,1.00336,-0.1,1971
0,0,0,1.94289e-07,-2.07729e-06,-0.015953,20.6373,20.6341,-1.81525,12.1475,21.5582,20.6348,-2.73685,23.8468,213,2.82835,1.836,-0.1,1972
0,0,0,3.76573e-10,3.64399e-10,-0.0162691,20.121,20.121,-2.77629,12.7775,21.4498,20.121,-4.10513,24.9171,213,1.52934,1.54562,-0.1,1973
0,0,0,-1.52844e-06,2.63206e-05,-0.0152631,21.8114,21.8506,0.332097,12.0878,23.1654,21.8391,-1.01031,23.5406,213,4.56257,0.832639,-0.1,1974
0,0,0,-2.95208e-07,2.12052e-05,-0.0150304,22.1889,22.2192,1.0355,12.0162,23.6262,22.2237,-0.406225,23.3627,213,6.06394,0.694585,-0.1,1975
0,0,0,6.93583e-07,1.78638e-05,-0.0150771,22.1098,22.134,0.889226,12.2168,23.7194,22.1278,-0.71418,23.6779,213,6.97757,0.694585,-0.1,1976
0,0,0,7.7832e-08,3.95893e-06,-0.0164203,19.8795,19.885,-3.23067,12.2345,20.5589,19.8851,-3.91014,24.1392,213,4.43993,1.97474,-0.1,1977
0,0,0,1.62243e-10,7.38749e-10,-0.0156131,21.1981,21.1981,-0.775922,12.2574,22.4685,21.1981,-2.04628,23.9049,213,5.35918,1.1421,-0.1,1978
0,0,0,5.07263e-07,6.25809e-06,-0.0165659,19.6455,19.6536,-3.67024,12.3576,20.3462,19.6517,-4.36907,24.3755,213,5.9413,1.83668,-0.1,1979
0,0,0,1.24463e-07,2.09987e-05,-0.015293,21.7586,21.788,0.234927,12.2786,23.2737,21.7915,-1.2836,23.8507,213,7.75005,0.795696,-0.1,1980
0,0,0,-6.78362e-08,1.80925e-05,-0.015117,22.0422,22.0678,0.766507,12.1063,23.5119,22.0653,-0.700687,23.5227,213,8.66368,0.795696,-0.1,1981
0,0,0,3.06493e-08,1.01898e-05,-0.0164283,19.8765,19.8908,-3.24486,12.4041,20.7199,19.8909,-4.08832,24.4043,213,7.41853,1.49028,-0.1,1982
0,0,0,-6.43e-08,1.24351e-05,-0.01565,21.1579,21.1755,-0.867904,12.2901,22.435,21.1757,-2.14515,23.9753,213,9.59318,1.03798,-0.1,1983
0,0,0,9.92045e-08,1.25428e-05,-0.0156671,21.1305,21.148,-0.919637,12.3016,22.4069,21.1483,-2.19632,23.9987,213,10.5068,1.03798,-0.1,1984
0,0,0,-6.25478e-08,1.01596e-05,-0.0166783,19.4657,19.4801,-4.0074,12.426,20.1551,19.4802,-4.69687,24.5215,213,9.1205,1.83367,-0.1,1985
0,0,0,6.6697e-08,1.73039e-05,-0.0152386,21.8417,21.866,0.394678,12.1723,23.2916,21.8636,-1.05288,23.6629,213,11.4353,0.819491,-0.1,1986
0,0,0,-5.15569e-08,1.9861e-05,-0.0153414,21.6769,21.7049,0.0853811,12.2954,23.1749,21.7082,-1.41595,23.8913,213,12.3489,0.819491,-0.1,1987
0,0,0,6.52378e-09,9.68355e-06,-0.016643,19.5231,19.5367,-3.90038,12.4047,20.2161,19.5368,-4.59344,24.4769,213,10.9785,1.85747,-0.1,1988
0,0,0,7.94415e-07,1.67638e-05,-0.0151069,22.0593,22.0817,0.796553,12.2304,23.6615,22.0754,-0.799323,23.7076,213,13.1046,0.703454,-0.1,1989
0,0,0,-1.54976e-07,2.16001e-05,-0.0150874,22.0964,22.127,0.862568,12.0411,23.5184,22.1314,-0.563875,23.4196,213,14.0183,0.703454,-0.1,1990
0,0,0,-4.88698e-08,1.00208e-05,-0.0164432,19.8515,19.8657,-3.29063,12.4082,20.6886,19.8657,-4.12774,24.4153,213,12.6627,1.52294,-0.1,1991
0,0,0,9.62853e-08,1.16436e-05,-0.0155219,21.3674,21.3837,-0.478297,12.0748,22.5222,21.378,-1.62735,23.5982,213,15.5374,0.832639,-0.1,1992
0,0,0,9.14393e-07,-2.10126e-07,-0.0153827,21.5789,21.5773,-0.0721699,12.5363,23.283,21.5906,-1.78958,24.2707,213,16.4511,0.832639,-0.1,1993
0,0,0,3.34399e-06,1.20282e-06,-0.0155957,21.239,21.2359,-0.715253,12.1694,22.4331,21.2323,-1.90575,23.7612,213,14.7283,1.14503,-0.1,1994
0,0,0,2.33482e-10,4.13657e-10,-0.0160507,20.4797,20.4797,-2.11013,12.0316,21.2164,20.4797,-2.84679,23.7034,213,15.6475,1.97767,-0.1,1995
0,0,0,2.94241e-07,6.76857e-06,-0.016635,19.5322,19.5414,-3.88042,12.4008,20.2276,19.5395,-4.57393,24.4647,213,14.1283,1.84849,-0.1,1996
0,0,0,1.78064e-10,8.23144e-10,-0.0153266,21.6686,21.6686,0.0978261,12.2403,23.1235,21.6686,-1.35705,23.7865,213,17.3647,0.832639,-0.1,1997
0,0,0,-1.36924e-08,2.57347e-05,-0.0167159,19.4297,19.4659,-4.09639,12.4762,20.1524,19.4468,-4.8,24.6072,213,17.2716,1.836,-0.1,1998
0,0,0,-6.62804e-07,-1.37235e-06,-0.0159216,20.6873,20.6863,-1.71999,12.6667,22.1552,20.6766,-3.17816,24.6274,213,18.1797,1.00336,-0.1,1999
0,0,0,3.72035e-10,3.49027e-10,-0.0164575,19.8117,19.8117,-3.35078,12.8807,21.1112,19.8117,-4.65029,25.1369,213,18.5707,1.54562,-0.1,2000
0,0,0,7.36742e-06,2.72871e-06,-0.0158782,20.7898,20.7833,-1.5677,12.5006,22.1063,20.7941,-2.89497,24.3717,213,0.872357,18.2257,-0.1,2001
0,0,0,9.96277e-08,4.60953e-07,-0.0155811,21.2518,21.2523,-0.677322,12.6476,22.9423,21.2374,-2.35292,24.4873,213,0.872357,17.2666,-0.1,2002
0,0,0,3.71495e-10,2.07067e-10,-0.0155933,21.2307,21.2307,-0.715479,12.11,22.3676,21.2307,-1.85242,23.6721,213,1.07263,19.0747,-0.1,2003
0,0,0,3.76703e-10,2.29301e-10,-0.0161783,20.2702,20.2702,-2.49924,12.2221,21.1076,20.2702,-3.33661,24.0364,213,1.94499,18.1186,-0.1,2004
0,0,0,3.65043e-10,1.62388e-10,-0.0152596,21.7786,21.7786,0.302161,11.6971,22.7375,21.7786,-0.656732,22.9298,213,1.65064,19.4388,-0.1,2005
0,0,0,7.43033e-10,1.23014e-10,-0.0151374,21.9793,21.9793,0.674896,12.0389,23.366,21.9793,-0.711772,23.4152,213,0.872357,16.3075,-0.1,2006
0,0,0,7.65474e-06,1.1454e-06,-0.0154974,21.4133,21.4042,-0.408658,12.1441,22.6408,21.4156,-1.6475,23.6994,213,0.750703,14.709,-0.1,2007
0,0,0,1.42005e-05,8.47685e-07,-0.0151085,22.0714,22.0526,0.787604,12.1882,23.6114,22.0653,-0.765044,23.6413,213,0.750703,13.7499,-0.1,2008
0,0,0,1.28412e-05,1.23347e-07,-0.0163529,20.0228,20.0049,-3.01048,12.0424,20.54,20.0219,-3.54477,23.83,213,2.08376,16.411,-0.1,2009
0,0,0,-1.09903e-06,2.72061e-06,-0.0156231,21.183,21.1883,-0.803526,12.1141,22.3042,21.1875,-1.92394,23.6895,213,1.21141,15.449,-0.1,2010
0,0,0,4.42637e-10,1.63625e-10,-0.0158543,20.8022,20.8022,-1.51124,11.8709,21.5164,20.8022,-2.22543,23.3929,213,1.96211,14.8125,-0.1,2011
0,0,0,1.82484e-05,-4.40017e-07,-0.0155408,21.3718,21.3455,-0.526173,12.3936,22.8017,21.375,-1.98553,24.1055,213,0.866429,12.9406,-0.1,2012
0,0,0,4.22325e-06,-1.71043e-07,-0.0155785,21.2676,21.2614,-0.663694,12.1541,22.4533,21.2669,-1.85491,23.7373,213,0.866429,11.9815,-0.1,2013
0,0,0,9.60206e-06,-6.46248e-09,-0.0165595,19.6735,19.66,-3.64601,12.4516,20.4586,19.6735,-4.44463,24.5201,213,1.61713,13.2632,-0.1,2014
0,0,0,5.9389e-06,7.31063e-07,-0.0155135,21.3811,21.3738,-0.460971,12.0836,22.5398,21.3815,-1.62737,23.6093,213,0.864564,11.0441,-0.1,2015
0,0,0,6.12835e-06,8.33689e-07,-0.0154643,21.4625,21.4551,-0.310732,12.0596,22.6317,21.4626,-1.48741,23.5563,213,0.864564,10.085,-0.1,2016
0,0,0,4.42237e-10,6.08656e-11,-0.0160486,20.4831,20.4831,-2.10378,12.1079,21.2976,20.4831,-2.91823,23.819,213,1.73099,11.5164,-0.1,2017
0,0,0,3.99295e-06,-5.38412e-08,-0.0154008,21.5589,21.5532,-0.121941,12.0477,22.7636,21.5585,-1.33191,23.5161,213,0.838594,9.15771,-0.1,2018
0,0,0,7.21382e-06,5.12381e-07,-0.015462,21.4692,21.4598,-0.302228,12.0636,22.6418,21.4704,-1.48542,23.5634,213,0.838594,8.19862,-0.1,2019
0,0,0,4.41388e-10,6.15377e-11,-0.0160918,20.4122,20.4122,-2.2355,12.1403,21.2287,20.4122,-3.05198,23.8829,213,1.70316,9.65178,-0.1,2020
0,0,0,3.20954e-06,6.14166e-07,-0.015339,21.6591,21.6555,0.0663955,12.0642,22.9258,21.6579,-1.20272,23.5202,213,0.73835,7.35437,-0.1,2021
0,0,0,1.94121e-05,-3.99953e-07,-0.0151818,21.9649,21.937,0.570601,12.1127,23.3647,21.9686,-0.860778,23.5585,213,0.73835,6.39528,-0.1,2022
0,0,0,4.52225e-10,7.00455e-11,-0.0160147,20.5388,20.5388,-2.00032,12.1341,21.4033,20.5388,-2.86481,23.8476,213,1.57694,7.88026,-0.1,2023
0,0,0,1.01591e-05,3.88765e-07,-0.0155164,21.3886,21.3748,-0.463647,12.0796,22.5376,21.3838,-1.62164,23.6035,213,0.86975,4.80901,-0.1,2024
0,0,0,1.30358e-08,2.13156e-06,-0.0153339,21.6601,21.6631,0.0790263,11.9664,22.8371,21.6609,-1.09572,23.3669,213,0.86975,3.84992,-0.1,2025
0,0,0,1.18703e-06,2.69637e-06,-0.0155772,21.2652,21.2674,-0.659857,12.1,22.4054,21.262,-1.79466,23.6491,213,1.28275,5.61924,-0.1,2026
0,0,0,-2.29504e-06,9.03837e-07,-0.0158994,20.7226,20.7271,-1.6511,11.8431,21.3806,20.7235,-2.3055,23.3645,213,2.1525,4.67371,-0.1,2027
0,0,0,4.07561e-06,-4.70428e-07,-0.0163003,20.0815,20.0751,-2.86547,12.1109,20.7162,20.0806,-3.50566,23.9104,213,2.0211,6.25998,-0.1,2028
0,0,0,9.38869e-06,9.40309e-07,-0.0155326,21.3606,21.3487,-0.513362,12.3184,22.7347,21.3635,-1.90221,23.9807,213,0.86975,2.89083,-0.1,2029
0,0,0,-5.34415e-06,9.48733e-08,-0.015794,20.885,20.8926,-1.33615,12.0301,21.8071,20.8876,-2.2532,23.614,213,1.87644,2.9351,-0.1,2030
0,0,0,3.71813e-10,3.88313e-10,-0.0162219,20.1985,20.1985,-2.6324,12.7934,21.5764,20.1985,-4.01033,24.9264,213,1.00669,1.96245,-0.1,2031
0,0,0,1.3641e-05,4.94083e-07,-0.0156834,21.1252,21.1067,-0.966903,12.2791,22.3475,21.1283,-2.21075,23.9719,213,19.2303,2.89083,-0.1,2032
0,0,0,1.81708e-08,1.72801e-06,-0.0154176,21.5221,21.5245,-0.176727,12.3621,23.0357,21.5228,-1.6886,24.0036,213,19.2303,3.84992,-0.1,2033
0,0,0,-3.77586e-08,-4.24593e-06,-0.0160601,20.4572,20.4513,-2.14585,12.6915,21.8457,20.4542,-3.5373,24.7167,213,19.0933,1.96245,-0.1,2034
0,0,0,4.18451e-10,3.01823e-10,-0.0159724,20.6083,20.6083,-1.87135,12.1386,21.507,20.6083,-2.77008,23.8405,213,18.2236,2.9351,-0.1,2035
0,0,0,2.32462e-05,-9.92748e-07,-0.015262,21.8439,21.8098,0.331288,12.0836,23.159,21.8341,-1.00812,23.5327,213,19.2303,4.80901,-0.1,2036
0,0,0,1.84707e-05,-5.51133e-07,-0.0151449,22.0225,21.9957,0.681493,12.0909,23.4277,22.0261,-0.754109,23.5124,213,19.3501,6.38977,-0.1,2037
0,0,0,3.07107e-06,6.93779e-07,-0.0153192,21.6912,21.6879,0.126486,12.0591,22.9669,21.6901,-1.15139,23.5059,213,19.3501,7.34886,-0.1,2038
0,0,0,6.30314e-06,-4.64053e-07,-0.0164479,19.8459,19.8364,-3.31188,12.1789,20.4412,19.8457,-3.91648,24.0655,213,17.9417,4.67454,-0.1,2039
0,0,0,7.14533e-10,1.48841e-10,-0.0156127,21.1989,21.1989,-0.774455,12.1823,22.3945,21.1989,-1.97005,23.7893,213,18.8115,5.62007,-0.1,2040
0,0,0,3.39906e-06,-3.14885e-07,-0.0162498,20.1627,20.1574,-2.71214,12.065,20.788,20.1619,-3.34198,23.8231,213,18.0616,6.25529,-0.1,2041
0,0,0,6.47386e-06,8.77872e-07,-0.0153993,21.5704,21.5625,-0.111832,12.0293,22.754,21.5716,-1.30458,23.4897,213,19.25,8.16441,-0.1,2042
0,0,0,1.48615e-05,-2.17751e-07,-0.0150867,22.1075,22.0863,0.853451,12.0857,23.5565,22.1057,-0.61494,23.4797,213,19.25,9.1235,-0.1,2043
0,0,0,4.68036e-10,6.78924e-11,-0.0159478,20.6487,20.6487,-1.79633,12.0686,21.4947,20.6487,-2.64237,23.7254,213,18.5001,7.84054,-0.1,2044
0,0,0,1.07022e-05,3.72814e-07,-0.0156099,21.2367,21.2222,-0.747811,12.2367,22.4739,21.2367,-1.99954,23.8789,213,18.9734,10.0705,-0.1,2045
0,0,0,1.08714e-05,-1.10248e-07,-0.0156545,21.1633,21.1478,-0.884221,12.2559,22.3874,21.164,-2.12446,23.9236,213,18.9734,11.0295,-0.1,2046
0,0,0,9.75055e-06,-3.88091e-08,-0.0165531,19.6844,19.6706,-3.62638,12.2826,20.3046,19.6845,-4.26049,24.261,213,18.1234,9.60305,-0.1,2047
0,0,0,1.42818e-05,-3.59353e-07,-0.0154053,21.5823,21.5617,-0.119381,12.2781,23.0004,21.5799,-1.55568,23.8776,213,19.2336,11.9815,-0.1,2048
0,0,0,5.85556e-06,4.47988e-07,-0.0155401,21.3367,21.329,-0.542851,12.1224,22.5149,21.338,-1.72998,23.6783,213,19.2336,12.9406,-0.1,2049
0,0,0,8.51422e-06,-9.08549e-08,-0.0164407,19.8652,19.8531,-3.28551,12.2079,20.4916,19.8653,-3.92416,24.1087,213,18.107,11.5019,-0.1,2050
0,0,0,4.17183e-06,9.19507e-07,-0.0153846,21.5877,21.5831,-0.0705888,12.084,22.8412,21.5859,-1.32682,23.5654,213,19.3417,13.7665,-0.1,2051
0,0,0,1.87989e-05,2.9827e-07,-0.0151527,22.012,21.986,0.659585,12.0675,23.3878,22.0168,-0.747075,23.4794,213,19.3417,14.7256,-0.1,2052
0,0,0,4.65057e-10,9.45469e-11,-0.0158238,20.8522,20.8522,-1.41841,11.9923,21.7092,20.8522,-2.27537,23.5677,213,18.4753,13.2798,-0.1,2053
0,0,0,1.04203e-05,4.48384e-07,-0.0155568,21.3232,21.3091,-0.586234,12.1151,22.4796,21.317,-1.75059,23.6703,213,19.2276,16.3075,-0.1,2054
0,0,0,-9.55038e-08,-8.31465e-07,-0.0154807,21.4139,21.4129,-0.373662,12.2161,22.7279,21.4295,-1.70426,23.8095,213,19.2276,17.2666,-0.1,2055
0,0,0,1.04895e-06,3.08856e-06,-0.0154549,21.4662,21.469,-0.2867,12.0654,22.6583,21.4626,-1.47243,23.5557,213,18.8832,15.4608,-0.1,2056
0,0,0,4.29178e-10,2.60373e-10,-0.0159297,20.6784,20.6784,-1.74113,11.8979,21.3665,20.6784,-2.42922,23.4592,213,18.0108,16.4229,-0.1,2057
0,0,0,6.33835e-06,6.22489e-07,-0.0164603,19.8275,19.8194,-3.34777,12.2392,20.4761,19.8253,-4.00229,24.1596,213,18.1249,14.841,-0.1,2058
0,0,0,7.50386e-10,1.22899e-10,-0.0155802,21.2522,21.2522,-0.675458,12.3485,22.6369,21.2522,-2.06015,24.0346,213,19.2276,18.2257,-0.1,2059
0,0,0,2.27901e-05,1.05746e-06,-0.0168514,19.2362,19.2056,-4.51272,12.4941,19.8516,19.2139,-5.13647,24.6754,213,18.155,18.1186,-0.1,2060
0,0,0,-1.47091e-06,1.75597e-06,-0.0154955,21.3897,21.3942,-0.416767,12.1296,22.6224,21.3815,-1.63673,23.6631,213,19.0274,19.0747,-0.1,2061
0,0,0,3.61774e-10,1.81963e-10,-0.0152842,21.7383,21.7383,0.227284,11.7163,22.699,21.7383,-0.733459,22.9672,213,18.4494,19.4388,-0.1,2062
0,0,0,9.82615e-11,7.63374e-10,-0.0149609,22.2692,22.2692,1.21315,11.5718,23.3129,22.2692,0.169409,22.6397,213,17.3547,20.2967,-0.1,2063
0,0,0,-1.05664e-06,1.57111e-07,-0.0149184,22.336,22.3377,1.34129,11.4763,23.3102,22.3472,0.357595,22.4866,213,16.441,20.2967,-0.1,2064
0,0,0,-3.23481e-06,-2.15627e-06,-0.0150283,22.145,22.1465,0.9985,11.5275,23.1039,22.1372,0.0489527,22.5871,213,18.1137,20.0338,-0.1,2065
0,0,0,7.53939e-07,2.6915e-05,-0.0150555,22.1603,22.1971,0.970038,11.1411,22.7168,22.1761,0.434514,22.0169,213,17.1957,19.2305,-0.1,2066
0,0,0,-5.61366e-07,6.8896e-06,-0.0149079,22.3658,22.3763,1.38511,11.3487,23.2252,22.3743,0.52773,22.2842,213,15.5274,20.2967,-0.1,2067
0,0,0,-5.38191e-07,1.98862e-05,-0.0149697,22.2856,22.3144,1.21786,11.601,23.3512,22.3173,0.149289,22.7027,213,14.0239,20.3931,-0.1,2068
0,0,0,4.41449e-07,1.75686e-05,-0.0148582,22.4679,22.492,1.55566,11.7407,23.7546,22.4878,0.273191,22.8743,213,13.1102,20.3931,-0.1,2069
0,0,0,3.67288e-06,1.49706e-06,-0.0149512,22.2987,22.2956,1.25108,11.5143,23.291,22.2919,0.262447,22.5456,213,14.714,19.9846,-0.1,2070
0,0,0,4.55534e-07,7.43846e-06,-0.0149659,22.2744,22.2842,1.21058,11.1767,22.92,22.2826,0.566545,22.0417,213,14.1197,19.2777,-0.1,2071
0,0,0,1.76656e-10,2.34451e-10,-0.015142,21.9718,21.9718,0.660893,11.3165,22.6329,21.9718,-0.000196517,22.3099,213,15.6232,19.1813,-0.1,2072
0,0,0,4.07836e-07,1.67454e-05,-0.0148826,22.4264,22.4494,1.47999,11.8045,23.7566,22.4517,0.147549,22.9844,213,12.5207,20.4638,-0.1,2073
0,0,0,-4.09987e-07,2.81984e-05,-0.0149654,22.3068,22.347,1.2449,11.7264,23.503,22.3454,0.0502667,22.8959,213,11.6071,20.4638,-0.1,2074
0,0,0,1.79356e-07,1.30836e-05,-0.0148755,22.4313,22.4495,1.49515,11.2076,23.171,22.449,0.755927,22.0629,213,12.84,19.7569,-0.1,2075
0,0,0,-1.40173e-07,2.61971e-05,-0.0150097,22.2316,22.2686,1.107,11.8099,23.4792,22.2686,-0.140648,23.0384,213,10.4364,20.5393,-0.1,2076
0,0,0,4.54205e-07,3.35533e-06,-0.0149025,22.3719,22.376,1.39745,11.7876,23.6722,22.3761,0.0970594,22.9545,213,9.52276,20.5393,-0.1,2077
0,0,0,3.62406e-08,6.49131e-06,-0.0149205,22.3463,22.3553,1.34702,11.2323,23.079,22.3552,0.614424,22.1116,213,10.4903,19.473,-0.1,2078
0,0,0,3.63953e-11,6.90306e-10,-0.014854,22.4447,22.4447,1.53906,11.6521,23.644,22.4447,0.339744,22.7284,213,11.0175,20.0336,-0.1,2079
0,0,0,-2.13241e-07,7.40194e-06,-0.0149862,22.2391,22.2498,1.1477,11.2462,22.9394,22.2501,0.447096,22.1557,213,11.6609,19.3975,-0.1,2080
0,0,0,-2.66302e-08,7.13571e-06,-0.0149506,22.2977,22.3078,1.25619,11.5146,23.2918,22.3074,0.262509,22.5532,213,8.59476,20.507,-0.1,2081
0,0,0,-3.78524e-08,2.51546e-05,-0.0149199,22.3776,22.413,1.37925,11.841,23.7184,22.4151,0.0363637,23.058,213,7.68112,20.507,-0.1,2082
0,0,0,1.40262e-08,4.51958e-06,-0.0148414,22.4728,22.4791,1.58486,11.3115,23.3403,22.4791,0.717383,22.2048,213,8.98116,19.9463,-0.1,2083
0,0,0,4.23346e-07,1.77056e-05,-0.0148737,22.4426,22.4669,1.50854,11.7507,23.7284,22.4627,0.226908,22.8949,213,6.98901,20.4079,-0.1,2084
0,0,0,-5.27183e-07,2.04621e-05,-0.0149924,22.2493,22.2788,1.14955,11.6237,23.3217,22.2817,0.0742351,22.7453,213,6.07538,20.4079,-0.1,2085
0,0,0,1.7658e-07,1.17989e-05,-0.0149275,22.3439,22.3602,1.33455,11.2638,23.1032,22.3598,0.57567,22.1652,213,7.36105,19.8149,-0.1,2086
0,0,0,-4.66072e-09,2.56669e-05,-0.0149736,22.2905,22.3266,1.21657,11.549,23.3063,22.3191,0.20824,22.6206,213,4.57261,20.2967,-0.1,2087
0,0,0,3.48724e-07,-3.06719e-09,-0.0148476,22.4562,22.4557,1.55913,11.5973,23.6051,22.4554,0.410542,22.6416,213,3.65897,20.2967,-0.1,2088
0,0,0,4.20273e-07,7.63421e-06,-0.0149723,22.2643,22.2744,1.19158,11.1828,22.9115,22.2728,0.545948,22.0532,213,5.97944,19.2888,-0.1,2089
0,0,0,9.02578e-11,5.89281e-10,-0.0149061,22.359,22.359,1.38002,11.5588,23.4283,22.359,0.310695,22.6019,213,5.38589,19.9809,-0.1,2090
0,0,0,-1.72066e-06,8.49257e-06,-0.0150797,22.0828,22.0972,0.86202,11.2313,22.7046,22.0954,0.242054,22.1642,213,4.47668,19.1776,-0.1,2091
0,0,0,-1.77879e-06,6.32713e-06,-0.0149023,22.3702,22.3816,1.39907,11.3206,23.2052,22.3817,0.563928,22.241,213,2.74534,20.2967,-0.1,2092
0,0,0,2.53477e-10,2.17873e-10,-0.0151347,21.9838,21.9838,0.683151,11.3972,22.7307,21.9838,-0.0637326,22.4303,213,2.90433,19.2305,-0.1,2093
0,0,0,-1.44234e-06,-3.41404e-07,-0.0150046,22.1923,22.1939,1.07671,11.4263,23.0618,22.1919,0.209218,22.4303,213,1.98626,20.0338,-0.1,2094
0,0,0,-1.32549e-08,2.41046e-07,-0.0153942,21.558,21.5583,-0.107933,10.8352,21.5602,21.5584,-0.110213,21.6695,213,10.4683,9.15645,-0.1,2095
0,0,0,7.26894e-11,8.46394e-11,-0.0153986,21.5504,21.5504,-0.121704,10.8435,21.5579,21.5504,-0.129169,21.6833,213,10.2916,8.19212,-0.1,2096
0,0,0,7.38099e-11,8.07238e-11,-0.0153969,21.5531,21.5531,-0.11661,10.8386,21.5569,21.5531,-0.120369,21.6753,213,9.83668,8.77727,-0.1,2097
0,0,0,1.69463e-07,-2.31683e-09,-0.0154001,21.5485,21.5483,-0.125868,10.8446,21.5559,21.5483,-0.133234,21.6853,213,9.14028,8.37564,-0.1,2098
0,0,0,1.06363e-08,4.52773e-07,-0.0153958,21.5557,21.5563,-0.112534,10.8364,21.558,21.5562,-0.114796,21.6719,213,9.31696,9.33997,-0.1,2099
0,0,0,7.39275e-11,6.74665e-11,-0.0153937,21.5584,21.5584,-0.106765,10.8349,21.5607,21.5584,-0.109056,21.6686,213,11.0264,9.65848,-0.1,2100
0,0,0,-1.52381e-07,2.47567e-08,-0.0153957,21.5547,21.5549,-0.113151,10.8398,21.5606,21.5549,-0.119023,21.6768,213,11.4814,9.07333,-0.1,2101
0,0,0,7.41075e-11,6.55724e-11,-0.0153928,21.5599,21.5599,-0.104048,10.8325,21.5604,21.5599,-0.104595,21.6648,213,10.6068,10.2587,-0.1,2102
0,0,0,-2.93397e-07,-1.41084e-08,-0.015394,21.5571,21.5575,-0.108119,10.8372,21.5619,21.5571,-0.112529,21.672,213,11.6199,10.1756,-0.1,2103
0,0,0,-6.24915e-08,1.72267e-07,-0.0153948,21.5567,21.557,-0.110051,10.8351,21.5586,21.5568,-0.111666,21.6693,213,9.12558,10.0436,-0.1,2104
0,0,0,2.00703e-07,-6.13832e-09,-0.0153968,21.5539,21.5536,-0.115992,10.8378,21.5567,21.5537,-0.11887,21.6741,213,8.88632,11.0789,-0.1,2105
0,0,0,7.46017e-11,6.505e-11,-0.0153935,21.5589,21.5589,-0.106007,10.8328,21.5592,21.5589,-0.106328,21.6654,213,9.77409,10.7769,-0.1,2106
0,0,0,2.03712e-08,-7.85966e-08,-0.0153939,21.5581,21.558,-0.107367,10.834,21.5593,21.558,-0.108635,21.6673,213,10.3676,11.294,-0.1,2107
0,0,0,6.23647e-07,-1.05085e-08,-0.015399,21.5517,21.5508,-0.121818,10.8417,21.5563,21.5515,-0.127097,21.681,213,8.42918,9.64196,-0.1,2108
0,0,0,-8.54161e-07,1.29418e-07,-0.0154123,21.5255,21.5269,-0.164703,10.9002,21.581,21.5262,-0.219485,21.7731,213,13.2486,14.3856,-0.1,2109
0,0,0,-4.16087e-07,1.25702e-07,-0.0154061,21.537,21.5377,-0.145159,10.8858,21.5818,21.5375,-0.189765,21.7495,213,12.3386,14.3979,-0.1,2110
0,0,0,8.68583e-11,1.73139e-10,-0.0154009,21.5466,21.5466,-0.128817,10.9168,21.6257,21.5466,-0.207943,21.7942,213,12.8195,15.2478,-0.1,2111
0,0,0,8.33391e-11,1.97719e-10,-0.0154195,21.516,21.516,-0.185558,10.966,21.6312,21.516,-0.300774,21.8746,213,12.4733,15.8827,-0.1,2112
0,0,0,-1.40903e-07,1.55793e-07,-0.015402,21.5446,21.545,-0.132174,10.9609,21.6672,21.5448,-0.254633,21.8609,213,13.3833,15.8703,-0.1,2113
0,0,0,2.57432e-06,-1.65167e-07,-0.0154086,21.5416,21.5377,-0.148235,10.9963,21.6924,21.539,-0.300254,21.9163,213,14.1096,16.1043,-0.1,2114
0,0,0,2.15551e-10,2.07599e-10,-0.0153833,21.5755,21.5755,-0.0750578,11.0241,21.7743,21.5755,-0.273869,21.9495,213,15.1144,16.2199,-0.1,2115
0,0,0,1.99614e-10,1.78536e-10,-0.0153903,21.564,21.564,-0.0963721,10.959,21.6929,21.564,-0.225236,21.854,213,14.7343,15.3511,-0.1,2116
0,0,0,2.23087e-10,1.50091e-10,-0.0154103,21.5313,21.5313,-0.157267,10.9906,21.6777,21.5313,-0.303621,21.9085,213,15.3481,14.8421,-0.1,2117
0,0,0,5.32575e-07,4.80098e-08,-0.0154254,21.508,21.5074,-0.202578,10.9447,21.5975,21.5072,-0.291938,21.8445,213,14.3434,14.7265,-0.1,2118
0,0,0,1.19364e-10,1.07666e-10,-0.0154238,21.509,21.509,-0.198533,10.9126,21.5678,21.509,-0.257356,21.7958,213,13.8624,13.8766,-0.1,2119
0,0,0,1.27923e-10,2.74973e-10,-0.0154873,21.4048,21.4048,-0.39207,11.1111,21.6174,21.4048,-0.604715,22.1166,213,13.7634,16.7392,-0.1,2120
0,0,0,8.53819e-11,1.60643e-10,-0.0154028,21.5435,21.5435,-0.134436,10.9057,21.6103,21.5435,-0.201208,21.7782,213,7.36369,14.98,-0.1,2121
0,0,0,8.49933e-11,1.39345e-10,-0.0154019,21.5451,21.5451,-0.131625,10.8795,21.5862,21.5451,-0.172771,21.7385,213,7.94328,14.3234,-0.1,2122
0,0,0,-8.63161e-07,7.79163e-08,-0.01542,21.5128,21.5141,-0.188134,10.9051,21.5679,21.5131,-0.242216,21.7828,213,6.76228,14.3002,-0.1,2123
0,0,0,-2.24032e-07,4.12174e-07,-0.0153972,21.5527,21.5536,-0.117155,10.9454,21.6634,21.5531,-0.227371,21.8358,213,6.6378,15.6798,-0.1,2124
0,0,0,8.338e-11,1.84781e-10,-0.0153897,21.565,21.565,-0.0945254,10.9306,21.6658,21.565,-0.195375,21.811,213,7.8188,15.7029,-0.1,2125
0,0,0,2.30183e-08,-3.00927e-07,-0.0154187,21.517,21.5166,-0.183318,10.8956,21.5622,21.5169,-0.228881,21.7685,213,6.42045,13.291,-0.1,2126
0,0,0,-1.28339e-06,2.02205e-07,-0.0154258,21.5022,21.5043,-0.206328,10.9263,21.575,21.5028,-0.277572,21.8165,213,5.84086,13.9476,-0.1,2127
0,0,0,1.89964e-10,9.37288e-11,-0.0154236,21.5094,21.5094,-0.197913,10.9522,21.608,21.5094,-0.296472,21.8553,213,5.16395,13.5852,-0.1,2128
0,0,0,7.45106e-07,-5.74231e-07,-0.0154214,21.5143,21.5124,-0.190981,10.9483,21.6097,21.5128,-0.286816,21.8482,213,5.50578,14.5945,-0.1,2129
0,0,0,1.41057e-07,3.07665e-06,-0.0153408,21.6508,21.6549,0.0598177,10.923,21.7791,21.6534,-0.0669955,21.7835,213,5.23253,15.2034,-0.1,2130
0,0,0,3.86725e-07,1.53971e-07,-0.0153674,21.6031,21.6028,-0.0255695,11.0188,21.8076,21.6026,-0.229885,21.9357,213,4.89598,16.2167,-0.1,2131
0,0,0,1.51206e-10,2.47065e-10,-0.015408,21.5349,21.5349,-0.150469,10.991,21.6832,21.5349,-0.298817,21.9083,213,5.84614,15.9702,-0.1,2132
0,0,0,2.33493e-10,1.4936e-10,-0.0153949,21.5565,21.5565,-0.110336,10.996,21.7191,21.5565,-0.272936,21.9112,213,4.55562,14.841,-0.1,2133
0,0,0,-1.05027e-07,1.55425e-06,-0.0155547,21.2964,21.2987,-0.59523,11.1486,21.4992,21.2985,-0.797903,22.1975,213,6.30125,16.6931,-0.1,2134
0,0,0,1.27857e-10,1.62412e-10,-0.0154297,21.4993,21.4993,-0.216568,10.9478,21.5892,21.4993,-0.306444,21.8508,213,13.1899,5.40494,-0.1,2135
0,0,0,1.23497e-06,-3.78655e-07,-0.0154227,21.5139,21.5116,-0.19391,10.9096,21.5693,21.5121,-0.249793,21.7905,213,12.5778,6.05051,-0.1,2136
0,0,0,1.37678e-10,1.42014e-10,-0.0154279,21.5023,21.5023,-0.210955,10.9223,21.5679,21.5023,-0.276585,21.8118,213,13.6816,6.33493,-0.1,2137
0,0,0,1.3397e-10,1.75914e-10,-0.0154375,21.4866,21.4866,-0.240228,10.9843,21.6075,21.4866,-0.36109,21.9084,213,13.865,5.08198,-0.1,2138
0,0,0,4.33217e-07,2.83766e-06,-0.0154177,21.5251,21.5285,-0.174452,10.9643,21.6393,21.5291,-0.289243,21.8736,213,12.7612,4.79756,-0.1,2139
0,0,0,1.5685e-10,1.74991e-10,-0.0154418,21.4794,21.4794,-0.253568,11.0207,21.6337,21.4794,-0.40782,21.9648,213,14.5448,4.85209,-0.1,2140
0,0,0,-4.13753e-07,-1.66717e-07,-0.015405,21.5384,21.5387,-0.142178,11.0252,21.7237,21.5379,-0.32667,21.9581,213,14.1162,4.24471,-0.1,2141
0,0,0,1.71337e-10,1.66917e-10,-0.0154309,21.4974,21.4974,-0.220119,11.0208,21.6594,21.4974,-0.382156,21.961,213,15.1534,5.23591,-0.1,2142
0,0,0,-3.28537e-07,-7.92419e-07,-0.015433,21.4916,21.491,-0.228432,11.0861,21.7172,21.492,-0.455016,22.0605,213,15.4046,4.39864,-0.1,2143
0,0,0,1.59637e-10,1.34659e-10,-0.0154274,21.5031,21.5031,-0.209614,10.9504,21.5971,21.5031,-0.30361,21.8539,213,14.6134,6.47247,-0.1,2144
0,0,0,-9.76462e-07,3.62867e-07,-0.015415,21.5211,21.523,-0.172752,10.9862,21.6613,21.5212,-0.311087,21.9026,213,15.4469,6.69236,-0.1,2145
0,0,0,1.72555e-10,1.45246e-10,-0.0154247,21.5076,21.5076,-0.201192,10.9896,21.6428,21.5076,-0.336438,21.912,213,15.1271,5.90926,-0.1,2146
0,0,0,-1.55311e-06,-9.59246e-09,-0.0154062,21.5333,21.5354,-0.147284,11.0573,21.7512,21.5337,-0.363452,22.0067,213,15.9869,5.4558,-0.1,2147
0,0,0,-1.17892e-07,1.34675e-06,-0.0154162,21.5234,21.5255,-0.173204,10.9082,21.5839,21.5244,-0.232562,21.7868,213,14.0014,7.11804,-0.1,2148
0,0,0,-8.68696e-08,1.09129e-06,-0.0154191,21.5183,21.5199,-0.18256,10.9915,21.66,21.5188,-0.323094,21.9128,213,4.86278,5.95279,-0.1,2149
0,0,0,1.50675e-06,1.97431e-07,-0.0153818,21.583,21.5811,-0.0675596,10.959,21.7156,21.5834,-0.202458,21.8523,213,4.60816,6.93972,-0.1,2150
0,0,0,1.65919e-10,1.30739e-10,-0.0154245,21.5078,21.5078,-0.200816,10.9484,21.6018,21.5078,-0.294859,21.8498,213,5.38533,6.7153,-0.1,2151
0,0,0,-1.58487e-07,1.30993e-06,-0.0154217,21.5142,21.5163,-0.190133,10.9109,21.5737,21.5147,-0.248074,21.7924,213,6.04765,7.39069,-0.1,2152
0,0,0,1.43624e-10,1.33883e-10,-0.015433,21.494,21.494,-0.226517,10.9273,21.561,21.494,-0.293548,21.8211,213,6.30227,6.40376,-0.1,2153
0,0,0,2.20442e-07,5.15947e-07,-0.0154435,21.4781,21.4786,-0.257504,10.9839,21.5945,21.4779,-0.373226,21.9097,213,6.16861,5.1575,-0.1,2154
0,0,0,1.51011e-10,2.47952e-10,-0.0154272,21.5034,21.5034,-0.209024,11.0393,21.6865,21.5034,-0.392139,21.9877,213,5.97922,4.31292,-0.1,2155
0,0,0,2.97344e-06,2.41965e-07,-0.0154499,21.4757,21.4718,-0.272792,11.027,21.6271,21.4744,-0.426853,21.978,213,5.45056,4.8838,-0.1,2156
0,0,0,6.69661e-07,8.53865e-07,-0.0154281,21.5054,21.5057,-0.209086,11.0787,21.7275,21.5045,-0.429945,22.0468,213,4.69954,4.46543,-0.1,2157
0,0,0,2.27669e-10,1.82205e-10,-0.0154465,21.4718,21.4718,-0.267673,11.0314,21.6335,21.4718,-0.42936,21.9824,213,4.88893,5.31001,-0.1,2158
0,0,0,2.56161e-10,1.69647e-10,-0.0154056,21.539,21.539,-0.142937,11.0607,21.7587,21.539,-0.362647,22.0123,213,4.11177,5.53442,-0.1,2159
0,0,0,3.11967e-07,4.74515e-08,-0.0154287,21.5021,21.5017,-0.212765,10.9088,21.5535,21.5016,-0.264125,21.7918,213,7.08916,6.39357,-0.1,2160
0,0,0,-4.22557e-09,2.25944e-06,-0.0154382,21.4891,21.4923,-0.238746,10.9482,21.5739,21.4913,-0.322529,21.8552,213,6.42684,5.71818,-0.1,2161
0,0,0,1.12993e-10,2.04281e-10,-0.0154247,21.5075,21.5075,-0.201342,10.9572,21.6103,21.5075,-0.304124,21.8632,213,6.95549,5.14731,-0.1,2162
0,0,0,-6.69816e-08,6.82343e-08,-0.0153825,21.5768,21.577,-0.072559,10.8874,21.6397,21.5768,-0.135195,21.7435,213,5.63076,10.4651,-0.1,2163
0,0,0,1.63031e-10,6.57263e-11,-0.0153939,21.5581,21.5581,-0.107504,10.8785,21.6038,21.5581,-0.153189,21.7342,213,6.02918,9.88546,-0.1,2164
0,0,0,1.83858e-10,6.47354e-11,-0.0153668,21.6026,21.6026,-0.0247885,10.9043,21.6932,21.6026,-0.115386,21.7634,213,5.10012,9.93243,-0.1,2165
0,0,0,-1.46643e-06,-4.79746e-10,-0.0153836,21.5706,21.5726,-0.0783717,10.9112,21.6582,21.5707,-0.164144,21.7788,213,5.1461,11.0024,-0.1,2166
0,0,0,-5.50407e-07,1.77351e-07,-0.015403,21.5418,21.5428,-0.135768,10.8829,21.5864,21.5418,-0.17938,21.7435,213,6.07515,10.9554,-0.1,2167
0,0,0,4.83859e-06,5.11767e-09,-0.0152893,21.7446,21.7378,0.219483,10.9884,21.967,21.7446,-0.00972921,21.8664,213,3.70339,10.4928,-0.1,2168
0,0,0,-2.1946e-06,-1.31061e-08,-0.0153694,21.5916,21.5947,-0.0363661,10.9795,21.7588,21.5914,-0.200293,21.8759,213,4.21928,11.038,-0.1,2169
0,0,0,-1.70495e-06,4.51147e-08,-0.0153401,21.6413,21.6438,0.0539666,10.9647,21.8137,21.6412,-0.115819,21.8438,213,4.18582,9.96686,-0.1,2170
0,0,0,3.48847e-08,7.31917e-07,-0.0153922,21.5622,21.5631,-0.101059,10.9553,21.6863,21.5624,-0.224389,21.849,213,4.66367,11.5283,-0.1,2171
0,0,0,1.97224e-10,6.71917e-11,-0.0153426,21.6423,21.6423,0.0489493,10.9262,21.7719,21.6423,-0.0806231,21.788,213,4.58424,9.38718,-0.1,2172
0,0,0,1.45612e-06,-4.40861e-08,-0.0153576,21.6222,21.6201,0.00578668,10.9684,21.7813,21.6222,-0.155433,21.8576,213,15.9249,11.1547,-0.1,2173
0,0,0,1.26961e-06,4.92256e-07,-0.0156123,21.2042,21.2031,-0.770441,11.3438,21.5602,21.2041,-1.12743,22.5117,213,17.0419,11.2204,-0.1,2174
0,0,0,3.90408e-10,6.24843e-11,-0.0154878,21.404,21.404,-0.393636,11.2036,21.7087,21.404,-0.698384,22.2563,213,16.7299,10.4843,-0.1,2175
0,0,0,6.33693e-07,-7.9717e-08,-0.0156497,21.1398,21.1388,-0.88661,11.4529,21.579,21.1398,-1.3268,22.6894,213,17.328,9.87856,-0.1,2176
0,0,0,1.4539e-06,3.66609e-08,-0.0153661,21.6083,21.6063,-0.0201408,11.0193,21.8124,21.6084,-0.226303,21.9374,213,16.2111,9.81287,-0.1,2177
0,0,0,-2.4945e-06,-6.50669e-10,-0.015336,21.6455,21.649,0.0649708,10.9151,21.772,21.6456,-0.0581067,21.7672,213,15.4604,9.63674,-0.1,2178
0,0,0,-3.25282e-07,1.16378e-07,-0.0153514,21.6271,21.6277,0.0217965,10.8715,21.6963,21.6271,-0.0467185,21.7085,213,14.6015,9.46397,-0.1,2179
0,0,0,1.62372e-10,6.41614e-11,-0.0153457,21.6373,21.6373,0.0396477,10.8755,21.7139,21.6373,-0.0369947,21.7127,213,14.754,10.2459,-0.1,2180
0,0,0,2.45412e-10,6.98624e-11,-0.0153845,21.5736,21.5736,-0.0786807,11.0188,21.7663,21.5736,-0.271352,21.9419,213,16.0586,9.03098,-0.1,2181
0,0,0,-9.50486e-07,-1.58594e-08,-0.0153513,21.6252,21.6265,0.021052,10.9004,21.7241,21.6253,-0.0766418,21.7515,213,15.1148,10.8688,-0.1,2182
0,0,0,1.90128e-10,6.65511e-11,-0.0153827,21.5766,21.5766,-0.0731418,10.9468,21.6985,21.5766,-0.195085,21.8329,213,15.4268,11.6048,-0.1,2183
0,0,0,1.50298e-10,6.37407e-11,-0.0153717,21.5946,21.5946,-0.0396751,10.8698,21.6473,21.5946,-0.0923771,21.7134,213,14.2558,10.696,-0.1,2184
0,0,0,1.63674e-07,3.61437e-06,-0.0152958,21.7256,21.7305,0.197966,10.9811,21.9428,21.7307,-0.0194792,21.857,213,10.6651,3.78315,-0.1,2185
0,0,0,2.33597e-07,7.69808e-07,-0.0156672,21.1114,21.1121,-0.93909,11.5053,21.5915,21.1121,-1.41917,22.7747,213,10.6651,2.6491,-0.1,2186
0,0,0,6.52635e-11,4.25454e-10,-0.0154192,21.5166,21.5166,-0.184493,11.1881,21.8542,21.5166,-0.522079,22.2094,213,10.05,3.21001,-0.1,2187
0,0,0,-2.1012e-07,5.2459e-07,-0.0156349,21.1627,21.1637,-0.841667,11.5052,21.6658,21.1637,-1.34473,22.7636,213,9.38382,2.6101,-0.1,2188
0,0,0,-4.16923e-07,2.55957e-06,-0.0152179,21.85,21.8542,0.432736,10.9342,22.0756,21.8543,0.207065,21.7587,213,9.38382,3.74415,-0.1,2189
0,0,0,6.95404e-11,1.64491e-10,-0.0154049,21.5401,21.5401,-0.140759,10.9254,21.6251,21.5401,-0.225723,21.8084,213,10.0763,5.19595,-0.1,2190
0,0,0,6.91051e-11,1.52867e-10,-0.015417,21.5201,21.5201,-0.177945,10.9148,21.5859,21.5201,-0.243726,21.7968,213,11.0943,5.58418,-0.1,2191
0,0,0,-1.16832e-07,1.85853e-06,-0.0153892,21.5686,21.5713,-0.0901266,10.9405,21.6798,21.5712,-0.201218,21.8269,213,11.0681,4.73229,-0.1,2192
0,0,0,4.12528e-07,1.22045e-07,-0.0154269,21.5054,21.505,-0.207091,11.0307,21.6799,21.5049,-0.381521,21.9745,213,11.6832,4.17138,-0.1,2193
0,0,0,-2.81017e-08,1.33628e-06,-0.0153485,21.6349,21.6368,0.0333696,10.9307,21.7648,21.6368,-0.0965328,21.7976,213,9.1677,4.4918,-0.1,2194
0,0,0,7.1208e-11,1.60291e-10,-0.0153957,21.5552,21.5552,-0.112713,10.911,21.6323,21.5552,-0.189767,21.7836,213,9.19395,5.34369,-0.1,2195
0,0,0,6.15357e-07,-9.51446e-08,-0.0153857,21.5733,21.5723,-0.0815994,11.0418,21.7877,21.5723,-0.296008,21.9768,213,8.50153,3.89189,-0.1,2196
0,0,0,5.60982e-11,2.85317e-10,-0.0157945,20.9004,20.9004,-1.32886,11.5342,21.3199,20.9004,-1.74838,22.8614,213,9.57701,18.0391,-0.1,2197
0,0,0,5.10945e-11,2.77151e-10,-0.0154844,21.4095,21.4095,-0.383429,11.5015,22.0145,21.4095,-0.988447,22.7065,213,10.0823,18.8522,-0.1,2198
0,0,0,-2.41889e-07,9.26981e-08,-0.0157337,20.9995,21,-1.14391,11.5196,21.4474,21,-1.59178,22.8188,213,10.5661,18.1541,-0.1,2199
0,0,0,-3.71807e-08,-2.14136e-06,-0.0156698,21.1015,21.0986,-0.952131,11.2773,21.3519,21.0987,-1.20264,22.429,213,9.30329,17.0938,-0.1,2200
0,0,0,5.96047e-11,2.87823e-10,-0.0157797,20.9246,20.9246,-1.28386,11.4744,21.2948,20.9246,-1.65407,22.766,213,8.81947,17.7918,-0.1,2201
0,0,0,7.89439e-07,-1.68184e-07,-0.015705,21.0495,21.0482,-1.05485,11.4695,21.4668,21.0482,-1.47214,22.7325,213,11.3723,18.0107,-0.1,2202
0,0,0,1.11659e-08,-2.14432e-06,-0.0157274,21.007,21.004,-1.12787,11.3296,21.2691,21.004,-1.39004,22.5278,213,10.867,17.1976,-0.1,2203
0,0,0,6.39632e-11,2.42835e-10,-0.0154731,21.428,21.428,-0.34894,11.064,21.6035,21.428,-0.524428,22.0407,213,10.1035,16.5356,-0.1,2204
0,0,0,4.42272e-08,-1.56523e-06,-0.015393,21.5572,21.555,-0.106998,10.9746,21.6997,21.5549,-0.249427,21.8771,213,9.346,16.2883,-0.1,2205
0,0,0,6.45674e-11,2.30224e-10,-0.0154465,21.4718,21.4718,-0.26774,11.025,21.627,21.4718,-0.422953,21.9728,213,10.9097,16.3922,-0.1,2206
0,0,0,2.80034e-10,2.68778e-10,-0.0154223,21.5115,21.5115,-0.194015,11.1602,21.819,21.5115,-0.501506,22.1684,213,3.91843,16.4931,-0.1,2207
0,0,0,1.3706e-07,3.53159e-06,-0.0153684,21.6062,21.611,-0.0236145,11.156,21.9486,21.6085,-0.363504,22.144,213,3.35259,15.5012,-0.1,2208
0,0,0,3.32807e-10,2.65744e-10,-0.0155765,21.2582,21.2582,-0.664284,11.4204,21.7174,21.2582,-1.12349,22.6148,213,2.98865,16.5444,-0.1,2209
0,0,0,-8.7275e-07,-1.9788e-06,-0.0161001,20.3926,20.3911,-2.26554,11.9367,20.9977,20.3963,-2.87581,23.5785,213,2.6496,17.4029,-0.1,2210
0,0,0,1.59953e-10,2.67276e-10,-0.0157601,20.9569,20.9569,-1.22402,11.5758,21.4422,20.9569,-1.70935,22.9128,213,4.42222,18.199,-0.1,2211
0,0,0,-1.96797e-06,-3.51471e-08,-0.0157668,20.9398,20.9425,-1.24774,11.4984,21.3447,20.942,-1.65215,22.7982,213,5.39977,17.9226,-0.1,2212
0,0,0,-4.07894e-08,-1.34416e-07,-0.0157775,20.9279,20.9278,-1.27736,11.4389,21.2642,20.9277,-1.61358,22.7114,213,4.53204,17.2598,-0.1,2213
0,0,0,-4.5683e-06,-2.40254e-08,-0.0156993,21.0428,21.0491,-1.04608,11.6153,21.6142,21.048,-1.61643,22.9528,213,3.60894,18.5148,-0.1,2214
0,0,0,-1.5972e-06,1.37809e-07,-0.0159348,20.6654,20.6678,-1.75913,11.8433,21.2975,20.6658,-2.3892,23.3772,213,2.84987,18.2519,-0.1,2215
0,0,0,1.73274e-06,-3.47587e-07,-0.01558,21.2573,21.2544,-0.672542,11.4155,21.707,21.2562,-1.12397,22.6089,213,17.1059,16.5562,-0.1,2216
0,0,0,3.72263e-10,1.74135e-10,-0.0154354,21.49,21.49,-0.233918,11.1951,21.8232,21.49,-0.56708,22.2255,213,16.7027,15.5214,-0.1,2217
0,0,0,3.50713e-06,-3.21812e-07,-0.0153816,21.5885,21.5831,-0.0645376,11.1187,21.8791,21.5863,-0.358342,22.0925,213,16.1423,16.5015,-0.1,2218
0,0,0,4.2104e-10,2.65899e-10,-0.0158216,20.8559,20.8559,-1.41147,11.7246,21.4468,20.8559,-2.00241,23.1594,213,17.4504,17.4029,-0.1,2219
0,0,0,-2.97102e-07,-3.2825e-06,-0.015653,21.1265,21.1223,-0.90322,11.3435,21.4552,21.1222,-1.23179,22.5223,213,15.5176,17.2547,-0.1,2220
0,0,0,1.41491e-10,2.70374e-10,-0.0158233,20.853,20.853,-1.4168,11.5423,21.2604,20.853,-1.82419,22.8836,213,14.6498,17.9211,-0.1,2221
0,0,0,-2.94863e-06,-9.72613e-07,-0.0158437,20.809,20.8117,-1.48543,11.6348,21.2956,20.8137,-1.97407,23.0325,213,15.6777,18.2027,-0.1,2222
0,0,0,2.23804e-10,2.3275e-10,-0.0157927,20.9033,20.9033,-1.32348,11.6904,21.4804,20.9033,-1.90054,23.0978,213,16.4911,18.5148,-0.1,2223
0,0,0,2.25835e-07,4.65881e-07,-0.0159507,20.6453,20.6457,-1.80413,11.8515,21.272,20.646,-2.43111,23.3964,213,17.2501,18.2519,-0.1,2224
0,0,0,2.78324e-09,2.39087e-07,-0.0154006,21.5475,21.5479,-0.12741,10.8549,21.565,21.5479,-0.144869,21.7013,213,9.55397,13.541,-0.1,2225
0,0,0,7.91895e-11,1.37026e-10,-0.015396,21.5548,21.5548,-0.113616,10.8669,21.5875,21.5548,-0.146286,21.7174,213,8.64986,14.136,-0.1,2226
0,0,0,7.36341e-11,1.46461e-10,-0.0153922,21.5609,21.5609,-0.102246,10.8683,21.5976,21.5609,-0.138935,21.7182,213,9.44881,14.4082,-0.1,2227
0,0,0,7.27509e-11,1.72922e-10,-0.0153715,21.5949,21.5949,-0.0391486,10.892,21.6699,21.5949,-0.114103,21.7466,213,9.34547,15.3667,-0.1,2228
0,0,0,2.48553e-07,8.30473e-08,-0.0153891,21.5669,21.5666,-0.0922175,10.8787,21.6161,21.5666,-0.141328,21.7327,213,10.2496,14.7717,-0.1,2229
0,0,0,-1.76497e-07,7.54258e-07,-0.0153993,21.5499,21.5513,-0.122913,10.8771,21.5905,21.5514,-0.163643,21.7346,213,11.1312,14.5367,-0.1,2230
0,0,0,7.40476e-11,1.1074e-10,-0.0154048,21.5402,21.5402,-0.140702,10.8642,21.564,21.5402,-0.164479,21.7166,213,11.5603,13.6744,-0.1,2231
0,0,0,6.60808e-11,1.9754e-10,-0.0153935,21.5587,21.5587,-0.106228,10.9158,21.642,21.5587,-0.189524,21.79,213,11.0279,15.4952,-0.1,2232
0,0,0,-2.03442e-07,-1.66267e-07,-0.0154074,21.5351,21.5351,-0.149147,10.859,21.5521,21.5348,-0.165921,21.7094,213,12.0503,12.8948,-0.1,2233
0,0,0,2.02127e-08,-1.40538e-07,-0.0154021,21.5445,21.5443,-0.13256,10.8509,21.5569,21.5444,-0.145026,21.6957,213,10.8429,13.0335,-0.1,2234
0,0,0,-1.92313e-08,-2.55432e-07,-0.0153973,21.552,21.5517,-0.118293,10.8392,21.5561,21.5517,-0.122314,21.6762,213,10.4338,12.0331,-0.1,2235
0,0,0,7.3056e-11,7.88383e-11,-0.0153997,21.5486,21.5486,-0.125065,10.8462,21.5579,21.5486,-0.134398,21.6877,213,9.94388,12.8127,-0.1,2236
0,0,0,5.97544e-07,1.42524e-08,-0.0153994,21.551,21.5501,-0.123085,10.8452,21.559,21.5504,-0.131398,21.6861,213,9.14492,12.5405,-0.1,2237
0,0,0,2.66602e-06,-4.44054e-07,-0.015545,21.3173,21.313,-0.564624,11.3826,21.7573,21.3162,-1.00782,22.5478,213,17.0977,4.4641,-0.1,2238
0,0,0,4.31172e-10,2.59313e-10,-0.0156217,21.184,21.184,-0.802105,11.5881,21.7791,21.184,-1.39717,22.8845,213,17.5165,3.65304,-0.1,2239
0,0,0,-3.40904e-06,-2.23075e-07,-0.0154391,21.4732,21.4777,-0.251007,11.2026,21.8157,21.4737,-0.589558,22.2363,213,16.3428,4.11253,-0.1,2240
0,0,0,-2.84573e-07,2.84345e-06,-0.0154803,21.4201,21.4245,-0.366634,11.2409,21.7696,21.4206,-0.712243,22.3094,213,16.768,5.13403,-0.1,2241
0,0,0,-2.4527e-07,4.63091e-07,-0.0154883,21.4032,21.4041,-0.394838,11.3888,21.8931,21.4039,-0.884565,22.5371,213,15.7554,2.86633,-0.1,2242
0,0,0,1.67481e-10,4.12254e-10,-0.0153967,21.5535,21.5535,-0.115885,11.2208,21.9396,21.5535,-0.501992,22.2511,213,14.8172,3.15244,-0.1,2243
0,0,0,-1.6117e-07,3.5657e-06,-0.0153242,21.678,21.6832,0.110822,11.099,21.9943,21.6815,-0.203808,22.0434,213,15.7343,3.72871,-0.1,2244
0,0,0,2.75901e-10,4.3107e-10,-0.0155128,21.363,21.363,-0.469823,11.5377,21.9843,21.363,-1.0911,22.7711,213,16.5646,2.55394,-0.1,2245
0,0,0,-5.7831e-07,-8.86931e-07,-0.0155588,21.2842,21.2837,-0.612568,11.6578,21.994,21.2829,-1.32159,22.9683,213,17.3795,2.72466,-0.1,2246
0,0,0,3.5961e-10,2.91767e-10,-0.0156866,21.0775,21.0775,-0.999884,11.6425,21.6813,21.0775,-1.60366,22.989,213,2.58352,3.65304,-0.1,2247
0,0,0,3.46819e-10,2.48367e-10,-0.0155343,21.3275,21.3275,-0.53564,11.3836,21.7796,21.3275,-0.987701,22.5446,213,2.99652,4.46327,-0.1,2248
0,0,0,-8.90888e-07,3.16476e-06,-0.0154569,21.4571,21.4628,-0.295886,11.2176,21.8002,21.4588,-0.635012,22.2665,213,3.35171,5.18779,-0.1,2249
0,0,0,2.91971e-10,2.54779e-10,-0.0154418,21.4794,21.4794,-0.253511,11.2028,21.8157,21.4794,-0.589814,22.2393,213,3.78273,4.16712,-0.1,2250
0,0,0,2.55638e-10,3.04089e-10,-0.0154056,21.5389,21.5389,-0.143153,11.1663,21.8642,21.5389,-0.468422,22.1717,213,4.34435,3.74091,-0.1,2251
0,0,0,3.54006e-06,2.36165e-08,-0.0153779,21.5952,21.5903,-0.0527454,11.1999,21.9704,21.5919,-0.429536,22.2131,213,5.24885,3.16171,-0.1,2252
0,0,0,2.5356e-10,3.65591e-10,-0.0154656,21.4404,21.4404,-0.326008,11.3762,21.9334,21.4404,-0.81902,22.51,213,4.33204,2.8634,-0.1,2253
0,0,0,2.94556e-10,3.75666e-10,-0.0156558,21.128,21.128,-0.906147,11.649,21.7599,21.128,-1.53808,22.9886,213,3.53543,2.55394,-0.1,2254
0,0,0,3.49296e-10,3.58147e-10,-0.0155208,21.3497,21.3497,-0.494468,11.6477,22.0753,21.3497,-1.2201,22.9412,213,2.72046,2.72466,-0.1,2255
0,0,0,7.82483e-07,-7.4608e-08,-0.0154471,21.473,21.4718,-0.268505,11.1015,21.7031,21.4729,-0.499776,22.0887,213,16.4603,12.8083,-0.1,2256
0,0,0,-1.7252e-07,1.38935e-07,-0.0154122,21.5277,21.5282,-0.163329,10.9693,21.6517,21.5278,-0.286884,21.8769,213,15.401,12.3311,-0.1,2257
0,0,0,1.99912e-10,8.43602e-11,-0.0154348,21.4909,21.4909,-0.232209,11.0079,21.6372,21.4909,-0.37853,21.943,213,15.6243,13.2486,-0.1,2258
0,0,0,-2.0438e-06,-4.82102e-08,-0.0154288,21.4946,21.4974,-0.217143,10.9417,21.5817,21.4947,-0.301614,21.84,213,14.7611,13.4944,-0.1,2259
0,0,0,-5.85216e-07,1.07786e-06,-0.0154347,21.491,21.4934,-0.231115,11.0321,21.6627,21.4921,-0.40155,21.9795,213,15.8204,13.9716,-0.1,2260
0,0,0,2.2151e-06,8.87251e-08,-0.0153803,21.5873,21.5843,-0.0621475,11.0481,21.8097,21.5861,-0.286388,21.9852,213,16.2113,14.5962,-0.1,2261
0,0,0,3.13346e-06,2.98656e-08,-0.0155658,21.2854,21.2811,-0.626459,11.3551,21.6823,21.2857,-1.02796,22.5146,213,17.1749,14.651,-0.1,2262
0,0,0,-3.28688e-07,-6.0495e-07,-0.0156113,21.1991,21.1987,-0.771923,11.5175,21.7311,21.1986,-1.30385,22.7734,213,17.6335,13.9157,-0.1,2263
0,0,0,4.51906e-10,8.49362e-11,-0.0156135,21.1976,21.1976,-0.776879,11.4845,21.6949,21.1976,-1.27414,22.7244,213,17.5253,13.0898,-0.1,2264
0,0,0,4.47509e-10,7.32496e-11,-0.0156131,21.1982,21.1982,-0.775886,11.4132,21.6244,21.1982,-1.20204,22.6163,213,17.302,12.1723,-0.1,2265
0,0,0,-3.53553e-06,2.193e-07,-0.0155288,21.3263,21.3316,-0.524022,11.3398,21.7436,21.3263,-0.93596,22.4738,213,2.88709,14.5679,-0.1,2266
0,0,0,2.73652e-10,1.49863e-10,-0.0154228,21.5107,21.5107,-0.195505,11.0925,21.7501,21.5107,-0.434878,22.0662,213,3.81687,14.5166,-0.1,2267
0,0,0,8.41803e-07,2.62345e-06,-0.0156601,21.1279,21.1304,-0.913472,11.5729,21.6808,21.1289,-1.46494,22.8748,213,2.42638,13.8279,-0.1,2268
0,0,0,2.06806e-10,8.62986e-11,-0.0154186,21.5176,21.5176,-0.182581,11.0031,21.6706,21.5176,-0.335575,21.9301,213,4.4252,13.2609,-0.1,2269
0,0,0,2.02739e-10,7.87191e-11,-0.0154116,21.529,21.529,-0.161414,10.9762,21.66,21.529,-0.292369,21.8871,213,4.61795,12.2512,-0.1,2270
0,0,0,-4.14916e-06,-2.60102e-10,-0.0154286,21.4886,21.4944,-0.219876,11.1125,21.7498,21.4886,-0.475197,22.0955,213,3.54411,12.5737,-0.1,2271
0,0,0,-9.82887e-07,1.39189e-06,-0.0154257,21.5052,21.5085,-0.20366,11.0458,21.6977,21.5062,-0.393894,21.9965,213,4.09011,13.9077,-0.1,2272
0,0,0,-1.30393e-07,-3.8922e-07,-0.0155647,21.2767,21.2763,-0.628952,11.413,21.7367,21.2766,-1.08928,22.5995,213,2.73486,12.0089,-0.1,2273
0,0,0,-1.92987e-07,-1.36588e-07,-0.0155789,21.2536,21.2537,-0.671912,11.4712,21.7621,21.2537,-1.18039,22.6925,213,2.54211,13.0186,-0.1,2274
0,0,0,3.37313e-10,9.35953e-11,-0.0154261,21.5053,21.5053,-0.205496,11.1199,21.7698,21.5053,-0.470032,22.1088,213,3.61321,6.86079,-0.1,2275
0,0,0,-9.45303e-07,-5.66239e-07,-0.0154135,21.5221,21.5226,-0.169696,11.1741,21.851,21.5211,-0.497095,22.185,213,3.32556,5.83057,-0.1,2276
0,0,0,3.79347e-10,9.63228e-11,-0.0155305,21.3338,21.3338,-0.523901,11.3606,21.7656,21.3338,-0.955673,22.5085,213,2.85316,6.51416,-0.1,2277
0,0,0,-1.0392e-07,-7.73284e-07,-0.0157626,20.9511,20.9502,-1.23316,11.6769,21.5355,20.951,-1.81828,23.067,213,2.30876,7.29019,-0.1,2278
0,0,0,-8.21946e-08,-5.83942e-07,-0.015406,21.537,21.5363,-0.145461,11.0282,21.7238,21.5366,-0.332571,21.9634,213,4.13576,7.6233,-0.1,2279
0,0,0,3.77776e-06,-3.282e-08,-0.0153859,21.5828,21.5774,-0.076696,11.1122,21.8625,21.5829,-0.361882,22.0859,213,3.40537,8.48299,-0.1,2280
0,0,0,-1.019e-06,2.80464e-09,-0.0153571,21.6155,21.617,0.00332705,10.956,21.766,21.6157,-0.145945,21.8372,213,4.40032,8.56192,-0.1,2281
0,0,0,4.48651e-10,6.81983e-11,-0.0157646,20.9494,20.9494,-1.23781,11.6448,21.5006,20.9494,-1.78897,23.0189,213,2.409,8.13444,-0.1,2282
0,0,0,-2.63016e-07,-1.12413e-08,-0.0156269,21.1747,21.175,-0.818404,11.4711,21.6494,21.1746,-1.29273,22.7085,213,2.67356,9.07306,-0.1,2283
0,0,0,3.68769e-10,9.52894e-11,-0.0155519,21.2987,21.2987,-0.589247,11.3594,21.7142,21.2987,-1.00471,22.514,213,17.2006,6.52079,-0.1,2284
0,0,0,-2.80065e-07,-1.31951e-06,-0.0154433,21.474,21.4726,-0.26056,11.1907,21.7971,21.4732,-0.584264,22.2212,213,16.7418,5.80737,-0.1,2285
0,0,0,-3.16654e-06,2.52467e-07,-0.0154353,21.4808,21.4857,-0.238507,11.1062,21.7293,21.4818,-0.483124,22.0897,213,16.4195,6.84256,-0.1,2286
0,0,0,1.80238e-08,-6.91514e-07,-0.0157832,20.9179,20.9169,-1.29552,11.6632,21.4739,20.9178,-1.85251,23.0534,213,17.7393,7.29048,-0.1,2287
0,0,0,4.47912e-10,6.65404e-11,-0.0157849,20.9161,20.9161,-1.29964,11.6276,21.4358,20.9161,-1.81937,22.9997,213,17.6391,8.10604,-0.1,2288
0,0,0,-5.15064e-07,-7.71997e-09,-0.0154974,21.3866,21.3873,-0.423885,11.2149,21.6966,21.3866,-0.733184,22.2764,213,16.8437,8.38154,-0.1,2289
0,0,0,4.37106e-10,6.43639e-11,-0.0157134,21.0336,21.0336,-1.08152,11.5801,21.5561,21.0336,-1.60401,22.9033,213,17.6046,8.9316,-0.1,2290
0,0,0,1.85174e-07,-4.50747e-07,-0.0154077,21.5353,21.5344,-0.149945,11.02,21.7124,21.5348,-0.327491,21.9517,213,15.9058,7.40578,-0.1,2291
0,0,0,-2.06293e-06,4.8817e-08,-0.0153754,21.5823,21.5853,-0.0542475,10.9208,21.6862,21.5826,-0.155427,21.79,213,15.1206,8.05521,-0.1,2292
0,0,0,2.40374e-10,7.37976e-11,-0.0154059,21.5384,21.5384,-0.14394,11.0375,21.7348,21.5384,-0.340318,21.9776,213,16.0931,8.20541,-0.1,2293
0,0,0,1.14446e-10,7.72939e-11,-0.0154143,21.5247,21.5247,-0.16947,10.885,21.5626,21.5247,-0.207352,21.751,213,6.47703,12.4845,-0.1,2294
0,0,0,1.03548e-10,7.92879e-11,-0.0154112,21.5297,21.5297,-0.160117,10.8683,21.5531,21.5297,-0.183504,21.7249,213,7.39844,12.8371,-0.1,2295
0,0,0,1.16267e-10,7.12834e-11,-0.0154094,21.5327,21.5327,-0.154544,10.8774,21.5665,21.5327,-0.188331,21.7379,213,6.52276,11.7616,-0.1,2296
0,0,0,-1.81583e-06,-3.79192e-09,-0.0154143,21.5191,21.5216,-0.172563,10.913,21.5875,21.5192,-0.238525,21.7919,213,5.54476,12.2155,-0.1,2297
0,0,0,9.03697e-11,7.33104e-11,-0.0154028,21.5436,21.5436,-0.134409,10.8466,21.5512,21.5436,-0.141992,21.6894,213,8.49493,11.9214,-0.1,2298
0,0,0,9.62102e-11,6.92456e-11,-0.015405,21.5399,21.5399,-0.141206,10.8508,21.5501,21.5399,-0.151421,21.6964,213,7.84641,11.1881,-0.1,2299
0,0,0,9.18607e-11,7.81293e-11,-0.0154058,21.5386,21.5386,-0.143629,10.8557,21.5532,21.5386,-0.15825,21.7042,213,8.10502,12.6497,-0.1,2300
0,0,0,3.57689e-10,3.18682e-07,-0.0154041,21.5419,21.5424,-0.137869,10.8551,21.5574,21.5419,-0.152857,21.7025,213,7.39881,10.3819,-0.1,2301
0,0,0,1.10085e-10,6.81374e-11,-0.0154083,21.5345,21.5345,-0.151162,10.8645,21.5562,21.5345,-0.172863,21.7182,213,7.00742,11.2244,-0.1,2302
0,0,0,1.06374e-08,5.50335e-07,-0.0154075,21.5367,21.5374,-0.148021,10.8651,21.5594,21.5373,-0.170664,21.719,213,8.04844,13.4562,-0.1,2303
0,0,0,1.52886e-07,-3.39644e-06,-0.015655,21.1243,21.1193,-0.908818,11.5545,21.6622,21.1193,-1.44674,22.8423,213,13.9034,18.577,-0.1,2304
0,0,0,-5.95356e-07,-3.82582e-07,-0.0158169,20.8611,20.8614,-1.39885,11.4819,21.2128,20.8617,-1.75092,22.7902,213,13.7434,17.629,-0.1,2305
0,0,0,7.43635e-11,1.86907e-10,-0.015436,21.4889,21.4889,-0.235869,11.4977,22.1243,21.4889,-0.871225,22.6845,213,13.2133,18.9855,-0.1,2306
0,0,0,1.75878e-07,-9.73932e-07,-0.0157589,20.9577,20.9561,-1.22182,11.4368,21.3048,20.956,-1.56878,22.7012,213,12.3351,17.6695,-0.1,2307
0,0,0,7.68134e-11,2.80483e-10,-0.0156271,21.1752,21.1752,-0.818496,11.5589,21.7372,21.1752,-1.38053,22.8419,213,12.0342,18.6261,-0.1,2308
0,0,0,-4.44166e-07,-1.4143e-07,-0.0153636,21.6064,21.6068,-0.0157879,11.4621,22.2573,21.6069,-0.666796,22.6059,213,12.6237,19.0563,-0.1,2309
0,0,0,1.80436e-06,-3.33788e-08,-0.0157001,21.0607,21.0581,-1.03832,11.3533,21.3643,21.0586,-1.3424,22.5554,213,13.017,17.395,-0.1,2310
0,0,0,1.16058e-07,-3.14795e-06,-0.0154817,21.4091,21.4045,-0.380186,11.0944,21.6086,21.4049,-0.580137,22.0876,213,12.3551,16.7797,-0.1,2311
0,0,0,5.75894e-11,2.76261e-10,-0.0156692,21.1061,21.1061,-0.946831,11.5421,21.6218,21.1061,-1.4625,22.8308,213,8.0972,18.4799,-0.1,2312
0,0,0,-4.78441e-07,-2.65101e-07,-0.0157693,20.9399,20.9402,-1.25321,11.4238,21.2673,20.9401,-1.58042,22.6858,213,7.82349,17.5346,-0.1,2313
0,0,0,-5.06797e-07,-6.55241e-07,-0.0153294,21.6614,21.6611,0.0873049,11.4488,22.323,21.6613,-0.574501,22.5739,213,7.57719,19.0683,-0.1,2314
0,0,0,5.23804e-11,2.65475e-10,-0.0151883,21.8958,21.8958,0.519686,11.4059,22.6136,21.8958,-0.198135,22.4615,213,8.57317,19.3255,-0.1,2315
0,0,0,9.80576e-11,3.09571e-10,-0.0157835,20.9184,20.9184,-1.29539,11.4477,21.2592,20.9184,-1.63623,22.727,213,6.3054,17.6031,-0.1,2316
0,0,0,1.19693e-09,-2.82797e-06,-0.0156547,21.1253,21.1213,-0.907179,11.5555,21.6647,21.1212,-1.44642,22.8442,213,6.19558,18.5422,-0.1,2317
0,0,0,-9.00728e-07,2.82383e-07,-0.0154347,21.4889,21.4906,-0.232712,11.4951,22.1231,21.4907,-0.867044,22.6806,213,6.88508,18.9693,-0.1,2318
0,0,0,-3.56625e-07,9.68989e-09,-0.0156504,21.136,21.1365,-0.889984,11.3004,21.4237,21.1359,-1.17707,22.4582,213,7.09706,17.3127,-0.1,2319
0,0,0,6.21728e-08,-3.21596e-06,-0.0154422,21.4737,21.4691,-0.259802,11.0481,21.6548,21.4695,-0.441321,22.0041,213,7.81933,16.6246,-0.1,2320
0,0,0,7.89043e-08,1.78553e-06,-0.0153394,21.6508,21.6532,0.0618298,11.0671,21.9238,21.6525,-0.210449,21.9998,213,13.8667,3.56016,-0.1,2321
0,0,0,2.20981e-08,3.06669e-06,-0.0156126,21.2041,21.2084,-0.769226,11.4552,21.6726,21.2086,-1.23788,22.682,213,13.8879,2.69778,-0.1,2322
0,0,0,1.06244e-10,4.64769e-10,-0.0156467,21.143,21.143,-0.878361,11.6105,21.7428,21.143,-1.47819,22.927,213,13.1779,2.2562,-0.1,2323
0,0,0,-6.42246e-09,4.10407e-06,-0.0154463,21.4789,21.4847,-0.260276,11.2041,21.8135,21.4846,-0.594764,22.2456,213,12.1088,3.16387,-0.1,2324
0,0,0,9.04042e-11,3.18262e-10,-0.0154289,21.5006,21.5006,-0.214213,11.0426,21.6858,21.5006,-0.399368,21.9931,213,12.5118,4.11301,-0.1,2325
0,0,0,1.04185e-10,3.15553e-10,-0.0154363,21.4886,21.4886,-0.236572,11.101,21.727,21.4886,-0.475012,22.0838,213,13.1869,3.79004,-0.1,2326
0,0,0,1.91417e-07,-7.73256e-08,-0.0156571,21.1264,21.126,-0.909875,11.578,21.6863,21.126,-1.46976,22.8811,213,12.4222,2.37224,-0.1,2327
0,0,0,7.44661e-11,4.60343e-10,-0.0156674,21.1091,21.1091,-0.941278,11.5725,21.6564,21.1091,-1.48858,22.8762,213,11.5936,2.43061,-0.1,2328
0,0,0,1.08831e-07,-8.36442e-07,-0.0155666,21.2735,21.2721,-0.63527,11.4238,21.7429,21.2721,-1.10473,22.6159,213,6.12418,2.67723,-0.1,2329
0,0,0,1.53318e-10,2.98536e-10,-0.0154128,21.527,21.527,-0.165101,11.125,21.8059,21.527,-0.444043,22.1118,213,6.13649,3.55474,-0.1,2330
0,0,0,-9.71842e-07,-2.41274e-07,-0.0156921,21.0652,21.0662,-1.01864,11.6505,21.6739,21.0659,-1.62702,23.0029,213,6.82894,2.22972,-0.1,2331
0,0,0,1.85242e-06,-1.03231e-07,-0.0154474,21.4758,21.473,-0.26758,11.1045,21.7085,21.4732,-0.500498,22.0923,213,6.85454,3.82844,-0.1,2332
0,0,0,7.71695e-11,4.42125e-10,-0.0157853,20.9155,20.9155,-1.30075,11.6798,21.4872,20.9155,-1.8724,23.079,213,7.60141,2.33083,-0.1,2333
0,0,0,-2.97572e-09,2.04477e-06,-0.0155021,21.3838,21.3867,-0.433931,11.2655,21.7405,21.3866,-0.790554,22.3562,213,7.86473,3.10725,-0.1,2334
0,0,0,7.01192e-11,4.27066e-10,-0.0157723,20.9368,20.9368,-1.26122,11.6744,21.5122,20.9368,-1.83663,23.0665,213,8.45432,2.36782,-0.1,2335
0,0,0,8.49865e-11,3.30641e-10,-0.0154187,21.5174,21.5174,-0.183015,11.0707,21.7379,21.5174,-0.403526,22.032,213,7.64861,3.8549,-0.1,2336
0,0,0,1.57475e-08,3.96767e-06,-0.0154116,21.5356,21.5412,-0.154793,10.9746,21.6652,21.5409,-0.284095,21.8874,213,7.49134,4.61308,-0.1,2337
0,0,0,2.94437e-07,-1.96762e-07,-0.0154195,21.5166,21.5159,-0.185315,10.8979,21.5636,21.5158,-0.232196,21.7719,213,11.7256,6.14827,-0.1,2338
0,0,0,7.05439e-11,1.34956e-10,-0.0154131,21.5266,21.5266,-0.16592,10.8767,21.557,21.5266,-0.196367,21.7382,213,10.7338,6.61193,-0.1,2339
0,0,0,9.82556e-11,1.1043e-10,-0.0154159,21.5221,21.5221,-0.174317,10.877,21.5509,21.5221,-0.203114,21.7396,213,12.2173,7.07826,-0.1,2340
0,0,0,7.19932e-11,1.27176e-10,-0.0154073,21.5361,21.5361,-0.148311,10.8656,21.5595,21.5361,-0.171688,21.7195,213,9.88126,6.93039,-0.1,2341
0,0,0,1.15005e-09,1.35309e-06,-0.0154055,21.5413,21.5432,-0.140505,10.8549,21.5553,21.5433,-0.154567,21.7039,213,10.5126,7.49448,-0.1,2342
0,0,0,-1.42779e-07,-1.04425e-07,-0.0154014,21.5451,21.5452,-0.130761,10.8502,21.5575,21.545,-0.142955,21.6942,213,11.1442,7.87366,-0.1,2343
0,0,0,3.16981e-07,-1.30659e-07,-0.0154079,21.5359,21.5353,-0.149741,10.8601,21.5531,21.5354,-0.16706,21.7113,213,11.792,7.66559,-0.1,2344
0,0,0,1.03962e-10,9.92692e-11,-0.015413,21.5267,21.5267,-0.165705,10.8727,21.5532,21.5267,-0.192184,21.7321,213,12.6442,7.56783,-0.1,2345
0,0,0,7.92949e-11,7.83324e-11,-0.0154005,21.5473,21.5473,-0.127432,10.8475,21.5574,21.5473,-0.137522,21.6899,213,11.5711,8.36323,-0.1,2346
0,0,0,2.06888e-06,1.42611e-08,-0.015422,21.5183,21.5154,-0.189714,10.8804,21.5436,21.5175,-0.217134,21.7477,213,7.01859,7.96089,-0.1,2347
0,0,0,-1.70581e-07,-1.76075e-07,-0.0154154,21.522,21.522,-0.173587,10.8971,21.5714,21.5218,-0.222779,21.7694,213,6.10164,8.27244,-0.1,2348
0,0,0,1.7672e-10,6.98619e-11,-0.0153857,21.5716,21.5716,-0.0823304,10.9078,21.6524,21.5716,-0.163123,21.7752,213,5.31462,8.52749,-0.1,2349
0,0,0,1.56105e-10,6.81947e-11,-0.0154053,21.5394,21.5394,-0.142218,10.8796,21.5782,21.5394,-0.181024,21.7399,213,6.28556,9.09769,-0.1,2350
0,0,0,1.68337e-06,-3.6032e-08,-0.0154093,21.5379,21.5355,-0.151678,10.8678,21.5598,21.5377,-0.17576,21.7245,213,6.8162,9.63041,-0.1,2351
0,0,0,1.02896e-10,6.8085e-11,-0.0154047,21.5404,21.5404,-0.140323,10.8526,21.5526,21.5404,-0.152521,21.699,213,7.65519,9.59411,-0.1,2352
0,0,0,7.30114e-09,6.43867e-07,-0.0154048,21.5414,21.5423,-0.139396,10.8531,21.5544,21.5417,-0.151804,21.6999,213,7.84657,8.89048,-0.1,2353
0,0,0,-1.55022e-08,3.19609e-07,-0.0154098,21.5324,21.5329,-0.155463,10.8619,21.5506,21.5324,-0.173183,21.7147,213,7.62624,8.30633,-0.1,2354
0,0,0,-1.39162e-07,5.48587e-07,-0.0154151,21.5238,21.5248,-0.17133,10.8743,21.5507,21.5244,-0.197851,21.7354,213,7.57225,7.42459,-0.1,2355
0,0,0,8.59145e-11,8.52739e-11,-0.0154044,21.5408,21.5408,-0.139497,10.851,21.5517,21.5408,-0.150388,21.6966,213,8.40023,8.35418,-0.1,2356
0,0,0,1.05475e-10,7.31238e-11,-0.0154098,21.532,21.532,-0.15585,10.8656,21.5537,21.532,-0.177518,21.7204,213,12.7704,12.4882,-0.1,2357
0,0,0,1.53858e-08,-4.46423e-07,-0.0154178,21.5181,21.5175,-0.18104,10.8932,21.5615,21.518,-0.224953,21.7647,213,13.6664,13.1535,-0.1,2358
0,0,0,1.16734e-10,7.21517e-11,-0.0154049,21.54,21.54,-0.140966,10.8773,21.5768,21.54,-0.177752,21.7362,213,13.6691,12.1061,-0.1,2359
0,0,0,-2.07305e-06,4.17655e-09,-0.0153994,21.5428,21.5457,-0.127584,10.9043,21.6133,21.5429,-0.195314,21.7735,213,14.5908,12.0452,-0.1,2360
0,0,0,3.7251e-08,-4.03537e-08,-0.0153911,21.5628,21.5627,-0.0988245,10.8671,21.5991,21.5626,-0.135069,21.716,213,13.6949,11.3799,-0.1,2361
0,0,0,-3.76676e-07,4.22006e-08,-0.0153935,21.5577,21.5583,-0.106607,10.8578,21.5836,21.5577,-0.131954,21.7026,213,13.3341,10.7569,-0.1,2362
0,0,0,-4.90637e-08,3.05399e-07,-0.0153908,21.5636,21.5641,-0.0973436,10.8499,21.5833,21.5636,-0.116582,21.6901,213,12.9673,9.82422,-0.1,2363
0,0,0,-5.65049e-07,-8.75661e-09,-0.0153967,21.5519,21.5527,-0.116697,10.8456,21.5636,21.5519,-0.127618,21.6854,213,12.4063,10.5081,-0.1,2364
0,0,0,8.16348e-11,6.57522e-11,-0.0153977,21.5518,21.5518,-0.119056,10.843,21.5594,21.5518,-0.126657,21.6823,213,11.9867,11.1083,-0.1,2365
0,0,0,-1.95938e-08,-1.70255e-07,-0.015402,21.5445,21.5443,-0.132399,10.8487,21.5546,21.5445,-0.14273,21.6923,213,12.053,11.8473,-0.1,2366
0,0,0,7.88213e-11,6.63228e-11,-0.0153964,21.554,21.554,-0.115003,10.8388,21.5583,21.554,-0.119258,21.6754,213,11.2666,11.5148,-0.1,2367
0,0,0,1.1977e-10,7.32122e-11,-0.0154007,21.547,21.547,-0.128115,10.8568,21.5663,21.547,-0.147365,21.704,213,12.8682,9.02396,-0.1,2368
0,0,0,1.34113e-10,7.26334e-11,-0.0153811,21.5792,21.5792,-0.0682032,10.8622,21.6177,21.5792,-0.10674,21.7052,213,13.796,9.27283,-0.1,2369
0,0,0,-6.55297e-08,8.39952e-07,-0.0154059,21.5396,21.5409,-0.142625,10.8659,21.5649,21.54,-0.166996,21.7194,213,12.9579,8.31386,-0.1,2370
0,0,0,6.78016e-07,-7.37002e-09,-0.0154015,21.5477,21.5467,-0.129511,10.8491,21.5579,21.5474,-0.140389,21.693,213,12.1292,8.86525,-0.1,2371
0,0,0,1.46334e-10,7.57999e-11,-0.0153656,21.6045,21.6045,-0.0211761,10.8788,21.6705,21.6045,-0.0871463,21.7247,213,14.5024,8.66371,-0.1,2372
0,0,0,-6.62532e-07,3.49594e-07,-0.015403,21.5417,21.5431,-0.135763,10.901,21.6047,21.5417,-0.197368,21.7706,213,14.315,7.86407,-0.1,2373
0,0,0,1.16966e-10,9.89165e-11,-0.0154107,21.5305,21.5305,-0.158645,10.8814,21.5674,21.5305,-0.195516,21.7445,213,13.3832,7.72654,-0.1,2374
0,0,0,-7.12271e-08,2.09579e-07,-0.0154082,21.5348,21.5352,-0.15069,10.8642,21.5562,21.5352,-0.172134,21.7179,213,9.04499,7.09489,-0.1,2375
0,0,0,7.2222e-11,1.40887e-10,-0.0154087,21.5338,21.5338,-0.152633,10.8846,21.5752,21.5338,-0.193996,21.7485,213,9.26624,6.21234,-0.1,2376
0,0,0,8.28632e-11,1.15719e-10,-0.0154121,21.5282,21.5282,-0.162962,10.8715,21.5541,21.5282,-0.188864,21.73,213,8.30494,7.07344,-0.1,2377
0,0,0,4.39815e-09,1.23424e-06,-0.0154051,21.5418,21.5435,-0.139489,10.8533,21.5546,21.5433,-0.152067,21.701,213,8.91996,7.79149,-0.1,2378
0,0,0,-3.06454e-07,-4.92029e-08,-0.0154028,21.5425,21.5429,-0.135011,10.9106,21.6145,21.5427,-0.206745,21.7854,213,8.35769,5.50819,-0.1,2379
0,0,0,2.92275e-07,-7.87033e-07,-0.0154221,21.5115,21.51,-0.194073,10.9446,21.6032,21.5103,-0.28608,21.843,213,7.74957,5.17377,-0.1,2380
0,0,0,8.4563e-11,1.39248e-10,-0.0154208,21.514,21.514,-0.189374,10.9058,21.5681,21.514,-0.243482,21.7846,213,7.82185,6.04242,-0.1,2381
0,0,0,8.60529e-11,1.23782e-10,-0.0154189,21.517,21.517,-0.183738,10.8872,21.5538,21.517,-0.220578,21.756,213,7.69729,6.728,-0.1,2382
0,0,0,4.47281e-10,6.06731e-11,-0.0155756,21.2598,21.2598,-0.661483,11.4184,21.7176,21.2598,-1.11928,22.6115,213,2.73299,11.0715,-0.1,2383
0,0,0,4.4124e-10,6.09702e-11,-0.0156143,21.1962,21.1962,-0.779427,11.4607,21.669,21.1962,-1.25227,22.6886,213,2.69953,10.0003,-0.1,2384
0,0,0,7.67512e-11,1.89094e-10,-0.015381,21.5794,21.5794,-0.0678799,10.9378,21.6935,21.5794,-0.182002,21.8187,213,8.54523,15.9249,-0.1,2385
0,0,0,4.9392e-11,2.68872e-10,-0.0150761,22.0799,22.0799,0.861713,11.3467,22.8175,22.0799,0.124131,22.3337,213,9.50118,19.3579,-0.1,2386
0,0,0,-2.41135e-07,1.32802e-07,-0.0154383,21.4847,21.4852,-0.24299,10.9986,21.6195,21.4849,-0.377575,21.9301,213,11.7914,16.1572,-0.1,2387
-6.02265e-07,-3.36599e-07,-6.76863e-07,-0.00104996,-4.83023e-05,-0.0136719,21.1045,22.5143,3.34032,11.2245,23.8749,21.6584,1.42584,21.427,213,20.1,20.1409,-0.05,2388
-5.15124e-07,-2.5133e-07,-6.77823e-07,-0.000285071,-4.60066e-05,-0.0144511,22.1613,22.4978,2.22396,12.0535,24.3738,22.2425,0.266777,23.1152,213,20.1,18.2227,-0.05,2389
-7.02026e-07,2.47257e-08,-6.29992e-07,-0.000594882,-1.46779e-05,-0.0131668,23.3769,24.1935,5.68308,11.4161,26.3537,23.3782,3.52159,21.4993,213,20.1,8.63182,-0.05,2390
-6.69788e-07,1.04446e-07,-6.40787e-07,-0.000556046,-3.63779e-05,-0.0133561,23.1489,23.8803,5.13406,11.395,25.8888,23.1756,3.09884,21.5618,213,20.1,4.79545,-0.05,2391
-6.41353e-07,2.04436e-07,-6.29101e-07,-0.00055583,-6.35107e-05,-0.013139,23.4613,24.1542,5.75165,11.2731,26.1774,23.5585,3.63119,21.3576,213,20.1,2.87727,-0.05,2392
-7.42176e-07,3.31295e-07,-6.28103e-07,-0.00129066,-6.03231e-05,-0.013079,21.3244,23.0559,4.73335,11.4644,25.0884,21.8655,2.1597,21.4992,213,20.1,0.959091,-0.05,2393
-6.59172e-07,-1.33149e-07,-6.34672e-07,-0.000551866,-4.8189e-05,-0.0132616,23.2973,24.0062,5.40945,11.3319,26.0169,23.3429,3.35314,21.4521,213,20.1,16.3045,-0.05,2394
-7.1584e-07,5.76041e-08,-6.38608e-07,-0.000704349,-1.93462e-05,-0.0133334,22.7618,23.7259,4.98759,11.4552,25.8065,22.7727,2.89606,21.5543,213,20.1,6.71364,-0.05,2395
-6.5003e-07,-6.10725e-09,-6.34229e-07,-0.000387379,-1.62297e-05,-0.0134508,23.5408,24.0632,5.15531,11.5738,26.183,23.5409,3.03545,21.9461,213,20.1,10.55,-0.05,2396
-6.88048e-07,-2.75385e-08,-6.4076e-07,-0.000558671,-9.81414e-06,-0.0135377,22.8862,23.6587,4.61938,11.5895,25.7278,22.8877,2.54878,21.8975,213,20.1,12.4682,-0.05,2397
-7.13255e-07,-6.92665e-08,-6.24392e-07,-0.000705426,-2.92511e-05,-0.013037,23.2289,24.1805,5.87328,11.2535,26.2727,23.2443,3.76566,21.156,213,20.1,14.3864,-0.05,2398
-4.24566e-07,1.79306e-07,-2.97675e-07,-0.000890951,-7.04331e-05,-0.0120853,24.1583,25.3131,8.40324,12.5954,29.327,24.4115,4.13614,23.1282,213,20.1,0.479545,-0.075,2399
-8.26042e-07,5.55415e-07,-8.84545e-07,-0.000834124,-0.000177733,-0.0122929,23.8144,24.7382,7.6872,9.69724,25.6491,24.3361,6.25461,18.7725,213,20.1,0.479545,-0.025,2400
-8.27899e-07,4.52736e-07,-9.81283e-07,-0.000830511,-9.49395e-05,-0.0134508,22.0603,23.0955,4.29847,10.4517,23.8431,22.6713,2.93979,20.3428,213,20.1,1.43864,-0.025,2401
-4.15809e-07,1.50366e-07,-3.25907e-07,-0.000806033,-3.07135e-05,-0.0134,22.3237,23.4149,4.59892,12.5194,26.3538,22.6686,1.31511,23.4146,213,20.1,1.43864,-0.075,2402
-5.97239e-07,-5.4227e-07,-1.04773e-06,-0.000716067,-0.000132528,-0.0141811,21.1483,21.9696,2.19745,10.6378,22.4223,21.7463,1.1467,20.9458,213,20.1,20.6205,-0.025,2403
-3.24769e-07,-1.80814e-07,-3.48056e-07,-0.000720781,-4.83998e-05,-0.0140095,21.5539,22.5002,2.85134,12.3794,24.9085,21.8472,0.149682,23.379,213,20.1,20.6205,-0.075,2404
-7.0254e-07,-4.7109e-07,-1.00405e-06,-0.000684522,-5.41941e-05,-0.013597,22.3322,23.2193,4.15899,10.3988,23.756,22.996,2.95846,20.4282,213,20.1,19.6614,-0.025,2405
-3.62918e-07,-1.58988e-07,-3.30785e-07,-0.000656538,-2.72451e-05,-0.0135357,22.5625,23.4481,4.43621,12.1456,25.9167,22.9045,1.62555,22.9339,213,20.1,19.6614,-0.075,2406
-7.71422e-07,3.53809e-07,-9.65117e-07,-0.000461307,-0.000108521,-0.0130018,23.9009,24.3975,6.25131,10.4271,25.6986,24.0068,4.84433,20.0619,213,20.1,2.39773,-0.025,2407
-8.00453e-07,2.60509e-07,-9.49024e-07,-0.000421383,-8.27789e-05,-0.0132277,23.6941,24.1706,5.67032,10.5337,25.3914,23.8195,4.32411,20.327,213,20.1,3.35682,-0.025,2408
-4.58927e-07,2.71198e-07,-6.58847e-07,-0.00032805,-7.16934e-05,-0.01319,24.0589,24.4197,5.95694,11.4403,26.5648,24.1866,3.6842,21.789,213,20.1,1.91818,-0.05,2409
-3.42589e-07,1.18811e-07,-3.16213e-07,-0.000424309,-2.81434e-05,-0.0134266,23.4483,24.0059,5.14888,12.1723,26.7364,23.4749,2.39182,22.8888,213,20.1,2.39773,-0.075,2410
-8.21221e-07,1.87773e-07,-9.61186e-07,-0.00042686,-6.77608e-05,-0.0133726,23.4641,23.9695,5.24419,10.6422,25.2453,23.4715,3.96091,20.4553,213,20.1,4.31591,-0.025,2411
-8.34196e-07,1.34735e-07,-9.79131e-07,-0.000528407,-4.2408e-05,-0.0136086,22.8086,23.4926,4.39937,10.9637,24.8851,22.8578,2.95766,20.9874,213,20.1,5.275,-0.025,2412
-5.693e-07,1.47285e-07,-6.38711e-07,-0.000249532,-5.1083e-05,-0.0128075,24.9602,25.2395,7.28605,11.151,27.4021,24.9836,5.10007,21.1965,213,20.1,3.83636,-0.05,2413
-3.61583e-07,6.10353e-08,-3.18131e-07,-0.000258986,-2.05746e-05,-0.0127965,24.9994,25.335,7.35404,12.6039,28.9492,24.998,3.74129,23.4829,213,20.1,4.31591,-0.075,2414
-3.55296e-07,8.72877e-08,-3.12353e-07,-0.000257218,-3.29397e-05,-0.0126023,25.3035,25.6191,7.92895,12.4768,29.2322,25.3408,4.27852,23.2535,213,20.1,3.35682,-0.075,2415
-8.6529e-07,9.98427e-08,-9.76016e-07,-0.000586888,-3.04366e-05,-0.0135833,22.6915,23.4746,4.40026,10.9338,24.8775,22.6788,3.00998,20.8553,213,20.1,6.23409,-0.025,2416
-8.74776e-07,7.1862e-08,-9.6762e-07,-0.000493077,-2.73886e-05,-0.0131867,23.6338,24.2892,5.7687,10.2817,25.3016,23.6521,4.73806,19.7904,213,20.1,7.19318,-0.025,2417
-3.66768e-07,4.34134e-08,-3.20639e-07,-0.00035877,-1.60851e-05,-0.0130256,24.3264,24.8087,6.49906,12.3364,27.9779,24.3511,3.30517,23.0741,213,20.1,5.275,-0.075,2418
-5.04517e-07,7.62615e-08,-6.6224e-07,-0.000281314,-2.44912e-05,-0.0132289,24.2149,24.5763,5.99232,11.4424,26.7242,24.22,3.83939,21.7411,213,20.1,5.75455,-0.05,2419
-3.91172e-07,3.39764e-08,-3.18588e-07,-0.000419622,-9.45867e-06,-0.0129808,24.2252,24.8025,6.54647,12.5207,28.1997,24.2162,3.15826,23.3064,213,20.1,6.23409,-0.075,2420
-8.6635e-07,4.7737e-08,-9.61886e-07,-0.000452721,-2.28465e-05,-0.0130782,23.9423,24.5474,6.17309,10.3326,25.6954,23.9372,5.0302,19.8446,213,20.1,8.15227,-0.025,2421
-8.71473e-07,2.52306e-08,-9.52921e-07,-0.00049407,-2.3715e-05,-0.013317,23.4228,24.0847,5.37564,10.8287,25.5574,23.4256,3.90011,20.674,213,20.1,9.11136,-0.025,2422
-5.48748e-07,3.94458e-08,-6.47988e-07,-0.000298761,-1.50635e-05,-0.0130382,24.4904,24.8897,6.56092,11.3286,27.0521,24.494,4.39489,21.4926,213,20.1,7.67273,-0.05,2423
-3.78556e-07,1.63936e-08,-3.15432e-07,-0.00038508,-6.84598e-06,-0.013253,23.8879,24.4202,5.77748,12.2692,27.373,23.8779,2.8347,22.9909,213,20.1,8.15227,-0.075,2424
-3.91442e-07,2.39872e-08,-3.17313e-07,-0.000426088,-9.92574e-06,-0.0133466,23.6042,24.1899,5.41985,12.3546,27.1518,23.6197,2.44249,23.1462,213,20.1,7.19318,-0.075,2425
-8.38499e-07,2.81231e-09,-9.54821e-07,-0.000359836,-2.2291e-05,-0.0135476,23.4558,23.9308,4.89514,11.0907,25.5046,23.454,3.32316,21.2305,213,20.1,10.0705,-0.025,2426
-8.35434e-07,-1.94842e-08,-9.69299e-07,-0.000357448,-2.25942e-05,-0.0136878,23.2324,23.7036,4.47111,11.1765,25.2658,23.2286,2.91279,21.4072,213,20.1,11.0295,-0.025,2427
-3.83341e-07,8.75324e-09,-3.11476e-07,-0.000324908,-8.035e-06,-0.0126736,25.0208,25.4668,7.64113,12.4399,28.9926,25.0233,4.11285,23.1517,213,20.1,9.11136,-0.075,2428
-5.39467e-07,9.23155e-09,-6.38927e-07,-0.000236001,-1.54783e-05,-0.0127805,25.1042,25.4145,7.44893,11.2892,27.7207,25.1047,5.14224,21.3908,213,20.1,9.59091,-0.05,2429
-3.48679e-07,1.0575e-10,-3.13923e-07,-0.000206769,-8.33165e-06,-0.0127166,25.31,25.5893,7.70364,12.2066,28.8535,25.3093,4.44017,22.8483,213,20.1,10.0705,-0.075,2430
-8.58456e-07,-3.49203e-08,-9.77478e-07,-0.000464971,-1.12963e-05,-0.0137443,22.8302,23.4688,4.14077,11.0912,24.8933,22.8355,2.711,21.2283,213,20.1,11.9886,-0.025,2431
-8.54097e-07,-5.19641e-08,-9.62727e-07,-0.000422762,-2.534e-05,-0.0131067,23.9829,24.5423,6.13151,10.3335,25.6731,23.9774,5.00615,19.8735,213,20.1,12.9477,-0.025,2432
-3.4754e-07,-6.58617e-09,-3.17272e-07,-0.000206912,-7.58724e-06,-0.012894,25.0195,25.3,7.16358,12.2757,28.5086,25.0174,3.95716,23.0053,213,20.1,11.0295,-0.075,2433
-5.35119e-07,-2.02517e-08,-6.56683e-07,-0.000227635,-1.05937e-05,-0.0131373,24.5518,24.8573,6.38262,11.4708,27.0901,24.5532,4.14846,21.7842,213,20.1,11.5091,-0.05,2434
-3.75084e-07,-1.12762e-08,-3.19388e-07,-0.000305899,-4.27512e-06,-0.0130108,24.5312,24.9557,6.65021,12.5154,28.3165,24.5349,3.28575,23.3705,213,20.1,11.9886,-0.075,2435
-8.7055e-07,-8.35539e-08,-9.46276e-07,-0.000498189,-3.75169e-05,-0.0128815,24.1027,24.7511,6.6744,10.0659,25.7666,24.1269,5.63475,19.3641,213,20.1,13.9068,-0.025,2436
-8.58472e-07,-1.24652e-07,-9.58117e-07,-0.000586974,-4.70574e-05,-0.0133342,23.073,23.8329,5.13248,10.7428,25.231,23.0621,3.74531,20.4875,213,20.1,14.8659,-0.025,2437
-3.71018e-07,-1.66536e-08,-3.1695e-07,-0.000360587,-6.61206e-06,-0.0134563,23.6292,24.1274,5.19815,12.3112,26.9792,23.6188,2.35675,23.1261,213,20.1,12.9477,-0.075,2438
-5.43123e-07,-4.38335e-08,-6.35642e-07,-0.000290738,-2.2999e-05,-0.012787,24.9143,25.2911,7.32702,11.1367,27.444,24.9179,5.17053,21.124,213,20.1,13.4273,-0.05,2439
-3.90287e-07,-2.7815e-08,-3.09634e-07,-0.000429511,-1.35891e-05,-0.0130882,24.0119,24.5973,6.19596,12.1752,27.562,24.0314,3.2117,22.7911,213,20.1,13.9068,-0.075,2440
-8.24115e-07,-1.71814e-07,-9.66955e-07,-0.000477617,-5.72545e-05,-0.0130375,23.8769,24.4685,6.20004,10.354,25.6508,23.9518,4.9428,19.913,213,20.1,15.825,-0.025,2441
-8.02098e-07,-2.38389e-07,-9.59244e-07,-0.000376826,-8.25655e-05,-0.0130384,24.1412,24.5553,6.32126,10.1317,25.541,24.1992,5.2776,19.6269,213,20.1,16.7841,-0.025,2442
-4.98913e-07,-9.74187e-08,-6.54206e-07,-0.000285338,-2.81147e-05,-0.0130703,24.4571,24.8191,6.46335,11.3139,26.9501,24.467,4.32239,21.494,213,20.1,15.3455,-0.05,2443
-3.60933e-07,-5.48087e-08,-3.15825e-07,-0.000425555,-2.18993e-05,-0.013388,23.5181,24.0862,5.27466,12.0547,26.7097,23.569,2.60025,22.7026,213,20.1,15.825,-0.075,2444
-3.89208e-07,-4.19869e-08,-3.12355e-07,-0.000415962,-1.43093e-05,-0.0127354,24.6314,25.1966,7.29286,12.3746,28.6241,24.6218,3.87497,23.0105,213,20.1,14.8659,-0.075,2445
-7.38014e-07,-3.28207e-07,-9.90731e-07,-0.000296283,-9.72849e-05,-0.0133665,23.8238,24.1039,5.42861,10.6106,25.3352,23.9072,4.11395,20.5445,213,20.1,17.7432,-0.025,2446
-6.60541e-07,-4.12292e-07,-1.01533e-06,-0.000247965,-6.7905e-05,-0.0136757,23.5117,23.7651,4.6134,11.0939,25.2255,23.6271,3.03764,21.4334,213,20.1,18.7023,-0.025,2447
-5.51629e-07,-1.87165e-07,-6.40506e-07,-0.000262842,-6.83784e-05,-0.012942,24.6703,24.944,6.8256,11.1635,27.031,24.7048,4.70409,21.2595,213,20.1,17.2636,-0.05,2448
-3.07702e-07,-1.1314e-07,-3.34247e-07,-0.000221087,-3.56374e-05,-0.0138271,23.3981,23.6591,4.24887,12.318,26.2444,23.4532,1.60841,23.3658,213,20.1,17.7432,-0.075,2449
-3.53743e-07,-7.82861e-08,-3.17893e-07,-0.00030484,-2.64132e-05,-0.0132525,24.1013,24.4932,5.87873,12.2354,27.427,24.09,2.95622,22.9847,213,20.1,16.7841,-0.075,2450
-4.49487e-07,-2.97194e-07,-6.62345e-07,-0.0002964,-4.5541e-05,-0.0133126,23.997,24.3501,5.67797,11.3751,26.2979,24.1794,3.54774,21.7684,213,20.1,19.1818,-0.05,2451
-2.65336e-07,-1.35749e-07,-3.37103e-07,-0.000151874,-1.34421e-05,-0.0140182,23.3317,23.5266,3.81614,12.3182,25.9753,23.3603,1.33882,23.4386,213,20.1,18.7023,-0.075,2452
1.79502e-07,-6.31373e-07,-7.3921e-07,-5.23629e-05,-0.00093052,-0.0149522,20.5959,19.36,-0.3742,11.7707,21.8089,19.5053,-1.73246,22.4782,213,0.913636,21.1,-0.05,2453
-1.79109e-07,-6.32548e-07,-7.41893e-07,-5.15936e-05,-0.000927539,-0.0149942,20.5341,19.3013,-0.49624,11.8063,21.7529,19.4458,-1.85961,22.5477,213,19.1864,21.1,-0.05,2454
-1.00996e-07,-4.70467e-07,-7.51212e-07,-2.83795e-05,-0.000303234,-0.0148283,21.9024,21.5155,1.07282,11.5196,23.0005,21.529,-0.0387334,22.3398,213,17.3591,21.1,-0.05,2455
-5.86397e-08,-5.88582e-07,-7.47165e-07,-2.1451e-05,-0.000581213,-0.0149639,21.2444,20.4566,0.214327,11.7597,22.4836,20.4674,-1.03575,22.5789,213,15.5318,21.1,-0.05,2456
-3.27665e-08,-6.28987e-07,-7.40477e-07,-1.0287e-05,-0.000711958,-0.0148715,21.2156,20.2281,0.299872,11.7779,22.5339,20.2316,-1.02193,22.4932,213,13.7045,21.1,-0.05,2457
-1.26885e-08,-6.58525e-07,-7.36944e-07,-6.26664e-06,-0.000843495,-0.0148495,21.0478,19.8695,0.157313,11.8073,22.4095,19.8701,-1.20503,22.4528,213,11.8773,21.1,-0.05,2458
-1.30355e-09,-6.91732e-07,-7.33148e-07,-5.20626e-06,-0.00103588,-0.0148184,20.7863,19.3357,-0.0618744,11.8115,22.1737,19.3357,-1.44927,22.3396,213,10.05,21.1,-0.05,2459
1.31448e-08,-6.76679e-07,-7.26834e-07,-6.9207e-06,-0.00096069,-0.0146953,21.1066,19.7643,0.433996,11.7022,22.472,19.7652,-0.932339,22.1752,213,8.22273,21.1,-0.05,2460
3.34121e-08,-6.33856e-07,-7.38551e-07,-1.03251e-05,-0.00073701,-0.014847,21.2146,20.1918,0.33339,11.7649,22.537,20.1956,-0.992858,22.4509,213,6.39545,21.1,-0.05,2461
1.04913e-07,-5.6838e-07,-7.44607e-07,-2.59194e-05,-0.000581401,-0.0149193,21.3038,20.522,0.342759,11.6365,22.4431,20.5555,-0.829995,22.389,213,2.74091,21.1,-0.05,2462
5.95019e-08,-5.88931e-07,-7.47575e-07,-2.00918e-05,-0.000572551,-0.0149788,21.2384,20.4609,0.185479,11.7691,22.4758,20.4714,-1.06242,22.6028,213,4.56818,21.1,-0.05,2463
1.02278e-07,-3.60976e-07,-3.66439e-07,-5.71444e-05,-0.000651196,-0.0146765,21.4925,20.6564,0.917043,12.7127,23.8902,20.7109,-1.53524,23.9943,213,0.456818,21.1,-0.075,2464
3.126e-07,-7.3056e-07,-1.09698e-06,-0.000150917,-0.000647088,-0.0149534,20.7588,20.0604,-0.0743395,10.9522,21.2442,20.1609,-0.660191,21.3833,213,0.456818,21.1,-0.025,2465
2.35024e-07,-7.06242e-07,-1.12289e-06,-6.61815e-05,-0.000623001,-0.0152113,20.6332,19.8496,-0.682075,11.1306,21.0159,20.03,-1.24517,21.7849,213,1.37045,21.1,-0.025,2466
7.85239e-08,-3.52318e-07,-3.72463e-07,-2.99638e-05,-0.000570113,-0.0149601,21.243,20.4828,0.230237,12.4164,23.0945,20.5998,-1.73834,23.6843,213,1.37045,21.1,-0.075,2467
-1.01947e-07,-3.62335e-07,-3.67808e-07,-5.6746e-05,-0.000649252,-0.0147144,21.4347,20.6009,0.805456,12.7579,23.8512,20.6545,-1.66461,24.0771,213,19.6432,21.1,-0.075,2468
-3.11124e-07,-7.34369e-07,-1.10286e-06,-0.00014948,-0.000643196,-0.0150311,20.6419,19.947,-0.302604,11.0149,21.1358,20.0444,-0.893925,21.5048,213,19.6432,21.1,-0.025,2469
-2.34717e-07,-7.07182e-07,-1.1251e-06,-6.47286e-05,-0.00061484,-0.0152672,20.5593,19.785,-0.836775,11.1276,20.8992,19.9643,-1.35599,21.8028,213,18.7295,21.1,-0.025,2470
-7.8469e-08,-3.52399e-07,-3.73716e-07,-2.95964e-05,-0.000579323,-0.0149868,21.1852,20.4115,0.134361,12.4985,23.1015,20.5251,-1.89555,23.8136,213,18.7295,21.1,-0.075,2471
-1.37857e-07,-6.52042e-07,-1.12656e-06,-2.93385e-05,-0.00032421,-0.0151663,21.31,20.895,0.0060414,11.2246,21.8712,20.9178,-0.577968,21.988,213,16.9023,21.1,-0.025,2472
-1.75033e-07,-6.07569e-07,-1.12649e-06,-5.89726e-05,-0.000258982,-0.0151298,21.3867,21.1052,0.175867,11.3099,22.0789,21.1299,-0.541012,22.1606,213,17.8159,21.1,-0.025,2473
-1.37707e-07,-4.29132e-07,-7.4826e-07,-3.4131e-05,-0.000284206,-0.0150261,21.5914,21.2394,0.491618,11.8196,22.8337,21.2943,-0.805553,22.9084,213,18.2727,21.1,-0.05,2474
-5.90722e-08,-2.52231e-07,-3.75665e-07,-1.18114e-05,-0.000159983,-0.0148623,22.1324,21.9238,1.23176,12.097,23.783,21.916,-0.411034,23.3167,213,17.8159,21.1,-0.075,2475
-7.61109e-08,-7.05734e-07,-1.12891e-06,-2.6601e-05,-0.000494533,-0.0152235,20.9448,20.2863,-0.443378,11.3197,21.5588,20.3096,-1.08066,22.0414,213,15.075,21.1,-0.025,2476
-1.05512e-07,-7.00538e-07,-1.12614e-06,-3.7838e-05,-0.000397894,-0.0152353,21.0498,20.5431,-0.339181,11.1559,21.5037,20.5581,-0.808051,21.8543,213,15.9886,21.1,-0.025,2477
-4.43853e-08,-2.84971e-07,-3.73451e-07,-1.66471e-05,-0.000241878,-0.0149055,21.9122,21.5952,0.957517,12.2193,23.6453,21.6129,-0.793255,23.4884,213,16.9023,21.1,-0.075,2478
-8.25406e-08,-4.93313e-07,-7.46339e-07,-2.35501e-05,-0.000287671,-0.0150704,21.5451,21.1734,0.368006,11.8812,22.8322,21.1846,-0.930224,22.9829,213,16.4455,21.1,-0.05,2479
-3.40353e-08,-3.22567e-07,-3.72495e-07,-7.35097e-06,-0.000323535,-0.0149087,21.8011,21.3561,0.828843,12.4893,23.8116,21.3415,-1.16701,23.8397,213,15.9886,21.1,-0.075,2480
-4.10711e-08,-7.44575e-07,-1.11541e-06,-1.45247e-05,-0.000554169,-0.0149668,21.3051,20.5456,0.261116,11.2224,22.0029,20.5507,-0.441796,21.755,213,13.2477,21.1,-0.025,2481
-5.59211e-08,-7.34382e-07,-1.12434e-06,-2.05616e-05,-0.000587677,-0.0150262,21.1343,20.3361,0.0152382,11.3293,21.9119,20.3204,-0.746716,21.9063,213,14.1614,21.1,-0.025,2482
-2.41845e-08,-3.25965e-07,-3.75123e-07,-1.54013e-05,-0.000460261,-0.0149633,21.4625,20.8364,0.42473,12.3179,23.2533,20.8528,-1.38249,23.5276,213,15.075,21.1,-0.075,2483
-4.34541e-08,-4.22453e-07,-7.59477e-07,-7.95622e-06,-0.000279236,-0.0151861,21.4165,21.0347,0.0546804,11.9845,22.7199,21.0352,-1.24916,23.1727,213,14.6182,21.1,-0.05,2484
-1.97664e-08,-3.4654e-07,-3.71996e-07,-5.1204e-06,-0.000417632,-0.0149621,21.5658,20.9852,0.515248,12.8805,23.9252,20.9769,-1.83577,24.4206,213,14.1614,21.1,-0.075,2485
-1.5555e-08,-7.65804e-07,-1.11895e-06,-1.00204e-05,-0.000697647,-0.0150247,20.9883,20.0205,-0.143527,11.3157,21.7398,20.017,-0.891604,21.8211,213,11.4205,21.1,-0.025,2486
-2.51959e-08,-7.63879e-07,-1.11299e-06,-1.41711e-05,-0.000624286,-0.0149793,21.1706,20.3119,0.10861,11.2165,21.8622,20.2996,-0.570758,21.6939,213,12.3341,21.1,-0.025,2487
-1.38587e-08,-3.49983e-07,-3.68762e-07,-6.30962e-06,-0.000363529,-0.0148325,21.8638,21.361,0.997295,13.0511,24.4793,21.3658,-1.623,24.6932,213,13.2477,21.1,-0.075,2488
-2.18161e-08,-4.83147e-07,-7.46642e-07,-1.13607e-05,-0.000296626,-0.0149453,21.773,21.3715,0.754827,11.8998,23.1636,21.3717,-0.636021,22.9562,213,12.7909,21.1,-0.05,2489
-8.15609e-09,-3.66555e-07,-3.6736e-07,-4.61822e-06,-0.000428131,-0.0147947,21.825,21.2289,1.0093,13.1505,24.5698,21.2246,-1.73124,24.7983,213,12.3341,21.1,-0.075,2490
3.37863e-09,-7.89797e-07,-1.10734e-06,-1.17959e-05,-0.00077325,-0.0149832,20.9269,19.8552,-0.143911,11.1947,21.5914,19.8448,-0.797985,21.5692,213,9.59318,21.1,-0.025,2491
-5.25753e-09,-7.88123e-07,-1.11633e-06,-1.04148e-05,-0.000800192,-0.0150415,20.7911,19.6796,-0.363753,11.2915,21.5107,19.6686,-1.07229,21.7206,213,10.5068,21.1,-0.025,2492
-4.00085e-09,-3.66861e-07,-3.69815e-07,-2.92153e-06,-0.000503581,-0.0148843,21.5592,20.8545,0.615078,13.0514,24.1382,20.8552,-1.96461,24.626,213,11.4205,21.1,-0.075,2493
-6.98618e-09,-4.49449e-07,-7.55835e-07,-6.50163e-06,-0.000328582,-0.0151183,21.4512,20.9979,0.182697,12.0246,22.8417,20.9977,-1.20757,23.1823,213,10.9636,21.1,-0.05,2494
-2.79837e-09,-3.87414e-07,-3.6817e-07,-2.63873e-06,-0.000600152,-0.0148414,21.4718,20.6309,0.587671,13.1674,24.1987,20.6279,-2.13615,24.7434,213,10.5068,21.1,-0.075,2495
2.5546e-08,-7.7525e-07,-1.10262e-06,-1.44728e-05,-0.000715254,-0.0148843,21.1764,20.1901,0.248553,11.126,21.8451,20.1769,-0.406948,21.4666,213,7.76591,21.1,-0.025,2496
1.52827e-08,-7.78331e-07,-1.10201e-06,-1.07964e-05,-0.000678306,-0.0149727,21.103,20.1635,0.0454426,10.9696,21.5444,20.1624,-0.394811,21.2819,213,8.67955,21.1,-0.025,2497
9.16697e-10,-3.88485e-07,-3.6523e-07,-3.82329e-06,-0.000555334,-0.0146962,21.7803,21.0041,1.10221,13.2427,24.685,21.0021,-1.80044,24.8495,213,9.59318,21.1,-0.075,2498
6.32295e-09,-4.84224e-07,-7.41165e-07,-7.75075e-06,-0.000430819,-0.0148769,21.676,21.0805,0.748961,11.8807,23.0933,21.0802,-0.668099,22.8216,213,9.13636,21.1,-0.05,2499
4.65311e-09,-3.79554e-07,-3.6366e-07,-3.8899e-06,-0.000664124,-0.0146954,21.6027,20.6735,0.925829,12.597,23.8617,20.6726,-1.33226,23.7605,213,8.67955,21.1,-0.075,2500
5.67453e-08,-7.37689e-07,-1.12283e-06,-2.02632e-05,-0.000605187,-0.0150148,21.125,20.3018,0.0215668,11.3161,21.8973,20.286,-0.734961,21.8712,213,5.93864,21.1,-0.025,2501
4.1754e-08,-7.47696e-07,-1.11153e-06,-1.53018e-05,-0.000568443,-0.0149361,21.3297,20.5512,0.330055,11.1979,22.0251,20.5565,-0.370677,21.6988,213,6.85227,21.1,-0.025,2502
8.69691e-09,-3.78274e-07,-3.63365e-07,-4.20073e-06,-0.000506601,-0.0146531,21.9299,21.2228,1.31295,13.1308,24.7545,21.2182,-1.50701,24.6841,213,7.76591,21.1,-0.075,2503
2.1985e-08,-4.80819e-07,-7.43588e-07,-1.11739e-05,-0.00032622,-0.014881,21.8306,21.3872,0.902649,11.8562,23.2229,21.3871,-0.489556,22.8499,213,7.30909,21.1,-0.05,2504
1.41727e-08,-3.53163e-07,-3.67499e-07,-6.48096e-06,-0.000378008,-0.0147832,21.9204,21.3975,1.12356,13.0339,24.5533,21.4026,-1.51449,24.644,213,6.85227,21.1,-0.075,2505
1.05313e-07,-7.00378e-07,-1.12734e-06,-4.23394e-05,-0.000435104,-0.0150745,21.239,20.6863,0.0826804,11.229,21.8915,20.6831,-0.566577,21.8789,213,4.11136,21.1,-0.025,2506
7.72467e-08,-7.06898e-07,-1.12919e-06,-1.95476e-05,-0.000536475,-0.0150728,21.1448,20.4173,-0.0412546,11.3548,21.8973,20.4359,-0.812375,22.0154,213,5.025,21.1,-0.025,2507
2.01124e-08,-3.49637e-07,-3.71279e-07,-5.10761e-06,-0.00043344,-0.0149426,21.5718,20.969,0.5486,12.8884,23.9528,20.9605,-1.82395,24.4185,213,5.93864,21.1,-0.075,2508
4.40019e-08,-4.22458e-07,-7.59409e-07,-1.47808e-05,-0.000272602,-0.01518,21.4167,21.0538,0.0730081,11.975,22.7194,21.0547,-1.23059,23.1626,213,5.48182,21.1,-0.05,2509
2.46044e-08,-3.2539e-07,-3.74957e-07,-9.18858e-06,-0.00036685,-0.0150432,21.5035,21.0001,0.344492,12.7672,23.6847,21.0132,-1.84977,24.309,213,5.025,21.1,-0.075,2510
1.78281e-07,-6.67749e-07,-1.12074e-06,-5.5694e-05,-0.000488571,-0.0151092,21.0536,20.4443,-0.132797,11.1816,21.6264,20.4756,-0.736833,21.8106,213,2.28409,21.1,-0.025,2511
1.39035e-07,-6.82758e-07,-1.12522e-06,-2.91199e-05,-0.000432637,-0.0150449,21.332,20.7641,0.198717,11.1652,21.9047,20.8158,-0.425756,21.8064,213,3.19773,21.1,-0.025,2512
4.61588e-08,-3.16593e-07,-3.71956e-07,-1.43088e-05,-0.000260394,-0.0149514,21.8135,21.4672,0.790976,12.9311,24.2244,21.4851,-1.6378,24.6072,213,3.19773,21.1,-0.075,2513
8.24156e-08,-4.9184e-07,-7.5308e-07,-2.4591e-05,-0.000242574,-0.015093,21.5789,21.2721,0.371429,11.8953,22.8665,21.2801,-0.924103,23.0384,213,3.65455,21.1,-0.05,2514
3.47076e-08,-3.22676e-07,-3.72826e-07,-1.15427e-05,-0.000261151,-0.0149837,21.7677,21.4164,0.695854,13.0376,24.2713,21.4125,-1.80385,24.7698,213,4.11136,21.1,-0.075,2515
1.36782e-07,-4.02136e-07,-7.49628e-07,-3.72395e-05,-0.000316899,-0.0150139,21.5482,21.1546,0.469953,11.8108,22.7977,21.199,-0.82395,22.8643,213,1.82727,21.1,-0.05,2516
6.01532e-08,-3.12757e-07,-3.73091e-07,-1.15258e-05,-0.000465,-0.0148865,21.5926,20.9544,0.657411,12.1948,23.3249,20.9442,-1.06468,23.2907,213,2.28409,21.1,-0.075,2517
4.55681e-07,2.2216e-06,-2.45505e-06,-0.000165019,-0.00164482,-0.00258631,7.31419,2.89687,0.0864572,3.62299,7.32369,2.89611,0.0777137,6.32658,213,2.66818,0,0.51375,2518
1.36938e-07,2.36102e-06,-2.44037e-06,-4.06231e-05,-0.00181936,-0.00254748,7.64963,2.33998,0.166459,3.744,7.65205,2.33997,0.164045,6.67169,213,6.35909,0,0.51375,2519
2.47998e-07,2.19804e-06,-2.47871e-06,-8.88859e-05,-0.00146655,-0.00273545,7.87532,3.7629,-0.0248537,3.95026,7.87557,3.76275,-0.0249565,6.84399,213,4.51364,0,0.51375,2520
-6.04012e-08,2.34623e-06,-2.4493e-06,-3.13806e-05,-0.00170496,-0.00263098,7.80451,2.80875,0.0445014,3.88422,7.80913,2.80795,0.0406808,6.81976,213,11.8955,0,0.51375,2521
-4.58034e-07,2.25422e-06,-2.43834e-06,-0.000160163,-0.00173404,-0.00255838,7.14968,2.45153,-0.00916924,3.58518,7.15645,2.44949,-0.0139064,6.31022,213,17.4318,0,0.51375,2522
5.88031e-08,2.35392e-06,-2.44975e-06,-3.20976e-05,-0.00170759,-0.00263035,7.79377,2.7923,0.0377925,3.88191,7.79802,2.79164,0.0341983,6.81705,213,8.20455,0,0.51375,2523
7.86763e-10,2.34151e-06,-2.45743e-06,-3.92786e-05,-0.00156072,-0.00272144,7.92646,3.38483,-0.0799948,4.00504,7.92829,3.38481,-0.0817962,6.9578,213,10.05,0,0.51375,2524
-1.37783e-07,2.34653e-06,-2.44876e-06,-4.15019e-05,-0.00179887,-0.00255184,7.69536,2.44947,0.201807,3.7528,7.70143,2.44938,0.195826,6.67071,213,13.7409,0,0.51375,2525
-2.51928e-07,2.23216e-06,-2.47871e-06,-8.98539e-05,-0.00162723,-0.00265805,7.60521,3.01602,-0.0610373,3.83834,7.61114,3.01458,-0.0655283,6.69129,213,15.5864,0,0.51375,2526
1.02108e-06,2.1765e-06,-2.31502e-06,-0.000726888,-0.00188487,-0.00216113,4.44208,0.985405,0.160773,2.16711,4.46803,0.986413,0.133812,3.97706,213,0.822727,0,0.51375,2527
-1.00248e-06,2.15742e-06,-2.33829e-06,-0.000707668,-0.00187741,-0.00217809,4.53027,1.03851,0.140953,2.21845,4.55538,1.03589,0.118468,4.05676,213,19.2773,0,0.51375,2528
1.43183e-06,2.11463e-06,-2.13817e-06,-0.00104281,-0.00187516,-0.00201983,2.97598,0.491355,0.0595062,1.51151,2.99792,0.554018,-0.0250964,2.77909,213,0.361364,0,0.519375,2529
1.42482e-06,2.10239e-06,-2.11528e-06,-0.0010343,-0.00185982,-0.00202257,3.06833,0.604089,0.118291,1.5385,3.09784,0.672017,0.0208513,2.8086,213,0.361364,0,0.508125,2530
7.56872e-07,2.16518e-06,-2.43308e-06,-0.00041337,-0.0018942,-0.00236813,5.6862,1.26581,-0.148895,2.94451,5.70368,1.28477,-0.18534,5.30889,213,1.28409,0,0.508125,2531
7.58408e-07,2.17623e-06,-2.45992e-06,-0.000416791,-0.00190889,-0.00237007,5.61241,1.1584,-0.218263,2.92867,5.61547,1.17894,-0.241868,5.29197,213,1.28409,0,0.519375,2532
-1.40214e-06,2.08872e-06,-2.21301e-06,-0.00101636,-0.00187072,-0.00203874,3.09296,0.542625,0.0410754,1.5745,3.12264,0.580387,-0.0263619,2.89373,213,19.7386,0,0.519375,2533
-1.39672e-06,2.07835e-06,-2.18996e-06,-0.00100973,-0.00185733,-0.00203773,3.17943,0.649267,0.110782,1.59897,3.21787,0.701669,0.0199355,2.91744,213,19.7386,0,0.508125,2534
-7.45726e-07,2.14644e-06,-2.4296e-06,-0.000401099,-0.00188368,-0.00238697,5.73538,1.30978,-0.192587,2.97961,5.7449,1.32198,-0.214312,5.35885,213,18.8159,0,0.508125,2535
-7.46871e-07,2.15671e-06,-2.45656e-06,-0.000403774,-0.00189552,-0.00237476,5.72008,1.26712,-0.163458,2.95735,5.7245,1.28944,-0.190201,5.33117,213,18.8159,0,0.519375,2536
3.87085e-07,2.24774e-06,-2.42937e-06,-0.000133185,-0.0016464,-0.00261976,7.39907,2.88202,-0.0235502,3.71933,7.40711,2.88198,-0.0315545,6.49227,213,3.12955,0,0.508125,2537
5.39633e-07,2.16439e-06,-2.4661e-06,-0.000197418,-0.00164338,-0.00259201,7.1012,2.78491,-0.0468381,3.58117,7.11001,2.78159,-0.0523319,6.24762,213,2.20682,0,0.508125,2538
5.39109e-07,2.17281e-06,-2.49528e-06,-0.000198006,-0.00164915,-0.00260025,7.05312,2.72134,-0.117763,3.58942,7.05882,2.71789,-0.120017,6.26231,213,2.20682,0,0.519375,2539
6.38126e-07,2.09148e-06,-2.52121e-06,-0.000219093,-0.0015921,-0.00261991,7.04191,2.94337,-0.124698,3.58532,7.04423,2.94276,-0.126404,6.23136,213,1.74545,0,0.51375,2540
2.0823e-07,2.21075e-06,-2.46838e-06,-8.34619e-05,-0.00145587,-0.00268743,8.09488,3.99815,0.321851,3.91403,8.12251,3.99792,0.294445,6.78258,213,4.975,0,0.508125,2541
2.89816e-07,2.22131e-06,-2.45001e-06,-9.22728e-05,-0.00158172,-0.00284149,7.15287,2.70677,-1.05375,4.31105,7.36147,2.70505,-1.26063,7.47495,213,4.05227,0,0.508125,2542
3.87045e-07,2.25197e-06,-2.45931e-06,-0.000131496,-0.00163344,-0.00264217,7.37951,2.8961,-0.115032,3.75586,7.38809,2.89613,-0.123638,6.54686,213,3.12955,0,0.519375,2543
3.33555e-07,2.25411e-06,-2.44855e-06,-9.80156e-05,-0.00163302,-0.00271439,7.35788,2.77576,-0.452204,3.93196,7.38568,2.77399,-0.47824,6.8442,213,3.59091,0,0.51375,2544
2.9003e-07,2.22275e-06,-2.48085e-06,-9.32834e-05,-0.00156758,-0.00254218,8.14078,3.7399,0.830629,3.86615,8.3528,3.73802,0.620491,6.73809,213,4.05227,0,0.519375,2545
1.17452e-07,2.35065e-06,-2.42788e-06,-4.41984e-05,-0.00182168,-0.00256863,7.55318,2.24727,0.0175758,3.7743,7.56092,2.24479,0.0123245,6.71663,213,6.82045,0,0.508125,2546
1.54877e-07,2.31439e-06,-2.44079e-06,-3.67854e-05,-0.00180922,-0.00259894,7.54221,2.25137,-0.106023,3.83855,7.55804,2.24857,-0.119052,6.80933,213,5.89773,0,0.508125,2547
1.54822e-07,2.32366e-06,-2.47028e-06,-3.7165e-05,-0.00181584,-0.00260842,7.4888,2.17933,-0.186584,3.84203,7.49428,2.17705,-0.189782,6.81614,213,5.89773,0,0.519375,2548
1.71032e-07,2.22961e-06,-2.48782e-06,-6.56216e-05,-0.00157588,-0.00270307,7.77447,3.26624,-0.0985248,3.96046,7.79844,3.26622,-0.122481,6.88351,213,5.43636,0,0.51375,2549
2.08322e-07,2.22001e-06,-2.49888e-06,-8.3354e-05,-0.00145652,-0.00274561,7.90892,3.80991,-0.0381144,3.97378,7.90939,3.8095,-0.0381653,6.88394,213,4.975,0,0.519375,2550
4.59998e-08,2.32046e-06,-2.43864e-06,-2.33521e-05,-0.00168484,-0.00266773,7.80119,2.84151,-0.0924885,3.95452,7.81183,2.83558,-0.097204,6.92521,213,8.66591,0,0.508125,2551
7.55419e-08,2.34169e-06,-2.43763e-06,-4.06136e-05,-0.00172354,-0.00262259,7.71536,2.69171,0.00796201,3.86072,7.72267,2.69113,0.00123002,6.78869,213,7.74318,0,0.508125,2552
1.17326e-07,2.35926e-06,-2.4568e-06,-4.39174e-05,-0.00182734,-0.00255191,7.59,2.26636,0.103465,3.74577,7.59358,2.2642,0.102044,6.67834,213,6.82045,0,0.519375,2553
9.62924e-08,2.30146e-06,-2.46144e-06,-4.96442e-05,-0.00176455,-0.00261407,7.55674,2.43763,-0.0982575,3.83052,7.55976,2.43763,-0.101276,6.7592,213,7.28182,0,0.51375,2554
7.5627e-08,2.35031e-06,-2.46706e-06,-4.05445e-05,-0.00172958,-0.00260997,7.73666,2.69476,0.0667386,3.83716,7.73904,2.69439,0.0647217,6.75496,213,7.74318,0,0.519375,2555
-1.7328e-08,2.32267e-06,-2.44326e-06,-3.91465e-05,-0.00156233,-0.00271964,7.9279,3.38107,-0.0735644,4.00555,7.93367,3.37917,-0.0774335,6.9595,213,10.5114,0,0.508125,2556
1.89665e-08,2.31471e-06,-2.44404e-06,-3.94803e-05,-0.00155358,-0.00272399,7.9398,3.42011,-0.0736763,4.01214,7.94666,3.4172,-0.0776276,6.96847,213,9.58864,0,0.508125,2557
4.59734e-08,2.32864e-06,-2.46864e-06,-2.36278e-05,-0.00169039,-0.00265661,7.81717,2.84175,-0.0424768,3.93364,7.824,2.83573,-0.043279,6.8944,213,8.66591,0,0.519375,2558
3.71731e-08,2.2585e-06,-2.46402e-06,-3.21122e-05,-0.00158057,-0.00270745,7.95203,3.32978,-0.0340476,3.99559,7.9546,3.32974,-0.0365725,6.94911,213,9.12727,0,0.51375,2559
1.89198e-08,2.32252e-06,-2.47451e-06,-3.93769e-05,-0.00155846,-0.00270775,7.97645,3.44188,0.0111589,3.98505,7.98028,3.43902,0.0101808,6.92469,213,9.58864,0,0.519375,2560
-7.57828e-08,2.34332e-06,-2.43392e-06,-3.55273e-05,-0.00172042,-0.00262413,7.7517,2.72216,0.0245307,3.86962,7.75772,2.72218,0.0184897,6.80303,213,12.3568,0,0.508125,2561
-4.68836e-08,2.31747e-06,-2.4389e-06,-2.70594e-05,-0.00168249,-0.0026639,7.798,2.85641,-0.0731575,3.94208,7.80634,2.85274,-0.0778259,6.90241,213,11.4341,0,0.508125,2562
-4.68765e-08,2.32583e-06,-2.46885e-06,-2.7477e-05,-0.00168841,-0.00265447,7.80655,2.84856,-0.0352319,3.92366,7.8112,2.8448,-0.0361198,6.87551,213,11.4341,0,0.519375,2563
-3.52813e-08,2.27449e-06,-2.46242e-06,-3.41485e-05,-0.00159453,-0.00269815,7.92471,3.26686,-0.027541,3.97865,7.92738,3.26658,-0.0299264,6.92491,213,10.9727,0,0.51375,2564
-1.72528e-08,2.33054e-06,-2.47368e-06,-3.90046e-05,-0.00156727,-0.00270308,7.96565,3.40368,0.0132009,3.97815,7.9685,3.40183,0.0122032,6.91544,213,10.5114,0,0.519375,2565
-1.55311e-07,2.29948e-06,-2.44492e-06,-3.41016e-05,-0.00179212,-0.00262495,7.53045,2.28262,-0.203439,3.87199,7.53684,2.27993,-0.207139,6.84799,213,14.2023,0,0.508125,2566
-1.17126e-07,2.34942e-06,-2.43168e-06,-4.85898e-05,-0.00179716,-0.0025709,7.59668,2.37706,0.0673869,3.7728,7.60527,2.3762,0.0596597,6.69499,213,13.2795,0,0.508125,2567
-7.58505e-08,2.35193e-06,-2.46342e-06,-3.52677e-05,-0.00172652,-0.00261583,7.76028,2.71178,0.057115,3.85308,7.76174,2.71187,0.0555691,6.7802,213,12.3568,0,0.519375,2568
-9.30989e-08,2.32649e-06,-2.45202e-06,-4.38803e-05,-0.00175997,-0.0026206,7.58604,2.46339,-0.105648,3.84775,7.58797,2.46335,-0.107535,6.78572,213,12.8182,0,0.51375,2569
-1.16944e-07,2.35845e-06,-2.46066e-06,-4.82632e-05,-0.0018041,-0.0025551,7.62683,2.38554,0.143749,3.74459,7.63025,2.38479,0.141076,6.65721,213,13.2795,0,0.519375,2570
-2.93292e-07,2.25275e-06,-2.44714e-06,-9.00559e-05,-0.00170062,-0.0026218,7.48618,2.67852,-0.0712543,3.78749,7.49663,2.67516,-0.0783437,6.6411,213,16.0477,0,0.508125,2571
-2.10448e-07,2.21784e-06,-2.46933e-06,-8.93861e-05,-0.0015468,-0.00269203,7.75542,3.40494,-0.013653,3.89507,7.76602,3.40482,-0.0241275,6.76255,213,15.125,0,0.508125,2572
-1.552e-07,2.30788e-06,-2.47458e-06,-3.45682e-05,-0.00179965,-0.00261118,7.5474,2.27851,-0.143973,3.84794,7.5513,2.27522,-0.144582,6.81612,213,14.2023,0,0.519375,2573
-1.69373e-07,2.22595e-06,-2.47916e-06,-6.69174e-05,-0.00152099,-0.00273384,7.84301,3.50251,-0.117942,3.98173,7.84428,3.50248,-0.119184,6.90596,213,14.6636,0,0.51375,2574
-2.10647e-07,2.22554e-06,-2.49966e-06,-8.94153e-05,-0.00155334,-0.0026988,7.71299,3.34305,-0.076233,3.89617,7.7147,3.34274,-0.0776393,6.76512,213,15.125,0,0.519375,2575
-5.3853e-07,2.17417e-06,-2.45344e-06,-0.000187009,-0.00170728,-0.00257496,7.01669,2.47857,-0.111535,3.57569,7.0327,2.4697,-0.118681,6.27148,213,17.8932,0,0.508125,2576
-3.90418e-07,2.28912e-06,-2.41257e-06,-0.000133931,-0.00175361,-0.00256592,7.2252,2.39035,-0.0344783,3.63698,7.23233,2.39036,-0.0416227,6.41365,213,16.9705,0,0.508125,2577
-3.90381e-07,2.29772e-06,-2.4413e-06,-0.000131844,-0.00175961,-0.00254644,7.2808,2.42179,0.0730443,3.60598,7.28284,2.42191,0.0708834,6.37057,213,16.9705,0,0.519375,2578
-3.35389e-07,2.29664e-06,-2.43378e-06,-9.82488e-05,-0.00177979,-0.00257182,7.34315,2.32364,-0.0406399,3.69677,7.34941,2.32086,-0.0441233,6.54002,213,16.5091,0,0.51375,2579
-2.93796e-07,2.26099e-06,-2.47647e-06,-9.07404e-05,-0.00170658,-0.00260889,7.50401,2.68062,-0.012858,3.7618,7.50912,2.67714,-0.0144838,6.60293,213,16.0477,0,0.519375,2580
-5.37956e-07,2.1825e-06,-2.48253e-06,-0.000187946,-0.00171418,-0.00258849,6.94615,2.39023,-0.219649,3.58814,6.95594,2.38115,-0.22035,6.29268,213,17.8932,0,0.519375,2581
-6.31031e-07,2.06636e-06,-2.51587e-06,-0.000217326,-0.00158621,-0.00262409,7.05822,2.97201,-0.126151,3.59449,7.06178,2.9695,-0.127199,6.2457,213,18.3545,0,0.51375,2582
2.30295e-06,-3.39865e-07,-2.42171e-06,-0.00173409,-0.000126715,-0.0025617,2.54681,7.34494,0.076343,3.63887,7.34981,2.54621,0.0720722,6.40942,213,-0.1,16.575,0.51375,2583
2.3569e-06,1.177e-07,-2.43438e-06,-0.00174588,-3.62669e-05,-0.00259019,2.67072,7.77404,0.150402,3.81754,7.77985,2.67055,0.144766,6.73718,213,-0.1,6.825,0.51375,2584
2.24739e-06,4.38841e-07,-2.4123e-06,-0.0016493,-0.000155185,-0.00260506,2.841,7.30105,-0.0120146,3.6618,7.30661,2.84041,-0.0169906,6.39323,213,-0.1,2.925,0.51375,2585
2.17124e-06,-8.01041e-07,-2.36003e-06,-0.00193067,-0.000635217,-0.00219133,0.898434,4.76545,0.120343,2.34923,4.79228,0.898121,0.0938267,4.3524,213,-0.1,18.525,0.51375,2586
2.36542e-06,-1.63645e-07,-2.41857e-06,-0.00163509,-7.23329e-05,-0.00266404,3.00419,7.66915,-0.0672852,3.87076,7.67177,3.00403,-0.0697447,6.75156,213,-0.1,14.625,0.51375,2587
2.36311e-06,-7.36499e-08,-2.43215e-06,-0.00172573,-2.59748e-05,-0.00260526,2.77963,7.85353,0.154175,3.85577,7.85971,2.77945,0.148175,6.78971,213,-0.1,12.675,0.51375,2588
2.35399e-06,-1.29303e-08,-2.41912e-06,-0.0015174,-3.31531e-05,-0.00273134,3.63962,8.07019,0.0159002,4.03188,8.0752,3.63907,0.0114414,6.99511,213,-0.1,10.725,0.51375,2589
2.35208e-06,4.61843e-08,-2.41685e-06,-0.00152676,-3.2366e-05,-0.00273864,3.56133,8.02219,-0.0562446,4.04177,8.02498,3.56085,-0.0585603,7.01328,213,-0.1,8.775,0.51375,2590
2.3358e-06,2.34805e-07,-2.42832e-06,-0.00162755,-8.97345e-05,-0.00265799,3.01458,7.60509,-0.0613614,3.83571,7.60757,3.01457,-0.0638373,6.68666,213,-0.1,4.875,0.51375,2591
2.20584e-06,9.95697e-07,-2.28315e-06,-0.00192465,-0.000686706,-0.00216783,0.846681,4.54203,0.120756,2.24001,4.56971,0.850081,0.0896806,4.15238,213,-0.1,0.975,0.51375,2592
2.12895e-06,1.40905e-06,-2.12391e-06,-0.00190093,-0.00100041,-0.00202621,0.446912,3.13503,0.0729396,1.57708,3.14752,0.513987,-0.00662815,2.92876,213,-0.1,0.4875,0.519375,2593
2.11578e-06,1.4028e-06,-2.10096e-06,-0.00188429,-0.000992252,-0.00203265,0.554853,3.21764,0.111965,1.6082,3.23755,0.625771,0.0211386,2.96076,213,-0.1,0.4875,0.508125,2594
2.22355e-06,7.35826e-07,-2.38042e-06,-0.00194841,-0.000375814,-0.00235847,1.0818,5.77612,-0.142237,2.98288,5.79115,1.09915,-0.174612,5.44186,213,-0.1,1.4625,0.508125,2595
2.23534e-06,7.36938e-07,-2.4071e-06,-0.00196401,-0.000378288,-0.00235835,0.978269,5.71177,-0.198874,2.96773,5.71384,0.998938,-0.221612,5.42907,213,-0.1,1.4625,0.519375,2596
2.0395e-06,-1.18505e-06,-2.29337e-06,-0.00190054,-0.000944467,-0.00205729,0.528204,3.38215,0.0602927,1.73142,3.40096,0.631561,-0.0618782,3.17346,213,-0.1,19.0125,0.508125,2597
2.0506e-06,-1.18817e-06,-2.31653e-06,-0.00191558,-0.000950009,-0.00204082,0.470266,3.35257,0.0964201,1.66397,3.37116,0.504888,0.0432105,3.12281,213,-0.1,19.0125,0.519375,2598
2.20955e-06,-5.67387e-07,-2.39345e-06,-0.0019451,-0.000322845,-0.00238341,1.19106,6.03362,-0.117321,3.09847,6.04934,1.20562,-0.147601,5.64335,213,-0.1,18.0375,0.508125,2599
2.2205e-06,-5.67629e-07,-2.42043e-06,-0.0019595,-0.000323128,-0.00238801,1.08694,5.97163,-0.192196,3.09269,5.97345,1.10486,-0.211934,5.64341,213,-0.1,18.0375,0.519375,2600
2.29607e-06,-2.83804e-07,-2.41775e-06,-0.00171834,-0.000103022,-0.00259913,2.60021,7.42205,-0.0290025,3.73468,7.43392,2.59478,-0.0354416,6.56227,213,-0.1,16.0875,0.508125,2601
2.25745e-06,-4.07311e-07,-2.41164e-06,-0.00174271,-0.000150305,-0.00256728,2.40122,7.15466,-0.060192,3.61621,7.16337,2.40138,-0.0690527,6.36739,213,-0.1,17.0625,0.508125,2602
2.26578e-06,-4.07308e-07,-2.44068e-06,-0.00174904,-0.000149748,-0.00257995,2.32379,7.09781,-0.156528,3.6285,7.09918,2.32371,-0.157818,6.38855,213,-0.1,17.0625,0.519375,2603
2.17679e-06,-4.86119e-07,-2.44572e-06,-0.00166967,-0.00014652,-0.00261266,2.71895,7.26567,-0.0959456,3.68203,7.26709,2.71856,-0.0969738,6.43606,213,-0.1,17.55,0.51375,2604
2.35772e-06,-1.29676e-07,-2.39538e-06,-0.00162872,-6.74745e-05,-0.00266806,3.04607,7.70651,-0.0564129,3.8869,7.71242,3.04514,-0.0613927,6.77739,213,-0.1,14.1375,0.508125,2605
2.32521e-06,-2.00285e-07,-2.41959e-06,-0.00163554,-7.73167e-05,-0.00266345,2.98748,7.6389,-0.0808986,3.86609,7.64669,2.98427,-0.0854832,6.74344,213,-0.1,15.1125,0.508125,2606
2.25378e-06,-2.3925e-07,-2.4581e-06,-0.00165609,-8.20384e-05,-0.00264558,2.90269,7.60135,-0.051018,3.8291,7.6044,2.90241,-0.05379,6.68938,213,-0.1,15.6,0.51375,2607
2.3042e-06,-2.83851e-07,-2.44695e-06,-0.00172392,-0.000103407,-0.0025814,2.62084,7.45819,0.0611913,3.70293,7.46532,2.61545,0.059454,6.51541,213,-0.1,16.0875,0.519375,2608
2.33313e-06,-2.00069e-07,-2.4494e-06,-0.00164057,-7.78196e-05,-0.00264799,3.004,7.66892,-0.00322036,3.83865,7.67314,3.0007,-0.00414907,6.70081,213,-0.1,15.1125,0.519375,2609
2.33512e-06,-6.0847e-08,-2.42948e-06,-0.00170157,-2.61541e-05,-0.00264713,2.79499,7.79623,-0.0275964,3.92064,7.80646,2.79198,-0.0348174,6.87828,213,-0.1,12.1875,0.508125,2610
2.35162e-06,-8.59457e-08,-2.4058e-06,-0.00174109,-2.52852e-05,-0.00262269,2.63194,7.75375,0.000291842,3.88401,7.76134,2.63131,-0.00667329,6.84172,213,-0.1,13.1625,0.508125,2611
2.31923e-06,-9.82388e-08,-2.40975e-06,-0.00166908,-4.72899e-05,-0.00265809,2.89323,7.7344,-0.0590345,3.89933,7.73716,2.89293,-0.0614981,6.81962,213,-0.1,13.65,0.51375,2612
2.36608e-06,-1.29645e-07,-2.42525e-06,-0.00163405,-6.66034e-05,-0.00265449,3.05906,7.73801,0.0129678,3.86422,7.74017,3.05813,0.0117331,6.7428,213,-0.1,14.1375,0.519375,2613
2.3606e-06,-8.6321e-08,-2.43536e-06,-0.00174827,-2.51912e-05,-0.00261321,2.61809,7.76163,0.0362045,3.86471,7.76395,2.61744,0.0345363,6.81549,213,-0.1,13.1625,0.519375,2614
2.36246e-06,2.51123e-09,-2.39432e-06,-0.00152369,-3.08081e-05,-0.00272682,3.62267,8.07902,0.0312322,4.02989,8.08502,3.62266,0.0252388,6.99336,213,-0.1,10.2375,0.508125,2615
2.32282e-06,-2.98825e-08,-2.4197e-06,-0.00150437,-3.56281e-05,-0.00272694,3.72595,8.11024,0.0764761,4.02544,8.11972,3.72411,0.068834,6.98209,213,-0.1,11.2125,0.508125,2616
2.28598e-06,-4.78085e-08,-2.45746e-06,-0.00156066,-3.34265e-05,-0.00271842,3.41336,7.97227,-0.042643,4.01097,7.9758,3.41333,-0.0461425,6.96906,213,-0.1,11.7,0.51375,2617
2.34383e-06,-6.08582e-08,-2.4594e-06,-0.00170881,-2.69444e-05,-0.00264314,2.76058,7.78107,-0.0284657,3.90796,7.78583,2.75744,-0.0300858,6.86088,213,-0.1,12.1875,0.519375,2618
2.331e-06,-2.9577e-08,-2.45037e-06,-0.00151015,-3.58135e-05,-0.0027297,3.681,8.082,0.0405338,4.02364,8.08581,3.6792,0.0385236,6.97967,213,-0.1,11.2125,0.519375,2619
2.32313e-06,6.26712e-08,-2.41575e-06,-0.00151581,-3.46997e-05,-0.00273444,3.63461,8.05585,-0.0030829,4.0346,8.06171,3.63316,-0.00748916,6.99923,213,-0.1,8.2875,0.508125,2620
2.3606e-06,3.10347e-08,-2.3934e-06,-0.00153231,-3.01737e-05,-0.00273551,3.54401,8.02801,-0.0476276,4.04154,8.03174,3.54398,-0.0513291,7.01435,213,-0.1,9.2625,0.508125,2621
2.36493e-06,1.68856e-08,-2.40677e-06,-0.00153729,-2.75662e-05,-0.00272397,3.55826,8.06489,0.0159352,4.02662,8.06704,3.55825,0.0138008,6.99095,213,-0.1,9.75,0.51375,2622
2.37041e-06,2.70751e-09,-2.42506e-06,-0.00152881,-3.03674e-05,-0.00273271,3.57388,8.04683,-0.0198621,4.03464,8.04814,3.57385,-0.0211433,7.00202,213,-0.1,10.2375,0.519375,2623
2.36842e-06,3.08996e-08,-2.42411e-06,-0.0015369,-2.99207e-05,-0.00272971,3.53493,8.03339,-0.0256913,4.03041,8.03428,3.5349,-0.0265475,6.99661,213,-0.1,9.2625,0.519375,2624
2.3375e-06,1.34686e-07,-2.42356e-06,-0.00176602,-3.3566e-05,-0.00261025,2.49165,7.66316,-0.0284437,3.85199,7.66956,2.49124,-0.0344307,6.8024,213,-0.1,6.3375,0.508125,2625
2.33519e-06,9.95301e-08,-2.42386e-06,-0.00171753,-3.84826e-05,-0.00263823,2.68584,7.69793,-0.0625062,3.88778,7.70679,2.68323,-0.0687611,6.82894,213,-0.1,7.3125,0.508125,2626
2.34369e-06,9.93411e-08,-2.45365e-06,-0.00172421,-3.887e-05,-0.00262829,2.67505,7.70591,-0.0236937,3.8681,7.71056,2.67235,-0.0256422,6.80116,213,-0.1,7.3125,0.519375,2627
2.29007e-06,8.00303e-08,-2.45137e-06,-0.00158034,-3.73387e-05,-0.0027123,3.29919,7.90517,-0.0797976,3.99447,7.90719,3.29911,-0.0817414,6.94578,213,-0.1,7.8,0.51375,2628
2.331e-06,6.23934e-08,-2.44636e-06,-0.0015206,-3.46628e-05,-0.00272374,3.6392,8.07484,0.0477499,4.01549,8.07749,3.63778,0.0465125,6.96796,213,-0.1,8.2875,0.519375,2629
2.30228e-06,2.79291e-07,-2.4096e-06,-0.00162588,-9.31262e-05,-0.0026478,3.0465,7.62187,-0.00400827,3.82134,7.63116,3.04471,-0.0115112,6.66282,213,-0.1,4.3875,0.508125,2630
2.32785e-06,1.91767e-07,-2.42205e-06,-0.00162324,-8.63797e-05,-0.00266099,3.04231,7.62994,-0.0554631,3.84807,7.6358,3.04132,-0.0603329,6.70671,213,-0.1,5.3625,0.508125,2631
2.29488e-06,1.50532e-07,-2.45035e-06,-0.00167858,-6.23316e-05,-0.00264662,2.82339,7.64802,-0.0662756,3.85946,7.65043,2.8232,-0.0684946,6.75448,213,-0.1,5.85,0.51375,2632
2.34612e-06,1.34823e-07,-2.45293e-06,-0.00177318,-3.37958e-05,-0.00259535,2.4941,7.68629,0.0398446,3.82533,7.68858,2.49373,0.0379235,6.76573,213,-0.1,6.3375,0.519375,2633
2.33578e-06,1.91956e-07,-2.45182e-06,-0.00162837,-8.64349e-05,-0.00264579,3.05871,7.66151,0.0216437,3.82154,7.6636,3.05774,0.0205253,6.6654,213,-0.1,5.3625,0.519375,2634
2.22326e-06,5.24098e-07,-2.40808e-06,-0.00163785,-0.000194382,-0.00258854,2.83956,7.14842,0.0016862,3.58409,7.15908,2.83968,-0.00909909,6.25122,213,-0.1,2.4375,0.508125,2635
2.24842e-06,3.72674e-07,-2.39848e-06,-0.00165313,-0.000116228,-0.00262116,2.88991,7.47768,0.000271391,3.74903,7.48877,2.88837,-0.00928547,6.54908,213,-0.1,3.4125,0.508125,2636
2.25673e-06,3.72682e-07,-2.42799e-06,-0.00165891,-0.00011626,-0.00262613,2.83847,7.44339,-0.0487536,3.7481,7.44618,2.83695,-0.0500228,6.54876,213,-0.1,3.4125,0.519375,2637
2.24373e-06,3.25495e-07,-2.42548e-06,-0.00163493,-8.8889e-05,-0.00264646,3.00844,7.62349,-0.0110596,3.82049,7.62709,3.00767,-0.0138917,6.66534,213,-0.1,3.9,0.51375,2638
2.31019e-06,2.79413e-07,-2.4394e-06,-0.00163101,-9.29307e-05,-0.0026566,2.98759,7.57886,-0.0738948,3.82814,7.58151,2.98582,-0.0747722,6.67481,213,-0.1,4.3875,0.519375,2639
2.19354e-06,6.28091e-07,-2.44431e-06,-0.00168287,-0.000189323,-0.00258072,2.60323,7.06159,-0.0769101,3.57013,7.06241,2.60335,-0.077849,6.24721,213,-0.1,1.95,0.51375,2640
2.23174e-06,5.23848e-07,-2.43722e-06,-0.0016444,-0.000193823,-0.00259393,2.78391,7.114,-0.0505071,3.58386,7.11562,2.78389,-0.0521026,6.25232,213,-0.1,2.4375,0.519375,2641
1.40013e-09,1.85172e-08,-2.91501e-06,-2.89433e-05,-2.71565e-05,-0.00339604,55.1338,55.1632,-0.00990863,27.5866,55.1632,55.1338,-0.00991072,55.1584,213,10.0046,9.67452,0.5025,2642
-1.7953e-07,-9.50107e-08,-2.90661e-06,-6.32865e-05,-3.9617e-05,-0.00336982,54.1997,54.5961,0.0857694,27.2561,54.598,54.1978,0.085763,54.3132,213,14.5848,13.5835,0.5025,2643
1.74416e-07,1.67935e-07,-2.90198e-06,-6.35171e-05,-6.01201e-05,-0.00336201,53.9425,53.9967,-0.0546415,27.0459,54.0371,53.9021,-0.0546585,54.0244,213,5.56294,5.69055,0.5025,2644
1.59238e-07,-1.00491e-07,-2.90671e-06,-5.87004e-05,-4.01974e-05,-0.00337401,54.281,54.5916,0.0323532,27.2824,54.5971,54.2755,0.0323333,54.4047,213,5.84897,13.7254,0.5025,2645
-1.72589e-07,1.6802e-07,-2.90265e-06,-6.21608e-05,-5.98654e-05,-0.0033377,63.7577,63.8119,0.0320972,31.9085,63.8491,63.7205,0.0320959,63.7528,213,14.5361,5.68958,0.5025,2646
6.77417e-10,-1.84874e-07,-2.90276e-06,-2.54604e-05,-6.42638e-05,-0.00338381,51.985,51.3686,0.100139,25.9424,51.985,51.3686,0.100136,51.5794,213,10.0512,15.2034,0.5025,2647
3.98445e-10,2.73524e-07,-2.89353e-06,-2.47492e-05,-8.83124e-05,-0.00336749,54.6851,53.615,-0.0473698,27.3663,54.6852,53.6149,-0.047373,54.2054,213,10.05,4.43898,0.5025,2648
-3.22452e-07,1.42405e-08,-2.8818e-06,-9.14053e-05,-2.43407e-05,-0.00334071,63.7041,65.0219,0.131348,32.4454,65.022,63.7041,0.131265,64.2419,213,15.9635,9.75,0.5025,2649
3.17462e-07,1.42544e-08,-2.8807e-06,-0.000102686,-2.38834e-05,-0.00339018,40.8479,41.8827,-0.100723,20.9918,41.8828,40.8478,-0.100774,41.4758,213,4.13654,9.75,0.5025,2650
-3.6693e-07,-2.2974e-07,-2.88148e-06,-0.000121144,-7.51428e-05,-0.00327422,68.1581,69.1635,0.660982,34.2727,69.2065,68.1151,0.660971,68.0064,213,16.8055,16.084,0.5025,2651
-3.61446e-07,3.51818e-07,-2.87686e-06,-0.000112693,-0.000113264,-0.00331702,45.3105,45.29,0.214892,22.6141,45.4431,45.1574,0.21489,45.086,213,16.8055,3.41598,0.5025,2652
3.66758e-07,-2.28872e-07,-2.88299e-06,-0.000121148,-7.51658e-05,-0.00332706,45.5053,46.1732,0.42419,22.8856,46.1954,45.4832,0.424108,45.4194,213,3.29449,16.084,0.5025,2653
3.61845e-07,3.51825e-07,-2.87697e-06,-0.000115121,-0.000112918,-0.00331357,45.3012,45.3184,0.300104,22.5729,45.4459,45.1737,0.300101,45.0103,213,3.29449,3.41598,0.5025,2654
1.00077e-07,-1.11504e-08,-2.91306e-06,-4.45731e-05,-2.38799e-05,-0.00335767,68.1032,68.539,0.00131652,34.269,68.5393,68.1029,0.001316,68.3208,213,7.09327,10.8337,0.5025,2655
-1.00881e-07,-1.05846e-08,-2.91134e-06,-4.53029e-05,-2.45484e-05,-0.00337255,61.5615,61.9583,-0.0291239,30.9939,61.9588,61.561,-0.0291255,61.79,213,13.0067,10.8337,0.5025,2656
-8.50244e-08,-2.74286e-07,-2.90205e-06,-3.80786e-05,-9.44898e-05,-0.00334956,54.5133,53.5691,0.369063,27.0758,54.5207,53.5617,0.369057,53.6786,213,12.9569,16.3818,0.5025,2657
9.17761e-08,4.0351e-07,-2.89558e-06,-4.01935e-05,-0.000127452,-0.00332456,57.1856,55.6231,0.165541,28.5108,57.1872,55.6215,0.165528,56.2552,213,7.05697,3.22197,0.5025,2658
9.28974e-08,-3.0493e-07,-2.90466e-06,-4.06681e-05,-0.000118944,-0.0033419,50.7678,49.5355,0.191585,25.2922,50.7736,49.5321,0.189221,49.9752,213,6.93173,16.6565,0.5025,2659
-9.15804e-08,4.05854e-07,-2.89526e-06,-3.95528e-05,-0.000134364,-0.00333811,53.8518,52.2512,-0.166336,27.0095,53.8528,52.2503,-0.166344,53.2359,213,13.0428,3.22155,0.5025,2660
-4.00951e-08,1.04299e-07,-2.91294e-06,-3.03646e-05,-4.24288e-05,-0.00339653,51.2502,51.0639,0.0036633,25.6235,51.2506,51.0635,0.00365143,51.1537,213,11.4485,7.04177,0.5025,2661
4.09415e-08,1.02917e-07,-2.91217e-06,-3.04379e-05,-4.28291e-05,-0.00337925,58.6529,58.4308,-0.0549788,29.3545,58.6541,58.4296,-0.0549865,58.5972,213,8.64136,7.06189,0.5025,2662
4.60168e-07,-5.88707e-08,-2.90547e-06,-0.000166097,-2.83023e-05,-0.00330483,59.9023,62.6529,-0.0763294,31.3663,62.6559,59.8997,-0.0767439,61.401,213,2.80587,12.6089,0.5025,2663
4.44688e-07,9.6131e-08,-2.90807e-06,-0.000164154,-3.79468e-05,-0.00333237,45.6389,47.4921,-0.00156269,23.7471,47.4925,45.6387,-0.00173652,46.595,213,2.86105,6.98653,0.5025,2664
-4.56297e-07,-5.95535e-08,-2.91311e-06,-0.000175123,-2.79026e-05,-0.00331696,51.454,53.9301,0.10118,26.919,53.9389,51.4454,0.100934,52.6356,213,17.2941,12.6089,0.5025,2665
-4.39151e-07,9.69297e-08,-2.91541e-06,-0.000166977,-3.9027e-05,-0.00331581,55.4137,57.6837,0.074869,28.8054,57.6856,55.4118,0.0748467,56.5082,213,17.239,6.9864,0.5025,2666
2.82814e-08,-5.9339e-08,-2.91421e-06,-2.90257e-05,-3.25746e-05,-0.00340418,50.6136,50.5606,-0.00600377,25.3098,50.6136,50.5606,-0.00601102,50.5931,213,9.07089,12.5109,0.5025,2667
-5.47748e-08,-8.59717e-08,-2.91234e-06,-3.3238e-05,-3.89203e-05,-0.00338909,54.9382,54.8424,0.0224442,27.4592,54.9409,54.8397,0.0224406,54.8679,213,11.8993,13.2829,0.5025,2668
-1.39111e-07,5.19631e-08,-2.90692e-06,-5.52246e-05,-2.90384e-05,-0.00340153,46.3853,46.7606,-0.0548409,23.4094,46.7638,46.3822,-0.0549455,46.6291,213,13.7888,8.39217,0.5025,2669
1.41038e-07,5.17358e-08,-2.90912e-06,-5.54066e-05,-2.97929e-05,-0.0033436,70.9164,71.4818,-0.178851,35.8312,71.4835,70.9148,-0.178956,71.3798,213,6.25605,8.40327,0.5025,2670
5.51472e-10,6.06778e-07,-2.9253e-06,-1.73733e-05,-0.000150939,-0.00333751,54.4803,52.3639,0.0436339,27.2185,54.4806,52.3636,0.0436209,53.41,213,10.05,2.12359,0.5025,2671
-2.32142e-10,-4.07311e-07,-2.92478e-06,-1.24901e-05,-4.11549e-05,-0.00340269,55.2192,54.6855,-0.284377,27.7532,55.2213,54.6843,-0.28522,55.2399,213,10.05,17.3764,0.5025,2672
4.99135e-08,-1.22776e-07,-2.90826e-06,-3.03643e-05,-4.65856e-05,-0.00337874,57.7335,57.4462,0.0263297,28.8555,57.7374,57.4423,0.0263252,57.5641,213,8.3247,14.1296,0.5025,2673
-1.73897e-07,-3.58269e-07,-2.90545e-06,-6.29512e-05,-7.61242e-05,-0.00336151,53.8346,53.8371,-0.232245,27.154,54.0753,53.5968,-0.232722,54.0704,213,14.8385,17.2283,0.5025,2674
1.81111e-07,5.55885e-07,-2.89665e-06,-6.31844e-05,-0.000118508,-0.00334713,53.2476,51.8284,0.0104368,26.6224,53.2551,51.8211,0.0103234,52.5424,213,5.25123,2.284,0.5025,2675
-1.81585e-07,5.35421e-07,-2.91475e-06,-6.30643e-05,-0.000154467,-0.00328205,64.9703,63.0429,0.108115,32.4327,64.9735,63.0398,0.108033,63.9205,213,14.8487,2.28395,0.5025,2676
1.74041e-07,-3.57567e-07,-2.91392e-06,-6.29365e-05,-5.10786e-05,-0.0033669,57.7506,57.973,-0.590222,29.3574,58.1209,57.6064,-0.593923,58.4593,213,5.25615,17.2547,0.5025,2677
6.17723e-07,3.17166e-08,-2.93233e-06,-0.000162937,-2.45094e-05,-0.00332041,54.4977,57.0053,0.0835359,28.4627,57.0073,54.4973,0.0818897,55.7129,213,2.01827,9.01995,0.5025,2678
-6.13547e-07,3.15482e-08,-2.9236e-06,-0.000180339,-2.4376e-05,-0.0033286,48.6274,51.079,0.111224,25.4841,51.0793,48.6274,0.110971,49.7877,213,18.0817,9.01995,0.5025,2679
2.06908e-07,-2.94334e-08,-2.90382e-06,-7.25533e-05,-2.56766e-05,-0.00336902,54.2104,54.9981,0.333456,27.3328,54.9989,54.2097,0.333361,54.2752,213,5.2458,11.5826,0.5025,2680
-2.11746e-07,-2.95548e-08,-2.90232e-06,-7.19284e-05,-2.5899e-05,-0.00336732,57.2821,58.1053,0.198001,28.9557,58.1093,57.2781,0.197973,57.5002,213,14.9246,11.5817,0.5025,2681
4.85166e-08,2.14107e-07,-2.90222e-06,-3.11105e-05,-7.33585e-05,-0.00337068,54.6925,53.9773,0.0235373,27.3352,54.6939,53.9759,0.0235321,54.3149,213,8.32648,5.14147,0.5025,2682
-4.8599e-08,2.12853e-07,-2.90335e-06,-3.02528e-05,-7.26061e-05,-0.0033532,61.6176,60.8158,0.13982,30.7399,61.6196,60.8138,0.139784,61.0809,213,11.77,5.13793,0.5025,2683
6.74278e-07,-1.32801e-07,-2.92645e-06,-0.00020793,-4.13197e-05,-0.00329699,50.0761,53.0405,-0.112398,26.577,53.0414,50.0754,-0.112546,51.7347,213,1.80645,14.4222,0.5025,2684
-6.70249e-07,-1.32107e-07,-2.92369e-06,-0.000216306,-4.36727e-05,-0.00329298,50.0234,53.0162,-0.135307,26.5766,53.0178,50.0219,-0.135459,51.7205,213,18.2936,14.4222,0.5025,2685
6.65915e-07,1.94944e-07,-2.9212e-06,-0.000183126,-5.59255e-05,-0.00326978,61.9776,64.5898,0.123845,32.236,64.5957,61.972,0.123623,63.201,213,1.78318,5.10924,0.5025,2686
-6.64878e-07,1.93152e-07,-2.92095e-06,-0.000189026,-5.76347e-05,-0.00329443,53.1834,55.4035,-0.0760872,27.7464,55.4167,53.1703,-0.0761843,54.4045,213,18.3168,5.10922,0.5025,2687
-6.50753e-08,3.64866e-08,-2.91334e-06,-3.44981e-05,-2.68128e-05,-0.00339901,52.3945,52.5217,0.0449423,26.239,52.5229,52.3933,0.04494,52.4133,213,12.1199,9.01285,0.5025,2688
6.60908e-08,3.78973e-08,-2.91417e-06,-3.44185e-05,-2.73358e-05,-0.00340902,48.6029,48.7045,-0.0275185,24.3665,48.7055,48.6019,-0.0275345,48.6813,213,7.93564,8.95228,0.5025,2689
6.04054e-07,5.76646e-07,-2.93159e-06,-0.000189252,-0.000207853,-0.00325131,41.3461,41.1138,-0.0484685,20.7673,41.4862,40.9737,-0.0484933,41.2808,213,1.79521,1.92508,0.5025,2690
6.06351e-07,-4.04491e-07,-2.93422e-06,-0.000228977,-9.95554e-05,-0.00327029,49.1454,51.323,-0.488535,25.9076,51.3246,49.146,-0.490703,50.7611,213,1.79521,17.5749,0.5025,2691
-6.11431e-07,5.83847e-07,-2.93532e-06,-0.00019139,-0.000214863,-0.00321448,49.3799,48.9857,0.0372521,24.7324,49.502,48.8636,0.0372465,49.1487,213,18.3048,1.92508,0.5025,2692
-6.04479e-07,-3.99253e-07,-2.93707e-06,-0.000227358,-0.000133851,-0.00325245,48.8872,50.5385,-0.619698,25.5839,50.5463,48.8812,-0.621547,50.356,213,18.3048,17.5749,0.5025,2693
-3.02216e-08,-2.94707e-08,-2.91506e-06,-2.92272e-05,-2.5933e-05,-0.0033969,55.1238,55.1814,-0.0306014,27.6067,55.1827,55.1225,-0.0306085,55.1832,213,11.0632,11.519,0.5025,2694
-3.24393e-07,-1.19304e-07,-2.89119e-06,-0.000108696,-4.34842e-05,-0.00332538,61.5319,62.8189,-0.0152213,31.4193,62.8233,61.5275,-0.0152271,62.2008,213,16.234,14.2232,0.5025,2695
3.23205e-07,-1.19173e-07,-2.89281e-06,-0.00010687,-4.33795e-05,-0.00336162,46.8652,47.8086,0.00747976,23.903,47.8135,46.8603,0.00747771,47.3366,213,3.86597,14.2232,0.5025,2696
3.16431e-07,1.86178e-07,-2.88653e-06,-0.000103145,-6.29801e-05,-0.00334679,50.0536,50.6913,-0.0441529,25.3749,50.7056,50.0393,-0.0441529,50.4199,213,3.86597,5.2768,0.5025,2697
-3.17128e-07,1.86399e-07,-2.88769e-06,-0.00010462,-6.24714e-05,-0.00333944,52.8864,53.5881,-0.0738821,26.8373,53.6006,52.8739,-0.0738963,53.3149,213,16.234,5.2768,0.5025,2698
7.58604e-07,-1.82054e-08,-2.92964e-06,-0.000370398,-2.47396e-05,-0.00319806,49.2733,55.5767,1.10832,27.2357,55.5784,49.2729,1.10701,51.6084,213,1.52042,11.1343,0.5025,2699
-7.56857e-07,-1.79451e-08,-2.90956e-06,-0.000385036,-2.44727e-05,-0.00321521,46.3422,52.4076,0.516573,25.9463,52.4084,46.3422,0.515741,49.1412,213,18.5796,11.1343,0.5025,2700
-2.34426e-07,8.76998e-08,-2.89967e-06,-7.45568e-05,-3.89636e-05,-0.00338586,45.7499,46.2564,0.150761,23.0548,46.2602,45.7463,0.150577,45.8548,213,15.3213,7.29634,0.5025,2701
2.4433e-07,8.31488e-08,-2.8977e-06,-8.02456e-05,-3.71792e-05,-0.00336195,53.8342,54.5558,0.179001,27.1899,54.5586,53.8316,0.178811,54.02,213,4.69563,7.40844,0.5025,2702
4.72548e-08,7.62114e-07,-2.93166e-06,-2.74265e-05,-0.000290098,-0.00327536,46.7995,42.8483,0.148266,23.3258,46.7999,42.8479,0.14822,44.8066,213,8.29761,1.62276,0.5025,2703
-4.80865e-08,7.5291e-07,-2.92652e-06,-2.79448e-05,-0.00027605,-0.00328394,49.8701,45.9101,-0.477863,25.1775,49.8738,45.9097,-0.481161,48.4946,213,11.8024,1.62276,0.5025,2704
-4.39409e-08,-5.16639e-07,-2.92542e-06,-1.71236e-05,-0.00016163,-0.00335314,53.7227,51.2911,-1.08936,27.4193,53.7374,51.2883,-1.10117,53.6559,213,11.885,17.8638,0.5025,2705
4.50607e-08,-5.09543e-07,-2.928e-06,-2.46881e-05,-0.000166406,-0.00332715,60.8538,58.2476,-1.10178,31.0018,60.8821,58.239,-1.12151,60.7252,213,8.15556,17.8726,0.5025,2706
-1.86109e-07,-1.85689e-07,-2.89423e-06,-6.73642e-05,-6.36198e-05,-0.00335581,53.894,53.9585,0.0925777,26.9629,54.0183,53.8342,0.0925554,53.8339,213,14.7805,15.358,0.5025,2707
1.8337e-07,-1.97998e-07,-2.89162e-06,-6.54424e-05,-7.29843e-05,-0.00333457,61.1725,61.031,0.165709,30.5302,61.226,60.9776,0.165628,60.9365,213,5.35339,15.5038,0.5025,2708
-1.85164e-07,2.91478e-07,-2.88416e-06,-6.43632e-05,-9.85881e-05,-0.00335866,46.3416,45.8458,-0.0310699,23.194,46.3569,45.8305,-0.0310709,46.127,213,14.8124,4.1247,0.5025,2709
1.85252e-07,2.90605e-07,-2.88925e-06,-6.50993e-05,-9.57817e-05,-0.00332786,58.4674,57.8973,0.0520774,29.2182,58.4885,57.8762,0.0520763,58.1327,213,5.2873,4.12494,0.5025,2710
-4.70202e-08,-1.66349e-07,-2.90659e-06,-3.0727e-05,-6.07871e-05,-0.00337075,58.1911,57.6532,-0.0609655,29.1267,58.1925,57.6519,-0.0609862,57.985,213,11.7258,14.9304,0.5025,2711
5.96521e-10,6.82933e-08,-2.9141e-06,-2.8671e-05,-3.23799e-05,-0.00336726,66.2641,66.1896,-0.0331319,33.1487,66.2642,66.1895,-0.0331412,66.26,213,10.049,7.98216,0.5025,2712
8.45678e-12,1.50153e-07,-2.90945e-06,-2.70599e-05,-5.64317e-05,-0.00338115,54.9592,54.4648,0.0540752,27.4526,54.9592,54.4648,0.054069,54.6596,213,10.0475,6.13403,0.5025,2713
9.25796e-08,-5.76151e-08,-2.91274e-06,-4.1585e-05,-3.12271e-05,-0.00339811,50.7234,50.8848,-0.0260185,25.4563,50.8865,50.7217,-0.0260274,50.8303,213,7.24075,12.4847,0.5025,2714
-3.15148e-07,6.71148e-07,-2.92194e-06,-8.15719e-05,-0.000205532,-0.00326888,52.4612,50.431,0.286064,26.0953,52.4762,50.4166,0.285528,51.1919,213,16.5298,1.69917,0.5025,2715
-2.98096e-07,-4.57661e-07,-2.91689e-06,-8.55076e-05,-8.7905e-05,-0.00333435,50.8778,50.936,0.298659,25.4685,51.235,50.5796,0.297887,50.6126,213,16.5298,17.8008,0.5025,2716
3.16109e-07,6.66625e-07,-2.9237e-06,-8.20771e-05,-0.000241869,-0.00324314,52.0469,49.4169,0.200093,25.935,52.0701,49.3937,0.200071,50.585,213,3.57022,1.69917,0.5025,2717
2.96242e-07,-4.4704e-07,-2.91814e-06,-8.56981e-05,-0.000107261,-0.00331191,56.0084,55.6709,0.221993,28.0152,56.2514,55.4289,0.220963,55.6238,213,3.57022,17.8008,0.5025,2718
3.87631e-08,-1.19134e-08,-2.91507e-06,-3.08068e-05,-2.47957e-05,-0.00339696,55.084,55.1876,-0.0489259,27.6185,55.1881,55.0835,-0.0489521,55.1848,213,8.76949,10.8317,0.5025,2719
3.26742e-08,3.98063e-07,-2.89319e-06,-2.71264e-05,-0.000125886,-0.00332424,64.0498,62.0766,-0.138022,32.094,64.05,62.0764,-0.138032,63.2243,213,8.79125,3.30162,0.5025,2720
4.33224e-08,-2.50537e-07,-2.90182e-06,-2.81114e-05,-8.57595e-05,-0.00335061,58.8118,57.7779,0.241615,29.286,58.8136,57.7762,0.241532,58.0603,213,8.40604,16.053,0.5025,2721
-3.3242e-08,4.01292e-07,-2.89286e-06,-2.79239e-05,-0.000132841,-0.00333767,54.3937,52.6304,0.289174,27.0523,54.3938,52.6304,0.289095,53.2449,213,11.3082,3.30105,0.5025,2722
9.04719e-08,-6.01909e-07,-2.91763e-06,-2.91508e-05,-0.000305946,-0.00325173,49.3404,45.0092,0.349868,24.499,49.3478,45.0019,0.349748,46.9761,213,6.61232,18.1567,0.5025,2723
-9.50097e-08,-5.81363e-07,-2.92538e-06,-3.05621e-05,-0.000247528,-0.00326671,53.5186,49.7797,0.367376,26.5757,53.5187,49.7797,0.367293,51.384,213,13.4325,18.0948,0.5025,2724
1.09689e-07,8.3014e-07,-2.91989e-06,-3.30608e-05,-0.000347094,-0.00321661,56.2738,50.5735,-0.138628,28.2067,56.2747,50.5726,-0.138645,53.7895,213,6.6648,1.42575,0.5025,2725
-1.0467e-07,8.36096e-07,-2.90595e-06,-3.79094e-05,-0.000355437,-0.00322152,52.0869,46.7376,0.129403,25.9816,52.0925,46.7321,0.129303,49.5011,213,13.4351,1.42565,0.5025,2726
-1.11568e-07,-5.56037e-08,-2.91105e-06,-4.59725e-05,-3.10025e-05,-0.00339367,50.6561,50.8866,0.0389082,25.4251,50.8892,50.6535,0.0389057,50.7329,213,13.2888,12.4443,0.5025,2727
-1.76356e-07,1.17035e-08,-2.89986e-06,-6.66162e-05,-2.3434e-05,-0.00338645,50.8788,51.5563,0.100626,25.7279,51.5565,50.8787,0.100611,51.1203,213,14.3478,9.91725,0.5025,2728
1.7281e-07,1.11203e-08,-2.90466e-06,-6.35794e-05,-2.36663e-05,-0.0033699,57.734,58.4481,0.115385,29.1664,58.4482,57.7339,0.115345,57.979,213,5.75081,9.92104,0.5025,2729
-1.05229e-07,1.13625e-07,-2.90938e-06,-4.44252e-05,-4.48322e-05,-0.00337886,54.5928,54.5853,0.0113488,27.3082,54.6278,54.5504,0.0113303,54.5778,213,13.1988,6.77585,0.5025,2730
1.0676e-07,1.13109e-07,-2.90999e-06,-4.43576e-05,-4.50302e-05,-0.0033787,54.5987,54.5871,0.0166668,27.3057,54.628,54.5578,0.0166643,54.5763,213,6.8729,6.78832,0.5025,2731
8.83931e-07,1.00469e-07,-2.88778e-06,-0.000382407,-3.93337e-05,-0.00318885,51.8386,58.3417,0.198708,29.0721,58.3427,51.8377,0.198538,55.18,213,1.2925,6.95314,0.5025,2732
9.35112e-07,-6.46869e-08,-2.88775e-06,-0.000449731,-3.48984e-05,-0.00319728,39.5835,45.8449,-0.456326,23.1526,45.848,39.5812,-0.457128,43.5115,213,1.19679,12.6951,0.5025,2733
-9.31203e-07,-6.54766e-08,-2.87618e-06,-0.000441239,-3.85464e-05,-0.0031725,44.3818,51.1522,-0.265814,25.7098,51.1534,44.3811,-0.266283,48.3903,213,18.9032,12.6951,0.5025,2734
-8.81094e-07,1.01275e-07,-2.87815e-06,-0.000383683,-4.20214e-05,-0.00319949,45.9867,51.7328,0.0637937,25.835,51.7333,45.9866,0.0633231,49.0498,213,18.8075,6.95311,0.5025,2735
-3.34801e-08,-2.76395e-07,-2.90408e-06,-2.78164e-05,-9.61583e-05,-0.00333782,54.958,53.8066,0.759664,27.0998,54.9591,53.8055,0.759591,53.6321,213,11.3338,16.3512,0.5025,2736
8.07202e-07,-2.41891e-07,-2.89562e-06,-0.000294888,-6.66438e-05,-0.00321783,53.4105,57.6076,0.302445,28.6531,57.6082,53.4104,0.301976,55.3269,213,1.41256,16.0564,0.5025,2737
-8.07515e-07,-2.41623e-07,-2.897e-06,-0.000301194,-6.4676e-05,-0.00321612,53.3179,57.6018,0.294028,28.6543,57.6022,53.3178,0.293664,55.291,213,18.6874,16.0564,0.5025,2738
-7.7433e-07,3.42706e-07,-2.90229e-06,-0.000324406,-9.90733e-05,-0.00321878,42.1445,45.5659,0.0279907,22.7692,45.5662,42.1443,0.0278836,43.9274,213,18.6887,3.4452,0.5025,2739
7.82612e-07,3.42635e-07,-2.89827e-06,-0.000315125,-9.85522e-05,-0.00326531,28.0268,30.2033,0.00572266,15.0992,30.2042,28.026,0.00571846,29.1704,213,1.41135,3.4452,0.5025,2740
-7.89996e-09,-9.89435e-08,-2.91192e-06,-2.7664e-05,-4.16115e-05,-0.00338947,55.0569,54.822,0.0214587,27.5178,55.0571,54.8218,0.021455,54.9184,213,10.3511,13.5792,0.5025,2741
3.9706e-07,-2.01251e-08,-2.89595e-06,-0.0001153,-2.24693e-05,-0.00336123,55.7934,57.4483,-0.955662,29.2097,57.4611,55.7833,-0.958331,57.5988,213,3.33627,11.1544,0.5025,2742
-3.90454e-07,-2.00716e-08,-2.9108e-06,-0.000111088,-2.30455e-05,-0.00336659,52.6457,54.1215,-0.846719,27.4965,54.1433,52.627,-0.849816,54.2509,213,16.7755,11.1543,0.5025,2743
-3.70437e-07,5.08584e-08,-2.90654e-06,-0.000109724,-2.85679e-05,-0.0033491,49.0652,50.336,0.640124,24.8571,50.3541,49.0475,0.639808,49.074,213,16.6201,8.35556,0.5025,2744
3.75994e-07,5.0747e-08,-2.89582e-06,-0.000118374,-2.84512e-05,-0.00333021,58.3121,59.9962,0.252819,29.8759,60.0046,58.3037,0.252811,58.9198,213,3.47973,8.35565,0.5025,2745
-1.04204e-07,-1.38859e-07,-2.90639e-06,-4.39807e-05,-5.13393e-05,-0.00336576,58.5846,58.4511,0.0269661,29.2865,58.5999,58.4358,0.026966,58.4911,213,13.2342,14.4853,0.5025,2746
-2.83361e-07,-6.45963e-08,-2.90133e-06,-9.40134e-05,-3.29732e-05,-0.0033716,48.9642,49.9102,-0.23402,25.0723,49.9105,48.9639,-0.23409,49.6781,213,15.8651,12.7577,0.5025,2747
2.82782e-07,-6.59637e-08,-2.89797e-06,-9.42163e-05,-3.34991e-05,-0.00335066,57.645,58.7546,-0.194025,29.4743,58.7547,57.645,-0.194041,58.4018,213,4.29074,12.8307,0.5025,2748
-1.10395e-07,2.29711e-07,-2.89999e-06,-4.64516e-05,-7.88326e-05,-0.00334857,58.0087,57.4248,0.19085,28.9101,58.0111,57.4225,0.190803,57.5282,213,13.4072,4.86033,0.5025,2749
1.09804e-07,2.31e-07,-2.89944e-06,-4.48797e-05,-7.91864e-05,-0.00337536,48.7341,48.217,-0.0719069,24.4054,48.7389,48.2122,-0.071907,48.5496,213,6.69222,4.86036,0.5025,2750
9.69247e-08,-1.79479e-07,-2.90286e-06,-4.31416e-05,-6.57038e-05,-0.0033789,50.0187,49.6727,-0.00505336,25.0144,50.0237,49.6677,-0.00507489,49.8517,213,6.97297,15.2137,0.5025,2751
-1.0114e-06,9.73609e-07,-2.81682e-06,-0.00057776,-0.000557762,-0.00284481,33.831,34.153,0.0905704,17.1532,34.397,33.587,0.0905482,33.9087,213,19.2648,0.968771,0.5025,2752
1.0136e-06,9.74668e-07,-2.8392e-06,-0.000604252,-0.000577698,-0.00282504,30.8479,31.2504,0.0729613,15.6198,31.3125,30.7858,0.0729248,30.9796,213,0.835166,0.968771,0.5025,2753
9.7806e-07,-7.45287e-07,-2.84111e-06,-0.000599531,-0.000469274,-0.00285445,39.2272,41.5595,0.387255,20.6832,41.7532,39.0338,0.386893,40.0759,213,0.835166,18.5312,0.5025,2754
-9.77283e-07,-7.44989e-07,-2.84153e-06,-0.000590347,-0.000469872,-0.00287037,37.2084,39.1906,0.322547,19.5329,39.3881,37.011,0.322394,37.9331,213,19.2648,18.5312,0.5025,2755
-2.34664e-07,4.08885e-08,-2.89287e-06,-8.14896e-05,-2.79065e-05,-0.0033448,66.0778,67.1931,-0.351629,33.7771,67.2024,66.0686,-0.351724,66.9944,213,15.1762,8.73568,0.5025,2756
2.33757e-07,4.0434e-08,-2.89532e-06,-8.25013e-05,-2.79987e-05,-0.00337827,49.4008,50.2449,0.00998616,25.1189,50.2476,49.3983,0.00975318,49.8186,213,4.90336,8.75383,0.5025,2757
1.38238e-06,1.35527e-06,-2.5338e-06,-0.00109134,-0.00106834,-0.00230606,19.0759,19.4627,0.187743,10.0761,20.3351,18.2084,0.182929,19.1774,213,0.367583,0.484385,0.5025,2758
7.8626e-07,1.4e-06,-2.74697e-06,-0.000385264,-0.00114058,-0.00263506,40.234,26.4428,-0.503014,20.3733,40.2434,26.4337,-0.503293,35.8929,213,1.29031,0.484385,0.5025,2759
1.46151e-06,7.5164e-07,-2.71491e-06,-0.00120837,-0.000349714,-0.002618,24.7671,40.5851,-0.537775,20.5686,40.5994,24.7528,-0.537847,35.9375,213,0.367583,1.45939,0.5025,2760
-7.85322e-07,1.38935e-06,-2.72997e-06,-0.000383506,-0.00110211,-0.00267065,36.5193,24.4384,-0.433127,18.4839,36.5344,24.4237,-0.433529,32.6433,213,18.8097,0.484385,0.5025,2761
-1.35955e-06,1.3357e-06,-2.53787e-06,-0.00106673,-0.0010506,-0.00232798,19.8603,20.1316,0.193525,10.5679,21.3246,18.6721,0.188719,19.9424,213,19.7324,0.484385,0.5025,2762
-1.45211e-06,7.505e-07,-2.70013e-06,-0.00117961,-0.000346868,-0.00265072,22.7547,36.7555,-0.479365,18.6284,36.7772,22.7331,-0.47953,32.5893,213,19.7324,1.45939,0.5025,2763
1.30054e-06,-1.10194e-06,-2.65114e-06,-0.00108529,-0.000998595,-0.00234546,19.7681,21.2263,0.0548897,11.0001,22.0535,18.9424,0.0533625,20.6214,213,0.367583,19.0156,0.5025,2764
1.45011e-06,-5.80754e-07,-2.70264e-06,-0.00120714,-0.000263472,-0.00267614,22.836,38.7056,-0.359668,19.5421,38.7233,22.8195,-0.360898,34.0429,213,0.367583,18.0406,0.5025,2765
7.22729e-07,-1.12941e-06,-2.81534e-06,-0.000353857,-0.00112284,-0.00267683,37.0629,24.1313,-0.493856,18.7934,37.092,24.1033,-0.494916,33.0647,213,1.29031,19.0156,0.5025,2766
-1.44653e-06,-5.7736e-07,-2.70285e-06,-0.0012003,-0.00026215,-0.00267961,23.0342,38.8108,-0.336177,19.5858,38.8345,23.0115,-0.337191,34.1317,213,19.7324,18.0406,0.5025,2767
-1.29294e-06,-1.09525e-06,-2.65581e-06,-0.00107415,-0.000997,-0.00234921,20.1552,21.453,0.227998,11.1021,22.4274,19.1856,0.223204,20.7739,213,19.7324,19.0156,0.5025,2768
-7.24971e-07,-1.11842e-06,-2.81646e-06,-0.000363109,-0.00107174,-0.00271428,33.0514,22.1269,-0.41639,16.746,33.0746,22.1048,-0.417489,29.5746,213,18.8097,19.0156,0.5025,2769
4.21838e-07,1.12041e-06,-2.81073e-06,-0.000153225,-0.00087988,-0.0028793,49.6607,36.1723,-0.102593,24.8823,49.6619,36.1713,-0.102748,44.5776,213,2.65784,0.849583,0.5025,2770
3.22636e-07,1.15291e-06,-2.7928e-06,-8.44508e-05,-0.000931959,-0.00287105,46.0338,31.7822,0.356254,22.8515,46.0465,31.7821,0.343565,40.5007,213,3.58056,0.849583,0.5025,2771
6.03319e-07,1.03647e-06,-2.86218e-06,-0.000251654,-0.000784183,-0.00289192,42.803,33.8474,-0.131538,21.477,42.8216,33.8297,-0.132433,39.2386,213,1.77033,0.962542,0.5025,2772
4.30285e-07,6.27057e-07,-2.91228e-06,-0.000159174,-0.000222715,-0.00326089,41.8787,40.9455,-0.160767,21.0669,41.9731,40.8511,-0.160792,41.5843,213,2.68271,1.81212,0.5025,2773
7.57784e-07,7.31884e-07,-2.92639e-06,-0.000405804,-0.000401486,-0.00305376,30.8997,30.9524,0.0431173,15.5512,31.1453,30.7069,0.0430214,30.8854,213,1.31519,1.44693,0.5025,2774
2.39891e-07,1.19768e-06,-2.80066e-06,-8.52351e-05,-0.000853301,-0.00283739,54.3999,39.4,0.645276,26.9076,54.4378,39.3849,0.62249,48.0895,213,4.50329,0.849583,0.5025,2775
1.2665e-07,1.30656e-06,-2.78246e-06,-3.95823e-05,-0.000992149,-0.00290101,46.4103,30.7729,-0.222994,23.3168,46.4105,30.7728,-0.22308,41.1094,213,6.05058,0.712873,0.5025,2776
1.00852e-07,1.3027e-06,-2.78913e-06,-4.06258e-05,-0.00104034,-0.00287737,45.7462,29.1215,-0.568654,23.1586,45.7485,29.1193,-0.568764,40.6399,213,6.97331,0.712873,0.5025,2777
2.42394e-07,6.0722e-07,-2.92189e-06,-8.03091e-05,-0.000193279,-0.00333161,52.0192,49.9227,-0.497193,26.2643,52.0259,49.9215,-0.502693,51.5086,213,4.41072,1.99158,0.5025,2778
1.73214e-07,9.76514e-07,-2.87653e-06,-7.27329e-05,-0.000728874,-0.00303713,47.9091,36.8732,-0.0202901,23.965,47.9096,36.8727,-0.020342,43.4752,213,5.3438,1.142,0.5025,2779
1.39646e-07,6.67026e-07,-2.91591e-06,-4.69293e-05,-0.000228287,-0.00330993,44.3301,41.6852,0.104961,22.1413,44.3874,41.6279,0.104868,42.9693,213,5.95801,1.85487,0.5025,2780
6.3292e-08,1.23907e-06,-2.80834e-06,-3.80159e-05,-0.000982296,-0.00293796,33.8705,22.3439,-0.289479,17.0876,33.883,22.3341,-0.29217,30.1103,213,7.78971,0.811382,0.5025,2781
3.85363e-08,1.24191e-06,-2.80573e-06,-2.76711e-05,-0.000923461,-0.00296154,41.6821,28.4695,-0.41494,21.049,41.6829,28.4688,-0.415068,37.2903,213,8.71244,0.811382,0.5025,2782
7.44083e-08,7.92937e-07,-2.92573e-06,-3.81961e-05,-0.000306879,-0.00323153,60.7856,55.4505,-0.310218,30.5488,60.7866,55.4502,-0.31094,58.6118,213,7.4812,1.52425,0.5025,2783
5.50371e-09,1.05815e-06,-2.86055e-06,-2.03265e-05,-0.000800737,-0.00299998,48.6454,35.5213,0.0317939,24.3146,48.6608,35.5061,0.0316206,43.5677,213,9.58864,1.06179,0.5025,2784
-5.55018e-09,1.0568e-06,-2.86503e-06,-2.02332e-05,-0.000807953,-0.00299135,48.7431,35.4959,0.337396,24.2118,48.7595,35.481,0.335931,43.3378,213,10.5114,1.06179,0.5025,2785
2.33818e-08,6.74498e-07,-2.9309e-06,-2.77736e-05,-0.000231426,-0.00329556,53.2867,49.8612,-0.201913,26.748,53.2939,49.8541,-0.202068,51.8617,213,9.1738,1.87317,0.5025,2786
-3.80565e-08,1.24069e-06,-2.81018e-06,-2.94887e-05,-0.000933243,-0.00295848,41.4868,28.0667,-0.554514,21.0219,41.4882,28.0664,-0.555615,37.1958,213,11.3876,0.811382,0.5025,2787
-6.50902e-08,1.24022e-06,-2.80823e-06,-3.30519e-05,-0.000989255,-0.00293707,33.9035,22.2312,-0.318857,17.1141,33.908,22.2279,-0.320097,30.1364,213,12.3103,0.811382,0.5025,2788
-2.39567e-08,6.77572e-07,-2.92772e-06,-2.92193e-05,-0.000207199,-0.00331164,53.429,50.6756,-0.470973,26.9585,53.4433,50.6641,-0.473737,52.5825,213,10.9262,1.87317,0.5025,2789
-9.50606e-08,1.32216e-06,-2.78237e-06,-4.12758e-05,-0.00104741,-0.00287428,45.6227,28.7524,-0.717603,23.1713,45.6245,28.7511,-0.718067,40.625,213,13.1267,0.712826,0.5025,2790
-1.2831e-07,1.299e-06,-2.79114e-06,-4.43257e-05,-0.0009672,-0.00292867,41.2716,27.7793,0.0924766,20.5908,41.2736,27.7778,0.0920104,36.3632,213,14.0494,0.712826,0.5025,2791
-7.36042e-08,7.84333e-07,-2.91878e-06,-3.48263e-05,-0.000308076,-0.00323665,52.9445,48.3479,0.774031,26.0867,52.9471,48.3457,0.773669,50.0317,213,12.6188,1.52421,0.5025,2792
-2.39504e-07,1.1962e-06,-2.80208e-06,-8.82256e-05,-0.000817848,-0.00297188,41.3549,30.5895,-0.00161665,20.6931,41.3845,30.56,-0.00168832,37.1753,213,15.5967,0.849583,0.5025,2793
-3.23874e-07,1.13079e-06,-2.79943e-06,-8.43617e-05,-0.000951699,-0.0028879,45.6836,31.0978,0.0025971,22.8428,45.688,31.0937,0.0023449,40.4156,213,16.5194,0.849583,0.5025,2794
-1.74135e-07,9.99089e-07,-2.86988e-06,-6.99619e-05,-0.000738091,-0.00298624,55.657,42.5775,-0.0448096,27.8517,55.6581,42.5769,-0.0452652,50.4511,213,14.7562,1.14198,0.5025,2795
-2.40659e-07,6.03098e-07,-2.92149e-06,-8.01027e-05,-0.000215568,-0.0032548,60.5114,57.8147,-0.233756,30.3727,60.5116,57.8145,-0.233786,59.4428,213,15.6893,1.99156,0.5025,2796
-1.38256e-07,6.55443e-07,-2.923e-06,-5.20083e-05,-0.000256901,-0.00326871,52.4589,49.015,-0.180487,26.3569,52.533,48.9411,-0.180699,51.0127,213,14.1419,1.8548,0.5025,2797
-4.19185e-07,1.12543e-06,-2.81848e-06,-0.000150587,-0.000862117,-0.00290434,44.7398,32.7749,-0.0667424,22.4045,44.7418,32.7733,-0.0671117,40.1844,213,17.4422,0.849583,0.5025,2798
-4.30788e-07,6.27778e-07,-2.90719e-06,-0.000163965,-0.00023141,-0.00322572,49.8362,48.702,-0.155761,25.0486,49.9413,48.5969,-0.155794,49.4386,213,17.4173,1.81212,0.5025,2799
-6.03718e-07,1.03119e-06,-2.86682e-06,-0.000260426,-0.000767297,-0.00289838,42.7241,34.2001,-0.135249,21.4417,42.7478,34.1769,-0.135695,39.3052,213,18.3297,0.962542,0.5025,2800
-7.63725e-07,7.38038e-07,-2.93452e-06,-0.000394234,-0.000396299,-0.00301056,42.7142,42.6795,0.207154,21.3868,42.9806,42.4131,0.207119,42.4926,213,18.7848,1.44693,0.5025,2801
1.2471e-06,-3.18465e-07,-2.76077e-06,-0.000965256,-0.000117647,-0.00287174,30.3699,44.624,-0.174453,22.4004,44.6262,30.3679,-0.174686,39.6439,213,0.656279,16.8032,0.5025,2802
1.25828e-06,-2.31527e-07,-2.7625e-06,-0.000954731,-7.53307e-05,-0.00289338,31.1541,45.943,0.109403,22.9199,45.9487,31.1488,0.108984,40.5203,213,0.656279,15.8282,0.5025,2803
1.08197e-06,-4.2593e-07,-2.82409e-06,-0.000823242,-0.000177087,-0.0029063,33.6318,44.4982,0.124255,22.1891,44.502,33.6284,0.123826,40.0638,213,0.847604,17.5625,0.5025,2804
7.01401e-07,-3.05479e-07,-2.91326e-06,-0.000269814,-0.000107186,-0.00324452,48.0302,50.7679,-0.506447,25.6883,50.8696,47.929,-0.50694,49.9712,213,1.60388,16.8157,0.5025,2805
7.53528e-07,-5.26955e-07,-2.91419e-06,-0.000428901,-0.000292218,-0.00307043,42.3206,44.6202,-0.598793,22.6196,44.637,42.3073,-0.602215,44.1205,213,1.31519,18.0531,0.5025,2806
1.13066e-06,-1.65742e-07,-2.81453e-06,-0.000879637,-5.28084e-05,-0.0029701,27.7418,39.3103,-0.281318,19.8048,39.3282,27.724,-0.281463,35.2696,213,0.853224,15.0111,0.5025,2807
1.15309e-06,-1.27792e-07,-2.81784e-06,-0.000873436,-4.36087e-05,-0.00298192,24.4926,34.6221,0.0353141,17.296,34.6272,24.4875,0.0352718,30.8004,213,0.853224,14.0361,0.5025,2808
7.27576e-07,-1.78816e-07,-2.91257e-06,-0.000255419,-6.61173e-05,-0.00322334,62.104,66.2533,-0.0456588,33.156,66.2663,62.091,-0.0457034,64.3261,213,1.6095,15.2393,0.5025,2809
1.42235e-06,-8.34405e-08,-2.73572e-06,-0.00107569,-3.76616e-05,-0.00286363,28.2731,45.5137,-0.581721,23.0521,45.5182,28.2728,-0.585952,40.3474,213,0.548396,13.1725,0.5025,2810
1.43289e-06,-5.59275e-08,-2.74288e-06,-0.00104533,-3.01241e-05,-0.00289413,24.6223,38.8047,0.0177229,19.3942,38.8057,24.6217,0.0173719,33.9933,213,0.548396,12.1975,0.5025,2811
7.83696e-07,-9.82738e-08,-2.91289e-06,-0.000316737,-4.38244e-05,-0.00325699,40.1154,43.9072,0.242666,21.8372,43.917,40.1058,0.242551,41.899,213,1.50162,13.5586,0.5025,2812
1.30779e-06,-2.9928e-08,-2.77607e-06,-0.000956767,-3.04907e-05,-0.00287652,32.6144,48.1993,2.29769,22.9923,48.2462,32.6036,2.26159,40.4964,213,0.710212,11.4171,0.5025,2813
1.34357e-06,-2.26397e-09,-2.75573e-06,-0.0009829,-2.55221e-05,-0.00289964,31.017,47.1184,0.401165,23.3615,47.1213,31.0169,0.398298,41.109,213,0.710212,10.4421,0.5025,2814
8.42028e-07,-4.01929e-08,-2.91105e-06,-0.000403121,-2.91571e-05,-0.00325314,37.1154,42.4809,-1.76355,22.1578,42.5209,37.1065,-1.79468,41.8718,213,1.35861,11.9147,0.5025,2815
1.10992e-06,2.41867e-08,-2.83199e-06,-0.000821418,-2.5291e-05,-0.00302808,29.9247,41.7503,-1.88087,21.853,41.7875,29.9251,-1.91847,39.1468,213,0.959135,9.38497,0.5025,2816
1.09621e-06,5.04559e-08,-2.8382e-06,-0.000809828,-2.91747e-05,-0.00306522,27.738,38.712,-3.43697,21.1676,38.8079,27.7323,-3.52719,38.0269,213,0.959135,8.40997,0.5025,2817
6.70428e-07,6.28741e-09,-2.93942e-06,-0.000259386,-2.37236e-05,-0.0032832,49.0493,53.0964,-0.218539,26.6631,53.1021,49.0491,-0.224089,51.4197,213,1.76935,10.0771,0.5025,2818
1.37252e-06,8.75015e-08,-2.75575e-06,-0.0010022,-3.84109e-05,-0.0029097,29.7003,45.9073,-0.984103,23.4487,45.9104,29.7003,-0.987132,41.2544,213,0.59625,7.37657,0.5025,2819
1.34943e-06,1.23556e-07,-2.75859e-06,-0.00103815,-4.32877e-05,-0.00289045,25.6699,40.5583,-0.163802,20.3648,40.5657,25.6626,-0.163953,35.6933,213,0.59625,6.40157,0.5025,2820
7.20899e-07,6.13974e-08,-2.92495e-06,-0.000275564,-3.29823e-05,-0.00325014,49.3003,53.3798,0.976041,26.2138,53.401,49.2817,0.973369,50.4942,213,1.65539,7.98654,0.5025,2821
1.13986e-06,1.82443e-07,-2.81446e-06,-0.000876536,-6.17127e-05,-0.00293992,33.2168,46.9193,0.0106114,23.4587,46.928,33.2081,0.0106105,41.7825,213,0.841591,5.47962,0.5025,2822
1.12727e-06,2.40908e-07,-2.80442e-06,-0.000880254,-7.01372e-05,-0.00291728,36.9074,52.1016,0.10999,26.0026,52.1152,36.8939,0.109905,46.3104,213,0.841591,4.50462,0.5025,2823
7.66765e-07,1.41376e-07,-2.90314e-06,-0.000281042,-5.37535e-05,-0.00323122,61.0954,65.9541,-0.948512,33.4705,65.9868,61.0682,-0.95408,64.6222,213,1.53784,6.03119,0.5025,2824
1.24962e-06,3.21184e-07,-2.75166e-06,-0.000960584,-9.20118e-05,-0.00290381,25.8787,38.0323,-0.00614558,19.0197,38.033,25.8784,-0.00651381,33.6509,213,0.655674,3.6726,0.5025,2825
1.25095e-06,4.40548e-07,-2.75241e-06,-0.000953826,-0.000160638,-0.00287174,25.4813,36.627,-0.0429495,18.3352,36.6273,25.4813,-0.043225,32.5612,213,0.655674,2.6976,0.5025,2826
7.12258e-07,2.57895e-07,-2.9157e-06,-0.000245576,-9.02619e-05,-0.00327417,40.9638,43.241,-0.0151582,21.6288,43.2424,40.9624,-0.0151947,42.1639,213,1.59726,4.27722,0.5025,2827
6.87519e-07,4.35748e-07,-2.90938e-06,-0.000259773,-0.000150545,-0.00324118,40.1849,41.7853,-0.150464,21.0255,41.9005,40.0697,-0.150479,41.1661,213,1.60328,2.68514,0.5025,2828
1.05486e-06,5.7945e-07,-2.83961e-06,-0.000833364,-0.00022832,-0.00285065,38.3041,50.171,0.280242,24.9501,50.1788,38.298,0.278551,45.1479,213,0.847604,1.93754,0.5025,2829
-1.25544e-06,4.37683e-07,-2.75499e-06,-0.000967512,-0.000157304,-0.00287116,25.1749,36.5491,-0.135591,18.3427,36.5496,25.1747,-0.135903,32.5257,213,19.4443,2.6976,0.5025,2830
-1.24998e-06,3.22255e-07,-2.75258e-06,-0.000967387,-9.33074e-05,-0.00291491,22.4636,33.1327,0.0817266,16.5262,33.1341,22.4623,0.0816241,29.2169,213,19.4443,3.6726,0.5025,2831
-1.04927e-06,5.78555e-07,-2.84791e-06,-0.000823278,-0.000234474,-0.00286949,33.2419,43.1432,0.338057,21.409,43.1546,33.232,0.336574,38.8198,213,19.2524,1.93754,0.5025,2832
-6.85711e-07,4.36068e-07,-2.9137e-06,-0.000266416,-0.000154433,-0.00321168,47.9085,49.7917,-0.123169,25.014,49.9048,47.7954,-0.123173,49.0073,213,18.4967,2.68514,0.5025,2833
-1.12465e-06,2.39218e-07,-2.80148e-06,-0.000879101,-7.2678e-05,-0.0029186,36.869,51.9791,-0.00872789,25.9998,51.9907,36.8577,-0.0090138,46.3256,213,19.2584,4.50461,0.5025,2834
-1.14408e-06,1.81302e-07,-2.8061e-06,-0.000874459,-5.77916e-05,-0.00294281,33.3006,47.0346,0.0051344,23.5185,47.0422,33.293,0.00513223,41.8904,213,19.2584,5.47961,0.5025,2835
-7.13123e-07,2.57951e-07,-2.91716e-06,-0.000255174,-9.11435e-05,-0.00322915,56.5684,59.7864,-0.282163,30.0345,59.7868,56.5681,-0.282253,58.5261,213,18.5027,4.27721,0.5025,2836
-1.34854e-06,1.28531e-07,-2.74981e-06,-0.00102741,-4.5116e-05,-0.00287561,29.4278,45.9464,-0.150917,23.0495,45.9479,29.4264,-0.15105,40.4531,213,19.5037,6.40156,0.5025,2837
-1.36228e-06,8.75881e-08,-2.75499e-06,-0.000974617,-4.04258e-05,-0.00290515,30.5974,46.3078,-0.574547,23.4429,46.3095,30.5973,-0.576191,41.3336,213,19.5037,7.37656,0.5025,2838
-7.67952e-07,1.42208e-07,-2.89726e-06,-0.000280383,-5.24483e-05,-0.00325683,48.3073,52.1407,-0.37697,26.2716,52.1633,48.2877,-0.379902,50.7165,213,18.5622,6.03117,0.5025,2839
-1.09759e-06,5.01749e-08,-2.82152e-06,-0.000801521,-2.95073e-05,-0.00300118,34.2205,47.2034,-2.28916,24.8145,47.2773,34.2092,-2.35176,44.5562,213,19.1409,8.40997,0.5025,2840
-1.11654e-06,2.37701e-08,-2.81225e-06,-0.000818744,-2.4921e-05,-0.00298848,34.5863,47.9357,-0.81083,24.3897,47.952,34.5866,-0.827431,43.659,213,19.1409,9.38497,0.5025,2841
-7.17186e-07,6.12937e-08,-2.91244e-06,-0.000287793,-3.31898e-05,-0.00325148,48.7795,53.0611,0.575974,26.2515,53.0774,48.7648,0.574411,50.485,213,18.4446,7.98653,0.5025,2842
-1.34224e-06,-2.13919e-09,-2.74804e-06,-0.000970643,-2.48219e-05,-0.00291576,31.1765,47.0826,0.0887159,23.4983,47.0842,31.176,0.0875983,41.402,213,19.3898,10.4421,0.5025,2843
-1.29991e-06,-2.87515e-08,-2.77151e-06,-0.000943757,-2.96155e-05,-0.00291009,32.6223,47.9964,1.63628,23.2139,48.0379,32.6068,1.61022,40.9539,213,19.3898,11.4171,0.5025,2844
-6.71665e-07,6.4028e-09,-2.92056e-06,-0.000276353,-2.35163e-05,-0.00326719,48.9083,53.1622,0.103758,26.5301,53.1631,48.9083,0.102853,51.066,213,18.3307,10.0771,0.5025,2845
-1.41693e-06,-5.474e-08,-2.74864e-06,-0.00100995,-3.39356e-05,-0.00288282,30.3217,46.7353,0.5274,23.104,46.7354,30.3217,0.527319,40.5728,213,19.5516,12.1975,0.5025,2846
-1.41904e-06,-8.69199e-08,-2.72823e-06,-0.00105048,-4.17069e-05,-0.0028764,28.4476,45.4111,-0.962419,23.1891,45.4141,28.4462,-0.964064,40.6436,213,19.5516,13.1725,0.5025,2847
-8.38374e-07,-3.98724e-08,-2.89491e-06,-0.000408572,-2.97049e-05,-0.00320195,44.7738,51.1452,-1.26765,26.2337,51.1777,44.7634,-1.28975,49.5725,213,18.7414,11.9147,0.5025,2848
-1.15863e-06,-1.28334e-07,-2.80998e-06,-0.00087729,-4.04381e-05,-0.0029451,33.4157,47.489,0.0747409,23.7109,47.4965,33.4083,0.0747166,42.1807,213,19.2468,14.0361,0.5025,2849
-1.13132e-06,-1.64945e-07,-2.81489e-06,-0.000878989,-5.71614e-05,-0.00295964,27.7285,39.3282,-0.178166,19.7615,39.3448,27.712,-0.178258,35.18,213,19.2468,15.0111,0.5025,2850
-7.8449e-07,-9.93715e-08,-2.90703e-06,-0.000310866,-4.36954e-05,-0.00323611,47.9524,52.4454,0.292038,26.0825,52.4568,47.9411,0.291877,50.0601,213,18.5984,13.5586,0.5025,2851
-1.26055e-06,-2.31411e-07,-2.76407e-06,-0.000960538,-7.38521e-05,-0.00287459,34.6425,51.2354,0.135687,25.554,51.2432,34.6352,0.135187,45.1559,213,19.4437,15.8282,0.5025,2852
-1.25009e-06,-3.16947e-07,-2.76036e-06,-0.000966966,-0.000116086,-0.00287205,30.3334,44.6424,-0.187118,22.4161,44.6449,30.3312,-0.187353,39.6623,213,19.4437,16.8032,0.5025,2853
-7.26945e-07,-1.77745e-07,-2.91499e-06,-0.000263691,-6.61648e-05,-0.00324167,54.4673,58.1497,-0.0593895,29.1111,58.1628,54.4542,-0.0594279,56.4594,213,18.4905,15.2393,0.5025,2854
-7.01249e-07,-3.02771e-07,-2.91422e-06,-0.000278837,-0.00010458,-0.00325313,42.4055,44.9434,-0.384447,22.7052,45.0255,42.3239,-0.384937,44.1217,213,18.4961,16.8157,0.5025,2855
-1.08293e-06,-4.23449e-07,-2.82682e-06,-0.000823977,-0.000177701,-0.00290542,33.6111,44.4794,0.130648,22.1777,44.4856,33.6053,0.130251,40.0397,213,19.2524,17.5625,0.5025,2856
-7.50192e-07,-5.27047e-07,-2.91982e-06,-0.000423369,-0.000312719,-0.00304612,47.0441,49.1779,-0.862675,25.0268,49.1871,47.0386,-0.866409,49.0146,213,18.7848,18.0531,0.5025,2857
-3.85062e-07,-8.40392e-07,-2.86638e-06,-0.000153621,-0.000784909,-0.00294674,45.2983,34.6818,-0.130938,22.7165,45.3019,34.6784,-0.13111,41.1626,213,17.4422,18.6504,0.5025,2858
-2.83693e-07,-8.32346e-07,-2.85634e-06,-7.94114e-05,-0.000876102,-0.00293223,46.458,33.0605,-0.015086,23.2369,46.4585,33.0603,-0.0153756,41.4327,213,16.5194,18.6504,0.5025,2859
-5.71623e-07,-7.82339e-07,-2.88884e-06,-0.000252518,-0.000713401,-0.00294371,36.4403,29.9853,0.0895797,18.1932,36.4757,29.9502,0.0892993,33.6023,213,18.3297,18.5375,0.5025,2860
-4.18116e-07,-4.27664e-07,-2.91854e-06,-0.000167326,-0.000146742,-0.00327341,50.4051,50.8943,-0.472739,25.837,51.2008,50.099,-0.473126,51.1319,213,17.4173,17.6879,0.5025,2861
-2.05248e-07,-8.91503e-07,-2.85927e-06,-8.19294e-05,-0.000738152,-0.00301921,42.097,32.4281,-0.0295424,21.0869,42.1443,32.3808,-0.0295486,38.2387,213,15.5967,18.6504,0.5025,2862
-9.73637e-08,-9.95832e-07,-2.85978e-06,-2.72028e-05,-0.000935116,-0.00291875,54.5675,36.5586,-0.682507,27.6306,54.5779,36.549,-0.683331,48.8113,213,14.048,18.7974,0.5025,2863
-8.16529e-08,-9.92439e-07,-2.85615e-06,-3.1973e-05,-0.000988787,-0.00288392,46.6815,30.5085,-0.00860217,23.3539,46.6989,30.4914,-0.00889068,41.0765,213,13.1253,18.7974,0.5025,2864
-2.29963e-07,-4.07255e-07,-2.90997e-06,-7.94243e-05,-0.00013415,-0.00334088,44.2656,43.5897,-0.226935,22.2464,44.2658,43.5895,-0.226946,44.1585,213,15.6841,17.5146,0.5025,2865
-1.50084e-07,-7.13098e-07,-2.89587e-06,-6.86717e-05,-0.000659732,-0.00301971,48.9931,39.0377,0.638049,24.1785,48.9945,39.0369,0.637476,44.2271,213,14.7511,18.3642,0.5025,2866
-1.2879e-07,-4.47265e-07,-2.92012e-06,-4.61576e-05,-0.0001673,-0.00333012,53.2463,51.3502,-0.681203,27.0732,53.4621,51.1374,-0.684272,53.0223,213,14.1355,17.6616,0.5025,2867
-5.07435e-08,-9.19433e-07,-2.86394e-06,-2.90421e-05,-0.000911771,-0.00294664,47.4153,32.5715,-0.0467532,23.7432,47.4396,32.5472,-0.046771,42.066,213,12.3516,18.6819,0.5025,2868
-3.53768e-08,-9.18704e-07,-2.86703e-06,-1.56663e-05,-0.00085655,-0.0029836,53.0768,37.2951,-1.47834,27.2922,53.0982,37.2817,-1.48629,48.6445,213,11.4289,18.6819,0.5025,2869
-6.42739e-08,-5.43706e-07,-2.92545e-06,-3.43855e-05,-0.000188717,-0.00331289,53.4344,50.8406,-0.311437,26.8739,53.4356,50.8403,-0.312289,52.4984,213,12.6587,17.9793,0.5025,2870
-1.68137e-09,-7.6151e-07,-2.88804e-06,-1.92462e-05,-0.000718,-0.00302392,55.2416,42.1781,0.364445,27.4497,55.2615,42.1605,0.36208,49.6623,213,10.5114,18.4382,0.5025,2871
1.85049e-09,-7.59593e-07,-2.89365e-06,-1.8165e-05,-0.00072295,-0.00304258,49.3415,37.4885,-0.038245,24.6966,49.3549,37.4751,-0.0382519,44.6546,213,9.58864,18.4382,0.5025,2872
-2.3212e-08,-4.53747e-07,-2.9254e-06,-2.62968e-05,-0.0001102,-0.0033862,45.3239,44.0041,-0.484722,22.9126,45.3393,43.9899,-0.485853,45.1655,213,10.9675,17.6201,0.5025,2873
3.36483e-08,-9.21754e-07,-2.86819e-06,-2.25255e-05,-0.000856766,-0.00296173,60.2457,42.3108,-1.57883,30.9293,60.2638,42.3087,-1.59483,55.1198,213,8.64142,18.6863,0.5025,2874
5.42149e-08,-9.2092e-07,-2.86546e-06,-2.88257e-05,-0.000913272,-0.00294666,47.4005,32.4934,-0.0390983,23.7235,47.4079,32.4861,-0.039199,42.0225,213,7.71869,18.6863,0.5025,2875
2.25712e-08,-4.577e-07,-2.92518e-06,-2.57428e-05,-0.000130516,-0.00337091,45.4023,44.0788,-0.328293,22.8717,45.4126,44.071,-0.330795,45.0876,213,9.10278,17.6245,0.5025,2876
7.88542e-08,-1.04224e-06,-2.84013e-06,-3.39665e-05,-0.00102544,-0.00289734,40.9181,26.1908,-0.0991837,20.5106,40.9219,26.187,-0.0992573,35.9918,213,6.94707,18.8284,0.5025,2877
1.01072e-07,-1.01323e-06,-2.85164e-06,-2.77948e-05,-0.000965196,-0.00293066,46.6906,30.9277,-0.617012,23.6581,46.6988,30.9199,-0.617384,41.7276,213,6.02434,18.8284,0.5025,2878
6.62958e-08,-5.44021e-07,-2.92596e-06,-3.10321e-05,-0.000220892,-0.00327728,61.8651,58.1661,-0.410753,31.1439,61.8724,58.1634,-0.415398,60.5186,213,7.38394,18.0147,0.5025,2879
2.05205e-07,-9.00026e-07,-2.85373e-06,-7.74899e-05,-0.000751847,-0.0029986,47.5708,36.2298,-0.0485406,23.8296,47.6106,36.19,-0.0485641,43.0991,213,4.50329,18.6504,0.5025,2880
2.80307e-07,-8.43886e-07,-2.85439e-06,-7.84929e-05,-0.000885778,-0.00292585,46.4029,32.827,-0.00473223,23.208,46.4109,32.8195,-0.00519932,41.3318,213,3.58056,18.6504,0.5025,2881
1.51864e-07,-7.21937e-07,-2.88904e-06,-6.44327e-05,-0.000664254,-0.00303371,48.9701,38.8835,0.540983,24.2149,48.9705,38.8835,0.540624,44.257,213,5.34626,18.3773,0.5025,2882
2.29332e-07,-4.0055e-07,-2.91367e-06,-7.86035e-05,-0.000133081,-0.00332337,52.8133,51.8971,-0.264511,26.542,52.8194,51.891,-0.264536,52.6259,213,4.41318,17.5278,0.5025,2883
1.28542e-07,-4.45829e-07,-2.92391e-06,-5.01e-05,-0.000172513,-0.00331452,53.1584,51.0979,-0.340961,26.8593,53.374,50.8859,-0.344553,52.5187,213,5.93424,17.7057,0.5025,2884
3.89477e-07,-8.54792e-07,-2.86187e-06,-0.000164047,-0.000778523,-0.00293417,45.2363,34.9015,0.15627,22.5402,45.2367,34.9011,0.156244,40.904,213,2.65784,18.6504,0.5025,2885
4.16208e-07,-4.29352e-07,-2.92083e-06,-0.000168968,-0.000117272,-0.00328699,50.6154,51.4828,-0.319521,25.9986,51.6774,50.4211,-0.319842,51.3806,213,2.68271,17.6879,0.5025,2886
5.72089e-07,-7.67928e-07,-2.89136e-06,-0.000251273,-0.000733862,-0.00291425,43.3629,35.2472,0.0857887,21.6606,43.4066,35.2037,0.0855142,39.8579,213,1.77033,18.5375,0.5025,2887
-1.44683e-08,-5.82775e-09,-2.91515e-06,-2.94297e-05,-2.63192e-05,-0.00341815,46.18,46.2235,-0.00403317,23.1138,46.2236,46.1799,-0.0040368,46.2058,213,10.5339,10.5968,0.5025,2888
-4.74824e-08,3.11443e-09,-2.91437e-06,-3.20256e-05,-2.63615e-05,-0.00337531,63.9878,64.0999,-0.0362341,32.0681,64.1,63.9877,-0.0362827,64.0802,213,11.5915,10.2659,0.5025,2889
-3.03608e-08,2.77923e-08,-2.91455e-06,-3.15973e-05,-2.72375e-05,-0.00340896,48.7103,48.7748,0.0530746,24.361,48.7751,48.71,0.0530389,48.6896,213,11.0622,9.34368,0.5025,2890
-3.07407e-08,5.18506e-08,-2.9142e-06,-3.14505e-05,-2.95581e-05,-0.00339315,55.0722,55.104,0.035713,27.5356,55.1068,55.0694,0.0357074,55.0524,213,11.0844,8.49751,0.5025,2891
1.08485e-09,4.24289e-08,-2.91466e-06,-2.86682e-05,-2.94071e-05,-0.00337503,64.028,64.0144,-0.0923065,32.0602,64.0281,64.0143,-0.092329,64.1135,213,10.0268,8.82834,0.5025,2892
3.16776e-08,5.27702e-08,-2.91443e-06,-3.08309e-05,-2.97672e-05,-0.00339373,55.0727,55.0906,0.00965269,27.5424,55.0944,55.069,0.00953761,55.0722,213,8.99232,8.46722,0.5025,2893
3.26169e-08,2.80458e-08,-2.91479e-06,-3.13102e-05,-2.7956e-05,-0.00339297,55.1196,55.1764,0.0929697,27.542,55.1768,55.1194,0.0928216,55.0553,213,8.97013,9.3134,0.5025,2894
5.24324e-08,1.21661e-08,-2.91471e-06,-3.23844e-05,-2.6567e-05,-0.00339611,55.0308,55.1287,-0.048455,27.5886,55.1287,55.0308,-0.0484764,55.1283,213,8.35256,9.89197,0.5025,2895
1.95757e-08,2.87654e-09,-2.91515e-06,-3.04016e-05,-2.60974e-05,-0.00339562,55.1413,55.213,0.0578854,27.5777,55.2131,55.1413,0.0577741,55.1195,213,9.38706,10.2531,0.5025,2896
3.59282e-09,-2.08884e-08,-2.91528e-06,-3.01089e-05,-2.53078e-05,-0.00339566,55.1465,55.2276,0.041326,27.5932,55.2276,55.1465,0.0413013,55.1458,213,9.91635,11.1754,0.5025,2897
-1.94608e-07,-5.87713e-08,-2.90636e-06,-6.67143e-05,-3.26783e-05,-0.00338238,53.9113,54.4883,-0.403197,27.4476,54.4915,53.9084,-0.40358,54.6059,213,14.7547,12.5826,0.5025,2898
-1.55919e-07,-4.16992e-08,-2.90782e-06,-5.91997e-05,-2.88326e-05,-0.0033606,63.119,63.7135,-0.108663,31.9128,63.7168,63.1157,-0.108683,63.5271,213,14.1067,12.013,0.5025,2899
-1.42848e-07,-7.38974e-08,-2.90906e-06,-5.47411e-05,-3.54136e-05,-0.00339888,45.5823,45.8539,0.0125338,22.9217,45.8559,45.5803,0.0125322,45.7062,213,13.9368,13.0139,0.5025,2900
-2.26388e-07,-7.90577e-08,-2.90489e-06,-7.96777e-05,-3.64897e-05,-0.00335774,53.9609,54.6873,0.382647,27.1532,54.6884,53.9603,0.38208,53.946,213,15.225,13.1706,0.5025,2901
-2.4363e-07,-4.5994e-08,-2.90266e-06,-8.08918e-05,-2.93873e-05,-0.00339323,45.0663,45.7916,0.01454,22.8889,45.7924,45.0655,0.0145228,45.4188,213,15.3949,12.1697,0.5025,2902
-1.83474e-07,-1.34882e-07,-2.90221e-06,-6.60412e-05,-5.13532e-05,-0.00338343,45.2492,45.4546,0.0560691,22.7032,45.4625,45.2413,0.0560415,45.2963,213,14.6827,14.4707,0.5025,2903
-2.47671e-07,-1.49199e-07,-2.89377e-06,-8.99065e-05,-5.43127e-05,-0.00335187,53.3096,53.9207,-0.0437682,26.9872,53.9305,53.2998,-0.043791,53.6617,213,15.5073,14.7906,0.5025,2904
-2.41215e-07,-1.07303e-07,-2.90126e-06,-8.81159e-05,-4.1105e-05,-0.00333679,62.1996,63.1197,0.0138361,31.5532,63.1201,62.1992,0.0137697,62.651,213,15.4094,13.9034,0.5025,2905
-3.02368e-07,-9.03899e-08,-2.89801e-06,-0.000106064,-3.74666e-05,-0.00335258,53.055,54.2086,-0.0505852,27.1296,54.2087,53.055,-0.0506056,53.6917,213,16.0496,13.4904,0.5025,2906
-1.38608e-07,-1.15299e-07,-2.90674e-06,-5.38583e-05,-4.57851e-05,-0.00335319,63.1623,63.3201,-0.000857038,31.6668,63.3328,63.1496,-0.000864726,63.2423,213,13.9095,14.0344,0.5025,2907
-1.40773e-07,-1.61135e-07,-2.90197e-06,-5.5387e-05,-5.81466e-05,-0.00337064,54.1395,54.0934,-0.10572,27.142,54.1783,54.0546,-0.105722,54.2223,213,14.0073,14.9217,0.5025,2908
-1.08107e-07,-9.18287e-08,-2.9098e-06,-4.50818e-05,-4.0747e-05,-0.00340078,45.7488,45.8089,0.00961544,22.9054,45.8203,45.7374,0.00960142,45.7693,213,13.2615,13.4648,0.5025,2909
2.36052e-07,1.7763e-07,-2.89555e-06,-8.48058e-05,-6.14195e-05,-0.00336404,47.2422,47.5888,0.0380231,23.7813,47.6007,47.2303,0.038019,47.3786,213,4.71445,5.48368,0.5025,2910
2.77931e-07,1.28628e-07,-2.89347e-06,-9.41312e-05,-4.95977e-05,-0.00332927,61.9312,62.8033,0.00884343,31.3993,62.8074,61.9271,0.0088251,62.3631,213,4.2808,6.34262,0.5025,2911
2.07714e-07,1.20894e-07,-2.90078e-06,-7.25159e-05,-4.83701e-05,-0.00336167,53.8791,54.2852,0.0711744,27.1101,54.2915,53.8729,0.0711634,54.0122,213,5.12928,6.54949,0.5025,2912
1.79909e-07,2.2199e-07,-2.89729e-06,-6.51318e-05,-7.92219e-05,-0.00332772,62.5383,62.2622,0.0958426,31.2356,62.5671,62.2334,0.0958354,62.3051,213,5.42512,4.90775,0.5025,2913
2.43662e-07,2.33137e-07,-2.89086e-06,-8.64659e-05,-8.21436e-05,-0.00333857,53.1775,53.2501,-0.0291812,26.6834,53.3377,53.0899,-0.0291843,53.2434,213,4.57664,4.70087,0.5025,2914
1.65598e-07,9.74276e-08,-2.9058e-06,-6.23504e-05,-4.13617e-05,-0.00337592,54.0202,54.372,-0.274256,27.3255,54.3768,54.0154,-0.274297,54.4713,213,5.78426,7.09838,0.5025,2915
1.37608e-07,1.38672e-07,-2.90634e-06,-5.43125e-05,-5.27018e-05,-0.0033866,47.9332,47.9562,-0.0825696,24.0349,47.9873,47.9021,-0.0825742,48.0273,213,6.21792,6.23944,0.5025,2916
1.39337e-07,1.97392e-07,-2.902e-06,-5.46556e-05,-7.009e-05,-0.00336167,54.0738,53.8142,-0.0679391,27.0787,54.0894,53.7986,-0.0679392,54.0125,213,6.12758,5.27546,0.5025,2917
1.44072e-07,2.5919e-07,-2.89539e-06,-5.51421e-05,-8.94682e-05,-0.00335109,53.9098,53.3326,-0.0352717,26.9756,53.916,53.3264,-0.0352724,53.6589,213,5.98976,4.49265,0.5025,2918
1.08418e-07,1.64123e-07,-2.90612e-06,-4.46473e-05,-6.14516e-05,-0.00337003,54.4501,54.1675,0.0204201,27.219,54.4584,54.1592,0.0204057,54.289,213,6.78256,5.82434,0.5025,2919
9.58845e-08,-1.1112e-07,-2.9084e-06,-4.37681e-05,-4.39338e-05,-0.00337957,54.6542,54.6515,0.077072,27.3055,54.6881,54.6176,0.0770391,54.5759,213,7.08684,13.9275,0.5025,2920
6.95518e-08,-8.64924e-08,-2.91161e-06,-3.61394e-05,-3.86654e-05,-0.00338616,54.8673,54.8254,0.0251219,27.4289,54.8829,54.8098,0.0251106,54.8213,213,7.78273,13.3072,0.5025,2921
1.2323e-07,-7.74404e-08,-2.91007e-06,-5.00627e-05,-3.58424e-05,-0.00338043,54.5393,54.7784,0.0291819,27.3765,54.7821,54.5356,0.0291716,54.6301,213,6.54486,13.105,0.5025,2922
1.2627e-07,-1.35699e-07,-2.90526e-06,-5.10346e-05,-5.22247e-05,-0.00339148,45.456,45.4397,-0.149101,22.815,45.4808,45.415,-0.149161,45.5971,213,6.41097,14.4695,0.5025,2923
7.13686e-08,-1.48702e-07,-2.90525e-06,-3.6818e-05,-5.51326e-05,-0.003381,54.6632,54.3564,-0.0617853,27.3651,54.6683,54.3513,-0.0618034,54.5723,213,7.64883,14.6717,0.5025,2924
1.41314e-07,-4.25783e-08,-2.91028e-06,-5.66176e-05,-2.87943e-05,-0.00340106,45.58,45.9719,-0.00709691,22.9899,45.9728,45.5791,-0.00710235,45.7843,213,6.24327,12.0336,0.5025,2925
1.8279e-07,-6.09504e-08,-2.90661e-06,-6.60212e-05,-3.29788e-05,-0.00337744,54.0586,54.6141,-0.161392,27.389,54.6165,54.0562,-0.161465,54.5,213,5.54738,12.654,0.5025,2926
2.41945e-07,-4.65069e-08,-2.90103e-06,-8.21893e-05,-2.95938e-05,-0.00338415,45.1502,45.8874,0.221851,22.8331,45.8879,45.1498,0.221728,45.3016,213,4.76827,12.2067,0.5025,2927
2.14233e-07,-8.23998e-08,-2.90365e-06,-7.71345e-05,-3.69694e-05,-0.00333963,62.6568,63.4437,0.187428,31.6295,63.4464,62.6542,0.187393,62.8666,213,5.06986,13.2781,0.5025,2928
2.28619e-07,-1.09576e-07,-2.90121e-06,-8.3829e-05,-4.15161e-05,-0.00338086,44.9377,45.5318,0.0508335,22.7417,45.5343,44.9352,0.050814,45.1869,213,4.85747,13.9743,0.5025,2929
2.44519e-07,-1.53346e-07,-2.89172e-06,-8.74389e-05,-5.78696e-05,-0.00332914,61.9902,62.5694,-0.0972331,31.3425,62.5878,61.9718,-0.0972537,62.3793,213,4.60968,14.8635,0.5025,2930
1.71886e-07,-1.41984e-07,-2.90141e-06,-6.21647e-05,-5.56381e-05,-0.00334271,62.844,62.9727,0.056716,31.4717,63.0002,62.8165,0.0567025,62.8519,213,5.60118,14.6146,0.5025,2931
3.02444e-07,-9.09122e-08,-2.89594e-06,-0.000102794,-3.84623e-05,-0.00335581,53.1135,54.196,-0.0802156,27.1384,54.1967,53.1128,-0.080218,53.7432,213,4.07836,13.527,0.5025,2932
1.35539e-07,-1.89409e-07,-2.90009e-06,-5.42943e-05,-6.95921e-05,-0.00336233,54.1749,53.9179,0.101001,27.0423,54.1853,53.9078,0.100687,53.9464,213,6.16318,15.3587,0.5025,2933
-2.01999e-07,1.2384e-07,-2.90214e-06,-6.94128e-05,-4.9308e-05,-0.0033639,53.9093,54.2508,-0.000850285,27.1297,54.2583,53.9021,-0.00111852,54.0822,213,14.9287,6.49296,0.5025,2934
-2.70531e-07,1.32066e-07,-2.89629e-06,-9.22063e-05,-4.99793e-05,-0.00339008,38.893,39.409,-0.0140477,19.7119,39.4098,38.8923,-0.0140957,39.1677,213,15.7776,6.28657,0.5025,2935
-2.35337e-07,1.77577e-07,-2.8967e-06,-8.56967e-05,-6.10851e-05,-0.00332874,62.0357,62.52,-0.0567509,31.2922,62.5274,62.0284,-0.0568876,62.3363,213,15.3851,5.48319,0.5025,2936
-2.42748e-07,2.33865e-07,-2.88854e-06,-8.67638e-05,-8.27501e-05,-0.00335958,44.545,44.5997,-0.0137941,22.3459,44.678,44.4667,-0.0137942,44.5865,213,15.5232,4.70075,0.5025,2937
-1.79315e-07,2.22099e-07,-2.89669e-06,-6.35153e-05,-7.98648e-05,-0.00333316,62.4044,62.0865,-0.237873,31.3317,62.4256,62.0653,-0.237885,62.4841,213,14.6742,4.90714,0.5025,2938
-1.3635e-07,1.38751e-07,-2.90616e-06,-5.27723e-05,-5.28022e-05,-0.00336778,54.4019,54.4014,0.182384,27.1314,54.4451,54.3582,0.182364,54.2193,213,13.8674,6.23271,0.5025,2939
-1.61398e-07,9.97024e-08,-2.90549e-06,-5.99819e-05,-4.24332e-05,-0.0033511,63.0044,63.3479,-0.0196282,31.6879,63.3561,62.9964,-0.0197866,63.1968,213,14.26,7.0361,0.5025,2940
-1.44892e-07,2.60344e-07,-2.89536e-06,-5.50706e-05,-9.03955e-05,-0.00337288,45.1293,44.6353,-0.077621,22.6058,45.134,44.6306,-0.0776473,44.9621,213,14.1098,4.49252,0.5025,2941
-1.39491e-07,1.97223e-07,-2.90196e-06,-5.34816e-05,-7.0486e-05,-0.00335699,54.2725,53.984,0.269837,27.0042,54.2782,53.9783,0.26979,53.8591,213,13.9717,5.27495,0.5025,2942
-1.07688e-07,1.63711e-07,-2.9059e-06,-4.56672e-05,-6.08709e-05,-0.00337185,54.3624,54.107,-0.107755,27.2382,54.3685,54.1009,-0.107799,54.343,213,13.303,5.81809,0.5025,2943
2.18605e-08,-2.15469e-07,-2.90052e-06,-2.64173e-05,-7.68651e-05,-0.00337116,54.7884,53.9394,0.0348835,27.3768,54.7885,53.9394,0.0348654,54.334,213,9.22861,15.6282,0.5025,2944
2.05326e-08,-3.19202e-07,-2.90567e-06,-2.56965e-05,-0.000118206,-0.00332626,63.4606,61.6461,0.381907,31.5417,63.4629,61.6462,0.379562,62.1949,213,9.22802,16.7147,0.5025,2945
6.52313e-10,-2.74635e-07,-2.90379e-06,-2.4264e-05,-0.000102361,-0.00336737,54.4778,53.1642,-0.244208,27.3611,54.4779,53.1642,-0.244243,54.0772,213,10.0506,16.2899,0.5025,2946
-1.57102e-08,-3.36129e-07,-2.90968e-06,-2.66395e-05,-0.000122658,-0.00333008,63.1654,61.2831,-0.0482181,31.608,63.1668,61.2827,-0.0492391,62.2954,213,10.6919,16.8638,0.5025,2947
-1.5908e-08,-2.26767e-07,-2.90214e-06,-2.71883e-05,-8.04638e-05,-0.00335497,54.948,54.0523,0.441947,27.2531,54.9481,54.0522,0.441933,54.0638,213,10.6925,15.7773,0.5025,2948
2.38025e-08,-1.51857e-07,-2.90552e-06,-2.80723e-05,-5.54859e-05,-0.00338307,54.9096,54.4489,-0.00978376,27.4601,54.9103,54.4482,-0.00978392,54.6905,213,9.18794,14.6665,0.5025,2949
4.6726e-08,-1.75786e-07,-2.9032e-06,-2.92405e-05,-6.6333e-05,-0.00337781,54.863,54.2392,0.140513,27.3624,54.8653,54.237,0.140464,54.4134,213,8.36537,15.0913,0.5025,2950
-3.61888e-09,-1.37389e-07,-2.90824e-06,-2.64264e-05,-5.28757e-05,-0.00340566,46.0485,45.6766,-0.00775771,23.0281,46.0485,45.6766,-0.00775794,45.8714,213,10.2011,14.3913,0.5025,2951
2.01791e-08,-1.11092e-07,-2.91023e-06,-2.87738e-05,-4.46013e-05,-0.00336571,63.926,63.6159,0.0116916,31.9574,63.9265,63.6154,0.0116883,63.7598,213,9.33788,13.8544,0.5025,2952
-3.9999e-08,-2.15774e-07,-2.90477e-06,-2.9123e-05,-7.72207e-05,-0.00336191,54.6937,53.8849,-0.00899389,27.3516,54.6942,53.8844,-0.00900286,54.3028,213,11.5298,15.6408,0.5025,2953
-2.20324e-08,-1.75795e-07,-2.90539e-06,-2.83006e-05,-6.31687e-05,-0.00338111,54.8543,54.2686,0.0233677,27.4157,54.8547,54.2682,0.0233608,54.5405,213,10.8885,15.0669,0.5025,2954
-2.71527e-08,-1.2987e-07,-2.90945e-06,-2.93699e-05,-5.06454e-05,-0.00338534,54.8149,54.457,-0.209792,27.5128,54.8156,54.4564,-0.209961,54.8469,213,11.0384,14.2548,0.5025,2955
7.20041e-10,4.04776e-07,-2.89068e-06,-2.4942e-05,-0.000143929,-0.00335562,45.5226,43.8525,0.199122,22.6618,45.5227,43.8525,0.199069,44.512,213,10.05,3.28128,0.5025,2956
1.64743e-08,4.91412e-07,-2.89889e-06,-2.59643e-05,-0.000170034,-0.00330402,62.6879,59.8667,-0.0907479,31.3901,62.6894,59.8653,-0.0908495,61.4169,213,9.42062,2.7126,0.5025,2957
1.61054e-08,3.30681e-07,-2.88885e-06,-2.55209e-05,-0.000108562,-0.0033333,63.412,61.7857,0.0860033,31.663,63.412,61.7857,0.0859963,62.5287,213,9.42062,3.8703,0.5025,2958
-1.59628e-08,3.30635e-07,-2.8912e-06,-2.68998e-05,-0.000110449,-0.00335389,54.4785,53.0734,0.0236977,27.2275,54.4786,53.0733,0.0236888,53.766,213,10.6791,3.87002,0.5025,2959
-1.6001e-08,4.92706e-07,-2.90114e-06,-2.7465e-05,-0.000173272,-0.00332443,53.8205,51.3679,-0.163941,26.9922,53.8205,51.3679,-0.163974,52.8009,213,10.6791,2.71232,0.5025,2960
2.28649e-08,2.43199e-07,-2.89821e-06,-2.75114e-05,-8.19027e-05,-0.00336917,54.6809,53.7639,-0.0319584,27.3566,54.6812,53.7636,-0.0319803,54.2602,213,9.18824,4.79022,0.5025,2961
2.36102e-08,1.80361e-07,-2.90511e-06,-2.87161e-05,-6.53986e-05,-0.003373,54.9294,54.3125,0.227363,27.3512,54.9297,54.3123,0.227347,54.3962,213,9.18701,5.63775,0.5025,2962
2.3354e-10,2.04734e-07,-2.90376e-06,-2.58237e-05,-7.27827e-05,-0.0033753,54.7803,53.9926,-0.0734876,27.4269,54.7804,53.9926,-0.0734994,54.4642,213,10.0488,5.28651,0.5025,2963
3.9958e-08,2.9372e-07,-2.89558e-06,-2.91616e-05,-9.96562e-05,-0.00337544,45.8037,44.8131,0.288547,22.7579,45.8042,44.8128,0.288397,45.0283,213,8.55886,4.22154,0.5025,2964
-2.36851e-08,1.80036e-07,-2.90769e-06,-2.87892e-05,-6.4982e-05,-0.00337683,54.8102,54.2016,-0.0063331,27.4085,54.8107,54.2011,-0.00633689,54.5148,213,10.9088,5.63598,0.5025,2965
-2.2881e-08,2.4227e-07,-2.90011e-06,-2.80802e-05,-8.12955e-05,-0.00337062,54.6299,53.7361,-0.116835,27.3738,54.6308,53.7353,-0.116843,54.3054,213,10.91,4.78846,0.5025,2966
-4.03813e-08,2.93239e-07,-2.89651e-06,-2.92052e-05,-0.00010232,-0.00335984,54.388,53.1585,-0.174804,27.2815,54.3883,53.1582,-0.17481,53.9586,213,11.5391,4.21949,0.5025,2967
-3.53395e-07,-3.67286e-09,-2.89701e-06,-9.7839e-05,-2.39289e-05,-0.00332154,62.8519,64.2784,1.44014,31.428,64.2888,62.8488,1.43285,62.1485,213,16.3695,10.4521,0.5025,2968
-4.91615e-07,5.32969e-09,-2.92008e-06,-0.000158871,-2.37405e-05,-0.00336356,42.569,44.4522,-1.73066,23.1196,44.4814,42.567,-1.75785,45.3124,213,17.4286,10.0871,0.5025,2969
-4.29213e-07,2.26672e-08,-2.91393e-06,-0.00013937,-2.54532e-05,-0.00332275,52.6634,54.5779,0.628991,26.984,54.5881,52.6621,0.620094,53.0312,213,17.0226,9.38497,0.5025,2970
-4.7124e-07,4.06425e-08,-2.92156e-06,-0.000160111,-2.67973e-05,-0.00332644,51.7478,53.9897,-0.0908977,27.0438,53.9966,51.741,-0.0910345,52.9959,213,17.3509,8.68775,0.5025,2971
-3.45201e-07,3.21033e-08,-2.89452e-06,-9.84756e-05,-2.64367e-05,-0.00335971,53.5854,54.7779,0.359451,27.2137,54.7865,53.5772,0.359102,53.8329,213,16.2918,9.05278,0.5025,2972
-2.39884e-07,1.30839e-08,-2.88959e-06,-9.04863e-05,-2.28803e-05,-0.00336991,53.5144,54.6488,-0.178181,27.4135,54.6489,53.5144,-0.17822,54.2687,213,15.1556,9.83363,0.5025,2973
-1.95565e-07,-8.47056e-09,-2.89893e-06,-6.97771e-05,-2.46435e-05,-0.00337067,54.3232,55.0834,0.398817,27.3428,55.0842,54.3226,0.398594,54.3088,213,14.6362,10.7495,0.5025,2974
-2.61528e-07,-6.87895e-09,-2.89064e-06,-8.86e-05,-2.48199e-05,-0.00334335,62.2357,63.478,-0.22303,31.8534,63.4838,62.2299,-0.223038,63.0892,213,15.444,10.6658,0.5025,2975
-2.91014e-07,-2.47197e-08,-2.8968e-06,-9.37901e-05,-2.43242e-05,-0.0033734,53.7856,54.95,0.528675,27.2154,54.9591,53.7768,0.528368,53.8493,213,15.85,11.368,0.5025,2976
-2.75292e-07,2.68458e-08,-2.88671e-06,-9.6598e-05,-2.58805e-05,-0.00334036,61.9962,63.3884,-0.173021,31.7862,63.3987,61.9865,-0.173673,62.8782,213,15.5698,9.24284,0.5025,2977
-2.05247e-07,2.55885e-08,-2.89502e-06,-7.49242e-05,-2.54377e-05,-0.00337065,54.1131,54.9453,0.256585,27.3457,54.9474,54.1116,0.255967,54.2784,213,14.762,9.32647,0.5025,2978
-2.96737e-07,4.60223e-08,-2.89415e-06,-9.76031e-05,-2.82337e-05,-0.00332648,62.3667,63.7242,0.629226,31.5544,63.7379,62.3531,0.629105,62.4279,213,15.8981,8.54562,0.5025,2979
4.34843e-07,2.25785e-08,-2.90251e-06,-0.000143527,-2.5485e-05,-0.00336239,43.6655,45.3243,-0.171313,22.7483,45.3253,43.6645,-0.171337,44.6894,213,3.0774,9.38497,0.5025,2980
4.96899e-07,5.15572e-09,-2.91242e-06,-0.000154147,-2.39329e-05,-0.00335399,59.0034,61.5707,-2.65461,32.1388,61.5981,59.0009,-2.6795,63.0191,213,2.67727,10.0872,0.5025,2981
3.55876e-07,-3.55847e-09,-2.88642e-06,-0.00011014,-2.34239e-05,-0.00335328,53.1494,54.5906,0.0521214,27.2696,54.5913,53.1487,0.0521159,53.8324,213,3.73641,10.4522,0.5025,2982
3.4422e-07,3.19368e-08,-2.88784e-06,-0.000105369,-2.65112e-05,-0.00337501,44.5652,45.6901,0.0552038,22.8192,45.6935,44.5618,0.0551991,45.0831,213,3.80813,9.05282,0.5025,2983
4.80469e-07,4.08038e-08,-2.9124e-06,-0.000162022,-2.7053e-05,-0.00330776,60.1431,62.786,0.00982089,31.3895,62.7886,60.1407,0.00959703,61.4978,213,2.749,8.6878,0.5025,2984
2.55486e-07,-6.5775e-09,-2.89303e-06,-9.22182e-05,-2.43331e-05,-0.00336112,53.6882,54.8215,0.253293,27.2846,54.8224,53.6873,0.253258,54.0106,213,4.69117,10.6663,0.5025,2985
1.90117e-07,-8.83399e-09,-2.90326e-06,-6.82317e-05,-2.44968e-05,-0.00337449,54.2476,54.9836,0.172699,27.4055,54.9837,54.2476,0.172645,54.4467,213,5.4983,10.7518,0.5025,2986
2.34604e-07,1.29348e-08,-2.89437e-06,-8.96345e-05,-2.28922e-05,-0.00334983,62.1892,63.4954,-0.276395,31.886,63.4955,62.1892,-0.276443,63.1289,213,4.94367,9.83552,0.5025,2987
2.89446e-07,-2.40394e-08,-2.894e-06,-9.77237e-05,-2.40125e-05,-0.00334181,62.1066,63.549,0.0517851,31.7507,63.5531,62.1026,0.0517435,62.7886,213,4.29104,11.3685,0.5025,2988
2.01905e-07,2.51708e-08,-2.89984e-06,-7.38471e-05,-2.56395e-05,-0.00337064,54.1097,54.9229,0.206387,27.3589,54.9237,54.1093,0.20598,54.3151,213,5.32708,9.33743,0.5025,2989
2.723e-07,2.66379e-08,-2.88797e-06,-9.75942e-05,-2.58726e-05,-0.00339795,38.9443,39.8199,-0.0170137,19.9203,39.8237,38.9405,-0.0170154,39.4065,213,4.51995,9.25192,0.5025,2990
2.97805e-07,4.56391e-08,-2.89063e-06,-0.000102204,-2.82348e-05,-0.00333333,61.9845,63.4325,0.155511,31.6411,63.4377,61.9794,0.155405,62.5659,213,4.19155,8.55474,0.5025,2991
-2.63699e-07,-2.06511e-07,-2.88394e-06,-9.34341e-05,-7.13058e-05,-0.00331306,61.9196,62.352,0.371274,31.0142,62.3994,61.8724,0.371025,61.7666,213,15.793,15.721,0.5025,2992
-1.80926e-07,-2.57303e-07,-2.8897e-06,-6.4047e-05,-9.24668e-05,-0.00334806,53.5549,53.0804,-0.220238,26.9045,53.5888,53.0465,-0.22024,53.54,213,14.8095,16.2932,0.5025,2993
-2.54618e-07,-2.88497e-07,-2.885e-06,-9.12944e-05,-0.000105987,-0.00329958,61.5042,61.2135,0.133377,30.7166,61.5665,61.1513,0.1333,61.2266,213,15.822,16.6562,0.5025,2994
-3.35407e-07,-3.17673e-07,-2.887e-06,-0.000109688,-0.000131664,-0.00327529,60.7484,60.3164,0.219531,30.3351,60.8897,60.1751,0.219504,60.3161,213,16.6676,16.9424,0.5025,2995
-4.97996e-07,-1.73352e-07,-2.90019e-06,-0.000184065,-5.99826e-05,-0.0032984,50.9061,52.9928,0.021401,26.4902,53.0018,50.8971,0.0213853,51.9601,213,17.5495,15.2531,0.5025,2996
-4.61475e-07,-1.22331e-07,-2.89385e-06,-0.000169376,-4.6519e-05,-0.00331176,51.4219,53.4882,0.0672122,26.7135,53.4942,51.4159,0.0672001,52.4188,213,17.2638,14.3227,0.5025,2997
-3.45626e-07,-1.67393e-07,-2.88599e-06,-0.000113982,-6.01954e-05,-0.00331412,61.2208,62.2738,-0.0203179,31.1569,62.2935,61.2011,-0.0203207,61.7749,213,16.5198,15.1536,0.5025,2998
-5.31359e-07,-2.3014e-07,-2.89939e-06,-0.000233836,-7.30338e-05,-0.00324208,57.6373,60.7964,0.178273,30.3117,60.8017,57.6321,0.178201,59.1025,213,17.7465,16.0702,0.5025,2999
-4.68119e-07,-2.98884e-07,-2.89905e-06,-0.000185815,-0.00011633,-0.00326803,50.4103,51.5788,0.0966462,25.7674,51.6314,50.3577,0.0966236,50.9099,213,17.5552,16.8295,0.5025,3000
-2.5649e-07,4.37836e-07,-2.87847e-06,-8.9395e-05,-0.000148437,-0.00330351,52.5349,51.542,-0.0120665,26.2788,52.5456,51.5313,-0.0120684,52.0579,213,15.8271,2.84997,0.5025,3001
-1.82646e-07,3.96634e-07,-2.87931e-06,-6.31862e-05,-0.000132728,-0.00332095,53.4748,52.3018,0.236387,26.624,53.4844,52.2923,0.236348,52.6621,213,14.8306,3.20432,0.5025,3002
-2.6047e-07,3.20693e-07,-2.87605e-06,-9.09641e-05,-0.00010904,-0.0033205,52.8443,52.542,0.00103515,26.4462,52.8935,52.4928,0.001033,52.6933,213,15.809,3.77034,0.5025,3003
-3.38787e-07,4.76844e-07,-2.87758e-06,-0.000105712,-0.000184073,-0.0032835,45.9346,44.7607,0.214324,22.8707,45.9557,44.7396,0.2143,45.1456,213,16.6676,2.55757,0.5025,3004
-3.37791e-07,2.57059e-07,-2.88463e-06,-0.000110311,-9.11294e-05,-0.00332195,52.49,52.8055,-0.0571652,26.4588,52.8603,52.4354,-0.0573427,52.7065,213,16.5198,4.34639,0.5025,3005
-4.52569e-07,1.87856e-07,-2.89211e-06,-0.000168527,-6.41962e-05,-0.00330665,51.157,52.9114,-0.189093,26.5598,52.93,51.1388,-0.189517,52.247,213,17.2754,5.19301,0.5025,3006
-4.88631e-07,2.60063e-07,-2.89525e-06,-0.000181655,-9.10286e-05,-0.00330496,42.5319,43.8025,0.115319,21.8516,43.8184,42.516,0.115306,43.0667,213,17.5612,4.2626,0.5025,3007
-5.1278e-07,3.44686e-07,-2.88694e-06,-0.000219025,-0.000109539,-0.00324829,49.6696,51.511,0.18881,25.6673,51.5232,49.6577,0.188515,50.4278,213,17.7471,3.43059,0.5025,3008
-4.63238e-07,4.485e-07,-2.87737e-06,-0.000176923,-0.000168264,-0.00325158,50.0517,50.199,-0.157599,25.2448,50.3317,49.9193,-0.157858,50.2846,213,17.5552,2.67053,0.5025,3009
2.55603e-07,-2.88876e-07,-2.88682e-06,-9.19855e-05,-9.95896e-05,-0.00332409,52.9031,52.7744,0.00599958,26.4935,52.993,52.6847,0.00588695,52.8336,213,4.27532,16.6693,0.5025,3010
1.79715e-07,-2.69991e-07,-2.89189e-06,-6.36738e-05,-9.16352e-05,-0.00334957,53.5951,53.1249,-0.186394,26.9131,53.6393,53.0812,-0.186878,53.5493,213,5.30477,16.3792,0.5025,3011
2.61361e-07,-2.13296e-07,-2.88249e-06,-9.20386e-05,-7.64298e-05,-0.00333192,53.221,53.4845,0.233099,26.6577,53.5478,53.1584,0.23242,53.1217,213,4.32394,15.7939,0.5025,3012
3.37002e-07,-3.14186e-07,-2.88941e-06,-0.000108226,-0.000127149,-0.00329523,52.4058,52.0881,0.310669,26.094,52.4987,51.9952,0.310657,51.9381,213,3.43235,16.9424,0.5025,3013
3.45321e-07,-1.66436e-07,-2.88561e-06,-0.000114029,-5.99021e-05,-0.00334807,46.5946,47.3986,0.0406412,23.6865,47.4136,46.5796,0.0406408,46.9615,213,3.58023,15.1536,0.5025,3014
4.60971e-07,-1.23199e-07,-2.89559e-06,-0.000171698,-4.64232e-05,-0.00331383,51.3534,53.4663,0.0399381,26.715,53.4699,51.3498,0.0399237,52.4021,213,2.83621,14.3227,0.5025,3015
4.98682e-07,-1.73338e-07,-2.90037e-06,-0.000185865,-5.99504e-05,-0.003298,50.8551,52.9726,0.0110079,26.4852,52.9814,50.8463,0.0109975,51.9358,213,2.55047,15.2531,0.5025,3016
5.31921e-07,-2.30278e-07,-2.8999e-06,-0.000233785,-7.42149e-05,-0.00327368,43.8827,46.2578,0.209319,23.0258,46.2609,43.8797,0.209258,44.9084,213,2.35352,16.0702,0.5025,3017
4.69621e-07,-3.00599e-07,-2.90082e-06,-0.000186527,-0.000118998,-0.00326561,50.3584,51.494,0.0763979,25.7324,51.5411,50.3113,0.0763813,50.861,213,2.54485,16.8295,0.5025,3018
2.60678e-07,3.19929e-07,-2.8803e-06,-9.17409e-05,-0.000105041,-0.00331993,52.8611,52.6241,0.021246,26.45,52.9211,52.5641,0.0212434,52.7223,213,4.29089,3.77046,0.5025,3019
1.82652e-07,3.9845e-07,-2.87637e-06,-6.15109e-05,-0.000144285,-0.00329998,61.9376,60.3156,-0.00226553,30.9752,61.9481,60.3051,-0.0022787,61.1454,213,5.26927,3.20447,0.5025,3020
2.55202e-07,4.38526e-07,-2.87722e-06,-9.02274e-05,-0.000155979,-0.00329868,52.4441,51.3384,-0.0197739,26.2418,52.4639,51.3186,-0.0197872,51.9205,213,4.27286,2.84999,0.5025,3021
3.38832e-07,4.76305e-07,-2.87892e-06,-0.000107374,-0.000182105,-0.00328355,45.8873,44.7713,0.178016,22.8613,45.9007,44.7579,0.178009,45.1621,213,3.43235,2.55757,0.5025,3022
4.90175e-07,2.60039e-07,-2.89586e-06,-0.000179514,-9.01132e-05,-0.00326441,58.9909,60.7345,-0.00167204,30.3819,60.7621,58.9634,-0.00177721,59.8848,213,2.53883,4.26261,0.5025,3023
4.52573e-07,1.88345e-07,-2.89114e-06,-0.000168917,-6.5262e-05,-0.00328806,59.4464,61.4758,-0.191992,30.8398,61.4871,59.4356,-0.192476,60.6798,213,2.82458,5.19302,0.5025,3024
3.38522e-07,2.57398e-07,-2.884e-06,-0.00011022,-9.11206e-05,-0.0033336,46.4636,46.7436,0.0700337,23.3594,46.7886,46.4189,0.0697965,46.535,213,3.58023,4.34639,0.5025,3025
5.16637e-07,3.45255e-07,-2.88726e-06,-0.000223241,-0.000108853,-0.00328134,36.2137,37.6098,0.214286,18.7011,37.6165,36.2071,0.214264,36.7178,213,2.35292,3.43059,0.5025,3026
4.63244e-07,4.46956e-07,-2.87674e-06,-0.000176324,-0.000164851,-0.00322788,58.2992,58.5386,-0.0195712,29.3731,58.7263,58.1118,-0.0198882,58.4414,213,2.54485,2.67053,0.5025,3027
1.47053e-07,-2.01407e-08,-2.90948e-06,-5.85685e-05,-2.5002e-05,-0.00336059,63.2435,63.9004,0.0200574,31.9405,63.901,63.2429,0.020033,63.5545,213,6.16953,11.2081,0.5025,3028
9.62643e-08,-3.2793e-08,-2.91343e-06,-4.2621e-05,-2.80643e-05,-0.00336419,63.756,64.0428,0.159433,31.9424,64.0439,63.7551,0.159159,63.7409,213,7.16701,11.6592,0.5025,3029
1.33552e-07,3.18474e-11,-2.90971e-06,-5.42083e-05,-2.38915e-05,-0.00336955,60.8384,61.4079,-0.0126884,30.7103,61.4079,60.8384,-0.0126988,61.1378,213,6.42204,10.3774,0.5025,3030
6.6498e-08,-1.15491e-08,-2.91468e-06,-3.65791e-05,-2.42343e-05,-0.003414,46.0728,46.2462,0.0559833,23.0953,46.2465,46.0725,0.0559827,46.1038,213,7.93138,10.8327,0.5025,3031
8.20925e-08,1.20315e-08,-2.91387e-06,-3.95194e-05,-2.59672e-05,-0.0033723,63.704,63.9709,-0.161268,32.0662,63.9711,63.7039,-0.161333,63.9992,213,7.51445,9.89298,0.5025,3032
1.1168e-07,2.36116e-08,-2.91163e-06,-4.86774e-05,-2.59776e-05,-0.00340966,45.7221,46.0406,-0.0986845,23.0699,46.0409,45.7219,-0.0988431,45.9811,213,6.84322,9.43666,0.5025,3033
6.33091e-08,-3.33836e-08,-2.91461e-06,-3.59572e-05,-2.82028e-05,-0.00339421,54.8623,54.9937,-0.169362,27.5824,54.995,54.8614,-0.16977,55.0981,213,8.00512,11.6582,0.5025,3034
-1.06467e-07,-3.17365e-08,-2.91141e-06,-4.54328e-05,-2.81114e-05,-0.00336901,61.1001,61.4248,0.0864213,30.6699,61.4261,61.0988,0.0864144,61.1767,213,13.1477,11.639,0.5025,3035
-1.50345e-07,-1.97163e-08,-2.90686e-06,-5.93408e-05,-2.54055e-05,-0.00338045,54.3954,54.9661,0.033322,27.4674,54.968,54.3935,0.0333156,54.6497,213,13.9657,11.2077,0.5025,3036
-1.35588e-07,8.05501e-10,-2.90657e-06,-5.62041e-05,-2.4114e-05,-0.00336903,60.782,61.3848,-0.00880954,30.6968,61.3848,60.782,-0.00882825,61.0945,213,13.6773,10.3755,0.5025,3037
-8.18877e-08,1.20123e-08,-2.91253e-06,-3.98897e-05,-2.58464e-05,-0.00339395,54.754,54.9931,-0.217809,27.6056,54.9932,54.754,-0.217934,55.0919,213,12.5633,9.92326,0.5025,3038
-6.17953e-08,-2.00559e-08,-2.91414e-06,-3.61488e-05,-2.54759e-05,-0.00339347,54.9937,55.1736,0.0465289,27.564,55.1743,54.9931,0.0464219,55.0375,213,12.035,11.1764,0.5025,3039
-1.11977e-07,2.35837e-08,-2.90935e-06,-4.97944e-05,-2.55276e-05,-0.00340747,45.7623,46.1039,0.0184329,23.0429,46.1041,45.7621,0.0183787,45.9157,213,13.2338,9.46505,0.5025,3040
-6.62752e-08,-4.22227e-08,-2.9138e-06,-3.70732e-05,-2.88775e-05,-0.00338993,54.9352,55.073,0.0368124,27.5187,55.0742,54.934,0.0367821,54.9675,213,12.176,11.9817,0.5025,3041
-1.23942e-07,-3.16571e-07,-2.90197e-06,-5.11045e-05,-0.000111265,-0.00334537,53.7348,52.7254,-0.204623,26.9766,53.7486,52.7116,-0.204647,53.4423,213,13.8977,16.8051,0.5025,3042
-1.29001e-07,-2.26601e-07,-2.89768e-06,-5.24376e-05,-7.95522e-05,-0.00335393,54.1255,53.6715,0.0805946,27.029,54.1385,53.6585,0.080589,53.8195,213,13.8687,15.8699,0.5025,3043
-8.94804e-08,-3.90365e-07,-2.90851e-06,-4.06932e-05,-0.000181385,-0.00332317,45.1629,43.175,0.668951,22.2517,45.1703,43.1695,0.666997,43.5374,213,13.1947,17.2383,0.5025,3044
-6.24077e-08,-3.72894e-07,-2.90897e-06,-2.99428e-05,-0.000159209,-0.0033103,62.5859,60.0554,-0.275998,31.4341,62.5919,60.0497,-0.276236,61.6363,213,12.421,17.1228,0.5025,3045
-5.68103e-08,-2.76212e-07,-2.90392e-06,-3.18098e-05,-9.56697e-05,-0.00334394,54.7276,53.6518,0.500902,27.1152,54.7306,53.6495,0.500196,53.698,213,12.1453,16.3665,0.5025,3046
-3.97844e-08,-3.72306e-07,-2.9105e-06,-2.53317e-05,-0.000157527,-0.00335018,45.3018,43.4409,-0.0243009,22.6633,45.3021,43.4409,-0.0245849,44.4253,213,11.6094,17.1075,0.5025,3047
-9.48168e-08,-1.96667e-07,-2.90273e-06,-4.10923e-05,-7.09726e-05,-0.00336836,54.4761,53.9736,0.0553492,27.2139,54.4831,53.9666,0.0553423,54.1714,213,13.0955,15.4336,0.5025,3048
-6.53999e-08,-2.15314e-07,-2.90411e-06,-3.44567e-05,-7.68228e-05,-0.00335141,60.8794,60.083,-0.0280734,30.4557,60.8833,60.0791,-0.0280913,60.5133,213,12.3414,15.6561,0.5025,3049
-7.29685e-08,-1.52132e-07,-2.90662e-06,-3.72325e-05,-5.56567e-05,-0.00337887,54.6659,54.3568,-0.0269558,27.3485,54.6699,54.3529,-0.0270422,54.5391,213,12.48,14.7079,0.5025,3050
1.31475e-07,4.71253e-07,-2.89241e-06,-5.13465e-05,-0.000161999,-0.00331596,53.4459,51.5665,0.105645,26.6704,53.4464,51.5661,0.10561,52.4259,213,6.1541,2.75298,0.5025,3051
1.33206e-07,3.44065e-07,-2.88895e-06,-5.15476e-05,-0.000112846,-0.00335688,45.1165,44.2522,0.0767079,22.5219,45.1205,44.2482,0.0766987,44.6141,213,6.17213,3.67346,0.5025,3052
9.8423e-08,5.6426e-07,-2.90396e-06,-4.07524e-05,-0.000240468,-0.00325409,61.5982,57.6792,0.0297466,30.7865,61.6027,57.6748,0.0296726,59.706,213,6.86088,2.32386,0.5025,3053
6.82826e-08,2.95635e-07,-2.89686e-06,-3.62382e-05,-0.000100976,-0.00332471,63.3933,62.1255,0.514552,31.4404,63.3952,62.1237,0.514464,62.2547,213,7.69172,4.18172,0.5025,3054
5.92348e-08,4.01887e-07,-2.89752e-06,-3.40827e-05,-0.000126198,-0.00332301,62.8596,61.05,-0.141262,31.5006,62.86,61.0496,-0.141264,62.1159,213,7.92411,3.26179,0.5025,3055
1.00359e-07,3.06928e-07,-2.89445e-06,-4.26658e-05,-0.000104356,-0.00334902,54.119,53.0814,0.00363006,27.0588,54.1212,53.0792,0.00362906,53.6042,213,6.87459,4.04116,0.5025,3056
7.65362e-08,2.22788e-07,-2.90144e-06,-3.78766e-05,-7.58489e-05,-0.00338889,45.6007,45.0668,-0.0777859,22.8403,45.6029,45.0646,-0.0777882,45.4139,213,7.50935,5.00092,0.5025,3057
4.04558e-08,5.38995e-07,-2.90575e-06,-2.78007e-05,-0.000216643,-0.00329621,53.6041,50.4281,0.163581,26.7205,53.6044,50.4281,0.163323,51.9258,213,8.54443,2.46219,0.5025,3058
6.75723e-08,5.45714e-07,-2.9073e-06,-3.37347e-05,-0.000219559,-0.00331135,44.8382,42.2257,0.305165,22.2674,44.8396,42.2247,0.304792,43.2866,213,7.67729,2.42237,0.5025,3059
1.32805e-07,-2.47482e-07,-2.89679e-06,-5.29855e-05,-9.11649e-05,-0.00334077,54.2489,53.6077,0.541615,26.863,54.261,53.6022,0.53503,53.3996,213,6.14256,16.0802,0.5025,3060
1.29042e-07,-3.34984e-07,-2.90666e-06,-5.15588e-05,-0.000112598,-0.00334212,61.8201,60.6127,-1.40538,31.6337,61.8533,60.5882,-1.41414,62.6445,213,6.09394,16.9556,0.5025,3061
9.36209e-08,-4.26389e-07,-2.91008e-06,-3.94208e-05,-0.000202075,-0.00330416,45.3135,43.0417,1.18513,22.0917,45.3474,43.0288,1.16409,43.0709,213,6.77203,17.4066,0.5025,3062
6.66834e-08,-3.94964e-07,-2.91255e-06,-3.40483e-05,-0.000163568,-0.00334532,47.3746,45.4509,-0.400137,23.8892,47.3778,45.4482,-0.400642,46.8435,213,7.54364,17.2645,0.5025,3063
4.49596e-08,-3.51427e-07,-2.90862e-06,-2.70463e-05,-0.000142651,-0.00333976,54.142,52.1979,-0.0779337,27.1115,54.144,52.197,-0.079013,53.2762,213,8.2808,16.9628,0.5025,3064
6.59931e-08,-2.75802e-07,-2.9035e-06,-3.49415e-05,-9.95797e-05,-0.0033501,54.5017,53.4152,0.282732,27.1111,54.505,53.4119,0.282725,53.6841,213,7.66888,16.3547,0.5025,3065
9.51572e-08,-2.34404e-07,-2.90247e-06,-4.1836e-05,-8.69805e-05,-0.00335771,54.1643,53.4051,-0.241244,27.2055,54.1682,53.4027,-0.242724,54.0322,213,6.95235,15.9351,0.5025,3066
6.74015e-08,-2.12806e-07,-2.90272e-06,-3.58198e-05,-7.74789e-05,-0.0033651,54.4906,53.7902,-0.067136,27.2814,54.4956,53.7854,-0.0673137,54.2113,213,7.6895,15.6333,0.5025,3067
-1.32352e-07,3.45868e-07,-2.88746e-06,-5.11927e-05,-0.000118141,-0.00336226,44.9533,44.0113,-0.187433,22.5719,44.9564,44.0082,-0.187441,44.6773,213,13.9276,3.67312,0.5025,3068
-1.30577e-07,4.71798e-07,-2.89298e-06,-5.10228e-05,-0.000152397,-0.00328351,62.6484,60.6562,0.936309,30.8586,62.6532,60.6516,0.936094,60.7411,213,13.9457,2.75275,0.5025,3069
-9.82162e-08,5.6949e-07,-2.89811e-06,-3.96859e-05,-0.000241967,-0.00328342,52.8731,49.4714,-0.23734,26.5615,52.8809,49.4682,-0.242027,51.5015,213,13.239,2.3236,0.5025,3070
-5.95327e-08,4.04746e-07,-2.89505e-06,-3.36444e-05,-0.000132952,-0.00335886,45.3788,43.9857,0.118267,22.6307,45.3795,43.9852,0.118059,44.5806,213,12.1755,3.2613,0.5025,3071
-6.81988e-08,2.9493e-07,-2.89699e-06,-3.53401e-05,-0.000103407,-0.0033302,63.1881,61.8554,0.114182,31.5381,63.1902,61.8535,0.113991,62.4186,213,12.4064,4.17974,0.5025,3072
-7.60738e-08,2.21315e-07,-2.90178e-06,-3.80632e-05,-7.53579e-05,-0.00332641,69.3695,68.5687,0.27164,34.5506,69.3725,68.566,0.271355,68.7014,213,12.5886,4.99913,0.5025,3073
-1.00305e-07,3.05963e-07,-2.8954e-06,-4.31318e-05,-0.000106982,-0.00334177,54.2821,53.2033,0.380809,26.9512,54.2831,53.2025,0.380643,53.3703,213,13.225,4.04094,0.5025,3074
-6.75815e-08,5.48493e-07,-2.90173e-06,-3.41745e-05,-0.00021138,-0.00331293,52.9359,49.9574,-0.903479,26.9247,52.9416,49.9559,-0.907758,52.4204,213,12.4226,2.42216,0.5025,3075
-4.08825e-08,5.43073e-07,-2.90442e-06,-2.77915e-05,-0.000209701,-0.0032736,62.5083,58.9475,0.449177,31.0296,62.5084,58.9475,0.44912,60.3576,213,11.5553,2.46191,0.5025,3076
-4.47829e-08,1.51313e-07,-2.90998e-06,-3.03903e-05,-5.73e-05,-0.00338075,54.8098,54.3573,-0.0570951,27.4339,54.8107,54.3565,-0.0571261,54.6421,213,11.6092,6.08985,0.5025,3077
-1.95227e-08,1.25688e-07,-2.91196e-06,-2.85284e-05,-4.9687e-05,-0.00338486,54.9496,54.5948,-0.00591938,27.4778,54.9497,54.5947,-0.0059431,54.779,213,10.748,6.5879,0.5025,3078
-6.986e-08,1.09225e-07,-2.91174e-06,-3.74332e-05,-4.33118e-05,-0.00341946,39.9548,39.883,-0.00516219,19.9818,39.9584,39.8794,-0.00517003,39.9241,213,12.3236,6.90881,0.5025,3079
-7.40256e-08,1.57233e-07,-2.90808e-06,-3.7127e-05,-5.86448e-05,-0.00337653,54.6286,54.2668,-0.0526194,27.3425,54.6324,54.2631,-0.0526374,54.5013,213,12.4844,5.95689,0.5025,3080
-1.9814e-08,8.52347e-08,-2.91362e-06,-2.94219e-05,-3.79192e-05,-0.00336934,63.9538,63.7876,-0.0273605,31.9906,63.9539,63.7876,-0.0273696,63.8982,213,10.7487,7.51197,0.5025,3081
-5.22323e-08,6.63213e-08,-2.91361e-06,-3.26367e-05,-3.41354e-05,-0.00338987,55.0003,54.9783,0.0411917,27.4852,55.0115,54.9671,0.0411466,54.9482,213,11.7842,8.02731,0.5025,3082
-8.41928e-08,6.98797e-08,-2.91209e-06,-3.9779e-05,-3.52736e-05,-0.00336412,63.7064,63.7952,0.0371745,31.8831,63.8033,63.6983,0.0371721,63.7137,213,12.6593,7.89435,0.5025,3083
2.91527e-10,1.03658e-07,-2.91278e-06,-2.80789e-05,-4.42928e-05,-0.00336407,64.0146,63.6975,0.13812,31.9383,64.0146,63.6975,0.138115,63.7185,213,10.0483,7.0581,0.5025,3084
1.98941e-08,1.25379e-07,-2.91067e-06,-2.86237e-05,-5.00109e-05,-0.00340178,48.5161,48.1986,-0.114495,24.3155,48.5165,48.1983,-0.114577,48.4728,213,9.34445,6.59796,0.5025,3085
4.49125e-08,1.51097e-07,-2.90813e-06,-3.06677e-05,-5.81419e-05,-0.00335977,63.6621,63.1237,-0.125358,31.8943,63.6633,63.1225,-0.125382,63.52,213,8.48392,6.10168,0.5025,3086
7.50932e-08,1.5766e-07,-2.90777e-06,-3.78622e-05,-5.95282e-05,-0.00337527,54.6192,54.2546,-0.019901,27.3211,54.6222,54.2516,-0.0199058,54.4578,213,7.59969,5.9649,0.5025,3087
7.08847e-08,1.08258e-07,-2.91151e-06,-3.74736e-05,-4.37459e-05,-0.00336796,61.1243,61.0063,-0.0092259,30.5693,61.1294,61.0012,-0.00923129,61.0746,213,7.75713,6.92511,0.5025,3088
5.33911e-08,6.66868e-08,-2.91389e-06,-3.27385e-05,-3.41286e-05,-0.00340436,48.6589,48.6387,0.106059,24.2799,48.6655,48.6324,0.105753,48.5432,213,8.2885,8.00709,0.5025,3089
2.06407e-08,8.4415e-08,-2.91345e-06,-2.91585e-05,-3.78819e-05,-0.00339173,55.0025,54.8558,-0.07204,27.5375,55.0029,54.8554,-0.0720527,55.0014,213,9.34518,7.52203,0.5025,3090
8.58716e-08,7.06054e-08,-2.91277e-06,-3.9621e-05,-3.54548e-05,-0.00340698,45.9251,45.9848,0.0565654,22.9659,45.9883,45.9216,0.0565475,45.8984,213,7.40427,7.8703,0.5025,3091
5.65542e-07,-8.85587e-08,-2.90386e-06,-0.000209733,-3.82398e-05,-0.0032759,58.6055,61.9527,-0.0168785,30.9855,61.954,58.6042,-0.0169057,60.3658,213,2.30616,13.5156,0.5025,3092
3.89296e-07,-8.61356e-08,-2.89498e-06,-0.00013146,-3.60852e-05,-0.00335943,43.9394,45.2864,0.0196275,22.6334,45.2864,43.9394,0.0196264,44.6085,213,3.33592,13.4161,0.5025,3093
6.50975e-07,-6.13696e-08,-2.90695e-06,-0.000295384,-3.13303e-05,-0.00321442,56.8073,61.9792,1.30997,30.3434,61.988,56.8073,1.30124,58.2694,213,2.00133,12.652,0.5025,3094
3.6213e-07,-6.22902e-08,-2.89838e-06,-0.000120093,-3.18798e-05,-0.00332479,61.3626,63.089,0.0496864,31.5202,63.0899,61.3618,0.049611,62.1942,213,3.54831,12.7198,0.5025,3095
5.95532e-07,-3.81951e-08,-2.91881e-06,-0.000244669,-2.80003e-05,-0.00323841,58.4887,62.733,1.58086,30.5894,62.7478,58.4857,1.56904,59.163,213,2.16315,11.8716,0.5025,3096
4.20942e-07,-3.80655e-08,-2.90525e-06,-0.000136226,-2.64054e-05,-0.00336474,43.8514,45.4072,-0.0637598,22.7361,45.4084,43.8503,-0.0638217,44.7135,213,3.07107,11.8817,0.5025,3097
5.33326e-07,-1.91825e-08,-2.92106e-06,-0.000199144,-2.38533e-05,-0.00323668,53.1944,56.143,4.57956,25.8792,56.2405,53.1944,4.48208,50.3046,213,2.42835,11.1443,0.5025,3098
3.32076e-07,-4.05527e-08,-2.89861e-06,-0.000105952,-2.77375e-05,-0.00336329,52.8563,54.1741,-0.597151,27.3876,54.1774,52.8536,-0.597796,54.1255,213,3.81351,11.9926,0.5025,3099
6.24204e-07,9.75223e-08,-2.90766e-06,-0.000279905,-3.81497e-05,-0.00329028,42.3787,45.9617,-1.21372,23.5962,45.9708,42.3774,-1.2215,45.5021,213,2.07678,6.96984,0.5025,3100
5.31983e-07,6.05829e-08,-2.9187e-06,-0.00019257,-3.1495e-05,-0.00319619,62.2515,65.3999,5.9077,29.8995,65.5538,62.2505,5.75481,58.2177,213,2.43966,8.00324,0.5025,3101
4.0368e-07,7.17284e-08,-2.90552e-06,-0.000138662,-3.36726e-05,-0.00335781,43.7164,45.1705,-0.219042,22.6978,45.1764,43.7106,-0.219128,44.6807,213,3.17039,7.67109,0.5025,3102
3.7803e-07,1.36178e-07,-2.89144e-06,-0.000127838,-4.99741e-05,-0.00334452,46.4045,47.5542,0.107796,23.7237,47.5552,46.4035,0.107796,46.8822,213,3.36351,6.13166,0.5025,3103
5.53016e-07,1.36804e-07,-2.90592e-06,-0.000213345,-5.20081e-05,-0.00328407,50.379,53.0922,0.312407,26.3908,53.0933,50.3787,0.311666,51.478,213,2.32212,6.04788,0.5025,3104
3.29774e-07,9.00956e-08,-2.89639e-06,-0.000109241,-3.85351e-05,-0.00334828,52.9951,54.1847,0.00786017,27.0889,54.1852,52.9949,0.0075319,53.5924,213,3.77834,7.19748,0.5025,3105
3.02899e-07,6.58772e-08,-2.89399e-06,-9.98883e-05,-3.28267e-05,-0.00331638,62.5627,63.8789,1.23774,31.3261,63.8893,62.5529,1.23714,61.9948,213,4.08768,7.88204,0.5025,3106
-3.8886e-07,-8.72228e-08,-2.89607e-06,-0.000137117,-3.48015e-05,-0.00333531,52.3236,54.0443,0.0225279,27.0114,54.0453,52.3226,0.022523,53.1824,213,16.7641,13.4161,0.5025,3107
-5.68687e-07,-8.81333e-08,-2.90181e-06,-0.000210723,-3.78587e-05,-0.00330209,50.3688,53.2758,-0.0745209,26.6756,53.2766,50.368,-0.0745353,51.9579,213,17.7938,13.5156,0.5025,3108
-6.49978e-07,-6.15715e-08,-2.90665e-06,-0.000295005,-3.21636e-05,-0.00324003,48.8635,53.2827,1.07769,26.1076,53.288,48.8632,1.07272,50.1495,213,18.0987,12.652,0.5025,3109
-3.60158e-07,-6.24088e-08,-2.90357e-06,-0.000121962,-3.19334e-05,-0.00334623,52.7345,54.2485,0.0204763,27.1158,54.2521,52.7309,0.0204478,53.4873,213,16.5796,12.6833,0.5025,3110
-5.90809e-07,-3.78325e-08,-2.91934e-06,-0.000250226,-2.81974e-05,-0.00327589,50.0902,53.8234,1.16924,26.3375,53.8357,50.0864,1.16068,50.9041,213,17.9369,11.8716,0.5025,3111
-5.27914e-07,-1.88665e-08,-2.92531e-06,-0.0002031,-2.37946e-05,-0.00329546,51.9403,54.9558,2.34948,26.3645,55.0171,51.9404,2.28804,51.26,213,17.6775,11.1443,0.5025,3112
-4.12814e-07,-3.84021e-08,-2.91777e-06,-0.000138653,-2.73185e-05,-0.00333548,52.4129,54.2852,0.144974,27.0705,54.286,52.4121,0.144964,53.2288,213,17.0348,11.8816,0.5025,3113
-3.28948e-07,-4.04651e-08,-2.90506e-06,-0.000102348,-2.80519e-05,-0.00336318,52.9643,54.2143,-0.565165,27.3922,54.2187,52.9606,-0.565782,54.1664,213,16.3203,11.956,0.5025,3114
-5.21227e-07,6.03993e-08,-2.92463e-06,-0.000198314,-3.18303e-05,-0.00331319,52.1344,54.9357,2.62683,26.2345,55.016,52.134,2.54692,51.0891,213,17.6603,8.00317,0.5025,3115
-6.1996e-07,9.79078e-08,-2.9096e-06,-0.0002814,-3.9517e-05,-0.00326721,48.1011,52.1682,-0.943002,26.5647,52.1802,48.0952,-0.94912,51.2092,213,18.0232,6.96976,0.5025,3116
-3.94767e-07,7.20895e-08,-2.91573e-06,-0.000131404,-3.44266e-05,-0.00335447,43.9162,45.2795,-0.0604879,22.6722,45.2838,43.9119,-0.060522,44.6742,213,16.9295,7.67098,0.5025,3117
-5.57426e-07,1.37036e-07,-2.9063e-06,-0.000213908,-5.08219e-05,-0.00328433,50.3679,53.1105,0.298748,26.4068,53.1115,50.3678,0.297878,51.4966,213,17.7779,6.04781,0.5025,3118
-3.76699e-07,1.37156e-07,-2.89459e-06,-0.000131597,-4.9659e-05,-0.00330589,60.9165,62.513,0.179994,31.1666,62.5131,60.9164,0.17998,61.5503,213,16.7365,6.1316,0.5025,3119
-3.19113e-07,9.30566e-08,-2.90139e-06,-0.000106249,-3.96861e-05,-0.00333414,61.5202,62.8237,-0.284567,31.5552,62.8249,61.52,-0.28558,62.4683,213,16.2801,7.14137,0.5025,3120
-2.94453e-07,6.80526e-08,-2.89855e-06,-9.24992e-05,-3.37723e-05,-0.00336271,47.6312,48.5072,0.727149,23.8981,48.5226,47.6165,0.726466,47.3496,213,15.9707,7.82595,0.5025,3121
5.73264e-08,-5.86059e-08,-2.91387e-06,-3.51225e-05,-3.1595e-05,-0.00341338,46.0144,46.0649,-0.0145488,23.0404,46.0662,46.0131,-0.01455,46.0542,213,8.15582,12.4978,0.5025,3122
3.9448e-08,-8.82202e-08,-2.91216e-06,-2.9944e-05,-3.96747e-05,-0.0033859,55.0092,54.8456,0.00961933,27.5003,55.0101,54.8447,0.00961377,54.918,213,8.6978,13.3203,0.5025,3123
9.84668e-09,-7.80569e-08,-2.9133e-06,-2.83953e-05,-3.72418e-05,-0.00341316,46.1187,45.9946,-0.0101084,23.0644,46.1187,45.9946,-0.0101116,46.0669,213,9.71098,13.045,0.5025,3124
-6.85998e-10,-4.36067e-08,-2.91495e-06,-2.92208e-05,-2.93789e-05,-0.00339556,55.122,55.1197,0.0188769,27.5538,55.1265,55.1152,0.0188211,55.1021,213,10.0671,12.015,0.5025,3125
3.34388e-08,-3.40361e-08,-2.91502e-06,-2.97897e-05,-2.82239e-05,-0.00337343,64.0519,64.0839,-0.00341235,32.045,64.0866,64.0492,-0.00341305,64.0713,213,8.92019,11.6713,0.5025,3126
-1.88544e-08,-6.02995e-08,-2.91422e-06,-2.88025e-05,-3.36404e-05,-0.00337164,64.0147,63.9205,-0.0282899,32.0221,64.0159,63.9193,-0.0283035,63.996,213,10.7071,12.5491,0.5025,3127
-8.09701e-08,-6.99724e-08,-2.9123e-06,-3.98281e-05,-3.48167e-05,-0.00338492,54.8127,54.8964,0.035788,27.4329,54.9017,54.8074,0.035779,54.8188,213,12.594,12.8636,0.5025,3128
-4.21735e-08,-5.50389e-08,-2.9142e-06,-3.10724e-05,-3.22512e-05,-0.00341464,46.0852,46.0683,-0.0349465,23.062,46.0891,46.0644,-0.0349517,46.1117,213,11.4813,12.4009,0.5025,3129
-3.04938e-08,-9.25592e-08,-2.91222e-06,-3.0127e-05,-4.02048e-05,-0.00338915,55.0504,54.8809,0.107093,27.4721,55.0513,54.88,0.107088,54.8588,213,11.1252,13.431,0.5025,3130
-5.09315e-08,-1.2201e-07,-2.90982e-06,-3.17904e-05,-4.86765e-05,-0.0033838,54.7888,54.5049,-0.173663,27.482,54.7903,54.5035,-0.173756,54.8212,213,11.8126,14.1066,0.5025,3131
-7.80355e-08,-1.10823e-07,-2.90988e-06,-3.88591e-05,-4.51925e-05,-0.00335922,63.6628,63.5383,0.0938314,31.7881,63.67,63.5311,0.0937927,63.5069,213,12.5667,13.8841,0.5025,3132
-9.79606e-08,4.41239e-08,-2.91101e-06,-4.50636e-05,-2.77051e-05,-0.00340929,45.8263,46.0708,-0.0224287,23.0475,46.0725,45.8246,-0.0224331,45.9715,213,12.9544,8.70251,0.5025,3133
-1.57679e-07,3.07898e-08,-2.90303e-06,-6.1037e-05,-2.60284e-05,-0.00338197,54.2627,54.8504,-0.132182,27.4919,54.8516,54.2616,-0.132206,54.6912,213,14.0683,9.15471,0.5025,3134
-1.21003e-07,7.94673e-08,-2.90897e-06,-5.00026e-05,-3.735e-05,-0.0033816,54.4677,54.6804,-0.0865994,27.3873,54.6881,54.46,-0.0865997,54.661,213,13.4938,7.58401,0.5025,3135
-1.83106e-07,6.84707e-08,-2.90339e-06,-6.53438e-05,-3.37617e-05,-0.00340794,39.5611,39.9465,0.116088,19.9166,39.9492,39.5585,0.116015,39.6393,213,14.5551,7.84426,0.5025,3136
-1.82224e-07,4.64236e-08,-2.90081e-06,-6.7414e-05,-2.82342e-05,-0.0033605,62.7228,63.4898,-0.414284,31.955,63.4956,62.717,-0.414296,63.5242,213,14.4825,8.56393,0.5025,3137
-2.3381e-07,6.2356e-08,-2.89697e-06,-7.79481e-05,-3.25839e-05,-0.0033699,53.8393,54.6022,-0.00333723,27.3063,54.6091,53.8325,-0.0034317,54.2284,213,15.2487,8.01601,0.5025,3138
1.56736e-07,3.02435e-08,-2.90672e-06,-5.9462e-05,-2.65688e-05,-0.00335991,63.1654,63.8103,-0.0473669,31.9291,63.8107,63.165,-0.0473719,63.5377,213,6.00343,9.16216,0.5025,3139
9.92924e-08,4.45924e-08,-2.91261e-06,-4.49125e-05,-2.84183e-05,-0.00338842,54.6847,54.9621,-0.0684324,27.5157,54.9631,54.6837,-0.0684361,54.8924,213,7.09584,8.67778,0.5025,3140
1.22945e-07,7.93204e-08,-2.91036e-06,-5.00647e-05,-3.73934e-05,-0.00334252,69.3131,69.5851,0.103065,34.7439,69.5908,69.3075,0.103052,69.3465,213,6.56448,7.5958,0.5025,3141
1.88084e-07,6.67123e-08,-2.90429e-06,-6.78468e-05,-3.33167e-05,-0.00337603,53.9893,54.57,-0.199092,27.3854,54.5717,53.9877,-0.199115,54.4811,213,5.47584,7.90586,0.5025,3142
2.38799e-07,6.03328e-08,-2.89654e-06,-8.10445e-05,-3.19225e-05,-0.00339923,39.3278,39.9274,0.204824,19.8624,39.9296,39.3257,0.204699,39.4264,213,4.7995,8.08113,0.5025,3143
1.82771e-07,4.60964e-08,-2.90386e-06,-6.78646e-05,-2.87615e-05,-0.00335741,62.7979,63.5634,-0.233508,31.8993,63.565,62.7964,-0.233564,63.4177,213,5.57971,8.57855,0.5025,3144
-8.39727e-10,1.85354e-08,-2.99384e-06,-2.91127e-05,-2.70253e-05,-0.00350383,10.3719,10.3782,-0.000351794,5.18928,10.3782,10.3719,-0.000353343,10.3754,213,10.0814,9.67452,0.525,3145
-1.58772e-07,-1.01085e-07,-2.98528e-06,-5.70528e-05,-4.14815e-05,-0.00348007,10.2294,10.2759,0.0114336,5.1326,10.2766,10.2287,0.0114326,10.2413,213,14.251,13.7254,0.525,3146
1.74545e-07,1.68014e-07,-2.98003e-06,-6.36223e-05,-5.99792e-05,-0.00346856,10.1668,10.1777,0.00280589,5.09073,10.1843,10.1602,0.00280583,10.1695,213,5.56294,5.69055,0.525,3147
1.80747e-07,-9.46103e-08,-2.984e-06,-6.62912e-05,-3.86296e-05,-0.00347691,10.1916,10.2742,0.010647,5.13214,10.2749,10.1909,0.0106456,10.2225,213,5.51519,13.5835,0.525,3148
-1.7269e-07,1.68101e-07,-2.98072e-06,-6.22008e-05,-6.00361e-05,-0.00346898,10.1741,10.1805,0.00458008,5.09098,10.1865,10.1681,0.00457995,10.1727,213,14.5361,5.68958,0.525,3149
7.80999e-10,-1.851e-07,-2.98124e-06,-2.55235e-05,-6.4381e-05,-0.00348702,10.3289,10.2129,-0.00394963,5.16643,10.3289,10.2129,-0.00394971,10.2753,213,10.0488,15.2034,0.525,3150
4.57336e-10,2.73902e-07,-2.97172e-06,-2.5001e-05,-8.66498e-05,-0.00347215,10.3086,10.1246,0.0185957,5.14501,10.3086,10.1246,0.0185927,10.1993,213,10.05,4.43898,0.525,3151
-3.22284e-07,1.22526e-08,-2.95995e-06,-9.14283e-05,-2.39751e-05,-0.0034712,10.1014,10.3028,0.0125406,5.14517,10.3029,10.1013,0.0125296,10.1911,213,15.964,9.83306,0.525,3152
3.17485e-07,1.42536e-08,-2.95876e-06,-0.000100961,-2.37478e-05,-0.00346937,10.0493,10.2798,-0.00566111,5.14282,10.28,10.0491,-0.00566231,10.1722,213,4.13654,9.75,0.525,3153
-3.66683e-07,-2.29894e-07,-2.95869e-06,-0.000120781,-7.48157e-05,-0.00341577,9.93527,10.0725,0.09947,4.9897,10.0789,9.9289,0.0994659,9.90527,213,16.8055,16.084,0.525,3154
-3.61388e-07,3.52296e-07,-2.95371e-06,-0.000112869,-0.000112571,-0.003416,9.8635,9.86439,0.00340251,4.94493,9.89326,9.83463,0.00340216,9.86067,213,16.8055,3.41598,0.525,3155
3.66495e-07,-2.28972e-07,-2.96021e-06,-0.000120804,-7.46828e-05,-0.00343179,9.88474,10.0224,0.00118889,5.01309,10.0274,9.87978,0.00118882,9.9532,213,3.29449,16.084,0.525,3156
3.61834e-07,3.52288e-07,-2.9538e-06,-0.000115273,-0.000112209,-0.00341513,9.85262,9.86177,0.00230813,4.94115,9.88461,9.82978,0.00230783,9.855,213,3.29449,3.41598,0.525,3157
-1.00996e-07,-1.05668e-08,-2.99001e-06,-4.56214e-05,-2.44493e-05,-0.0034962,10.3027,10.3659,0.0024109,5.18178,10.366,10.3026,0.00241082,10.332,213,13.0067,10.8337,0.525,3158
1.00125e-07,-1.11398e-08,-2.99178e-06,-4.42145e-05,-2.40201e-05,-0.00349822,10.3063,10.3666,-0.00419131,5.18542,10.3667,10.3062,-0.00419193,10.3408,213,7.09327,10.8337,0.525,3159
-9.16728e-08,-3.02174e-07,-2.98029e-06,-4.03655e-05,-0.00011471,-0.00345469,10.1804,9.95849,-0.0115895,5.0968,10.1818,9.95732,-0.0118087,10.0832,213,13.1683,16.6565,0.525,3160
9.19444e-08,4.03469e-07,-2.97313e-06,-4.05408e-05,-0.000127414,-0.00344453,10.1712,9.91192,0.0100697,5.08075,10.1716,9.91155,0.0100667,10.034,213,7.05697,3.22197,0.525,3161
8.57525e-08,-2.75584e-07,-2.98184e-06,-3.9262e-05,-9.87938e-05,-0.00346511,10.2046,10.0269,-0.0218034,5.1134,10.205,10.0265,-0.0218044,10.1387,213,7.1431,16.3818,0.525,3162
-9.17216e-08,4.05907e-07,-2.97274e-06,-3.90368e-05,-0.000132167,-0.00344004,10.1797,9.90168,0.0274355,5.0762,10.1798,9.90155,0.0274308,10.0162,213,13.0428,3.22155,0.525,3163
-4.01103e-08,1.04335e-07,-2.99158e-06,-3.05228e-05,-4.24232e-05,-0.00349518,10.3418,10.3063,-0.000415678,5.17115,10.3419,10.3062,-0.000415679,10.3245,213,11.4485,7.04177,0.525,3164
4.0946e-08,1.02995e-07,-2.9908e-06,-3.03235e-05,-4.29218e-05,-0.00349496,10.3422,10.3046,-3.05974e-05,5.17123,10.3424,10.3044,-3.10265e-05,10.3235,213,8.64136,7.06189,0.525,3165
4.44467e-07,9.64204e-08,-2.98522e-06,-0.000161571,-3.80298e-05,-0.00343007,9.75547,10.1243,-0.00123711,5.06277,10.1243,9.75546,-0.00123736,9.94625,213,2.86105,6.98653,0.525,3166
-4.45726e-07,-5.86382e-08,-2.99115e-06,-0.000165628,-3.00574e-05,-0.00342719,9.76491,10.1696,0.0289084,5.07079,10.1705,9.76404,0.0288976,9.94459,213,17.2389,12.556,0.525,3167
4.60059e-07,-5.91677e-08,-2.98266e-06,-0.000170138,-2.82564e-05,-0.00343349,9.72287,10.1464,-0.0184695,5.0826,10.1467,9.72262,-0.0185136,9.95994,213,2.80587,12.6089,0.525,3168
-4.39605e-07,9.9052e-08,-2.99163e-06,-0.000163781,-3.89784e-05,-0.00342576,9.75252,10.1251,0.015273,5.05546,10.1262,9.7515,0.0152397,9.92889,213,17.2389,6.94395,0.525,3169
-2.83306e-08,-5.89339e-08,-2.99295e-06,-2.88983e-05,-3.27639e-05,-0.00350164,10.362,10.3504,-0.00441886,5.18339,10.3624,10.35,-0.00441889,10.3606,213,11.0291,12.5109,0.525,3170
5.51952e-08,-8.6262e-08,-2.99079e-06,-3.24972e-05,-3.80837e-05,-0.00349337,10.3492,10.3325,0.0182052,5.16587,10.3499,10.3318,0.0182046,10.3227,213,8.20069,13.2829,0.525,3171
-1.39267e-07,5.19184e-08,-2.98543e-06,-5.51965e-05,-2.91165e-05,-0.00348901,10.2517,10.3296,0.00154477,5.16436,10.3303,10.251,0.00154476,10.2893,213,13.7888,8.39217,0.525,3172
1.41172e-07,5.17218e-08,-2.98762e-06,-5.5268e-05,-2.97838e-05,-0.00348916,10.2487,10.3248,-0.00174763,5.16339,10.325,10.2485,-0.00174769,10.2887,213,6.25605,8.40327,0.525,3173
5.85417e-10,6.05048e-07,-3.00295e-06,-1.63442e-05,-0.000117565,-0.00346692,10.2804,9.97829,-0.0197898,5.15025,10.2806,9.97827,-0.0199326,10.1527,213,10.05,2.12359,0.525,3174
-2.80055e-10,-4.06504e-07,-3.00344e-06,-1.53859e-05,-7.26023e-05,-0.00349389,10.3434,10.1726,-0.0402034,5.19187,10.3435,10.1725,-0.0402177,10.2993,213,10.05,17.3764,0.525,3175
-4.98687e-08,-1.23275e-07,-2.98831e-06,-3.1395e-05,-4.7623e-05,-0.00349002,10.3364,10.2879,0.012119,5.16226,10.3366,10.2877,0.0121179,10.3001,213,11.7753,14.1296,0.525,3176
-1.74099e-07,-3.59051e-07,-2.98465e-06,-6.32677e-05,-5.67676e-05,-0.00347416,10.1614,10.1808,-0.0203415,5.11031,10.2002,10.1421,-0.0204152,10.1917,213,14.8439,17.2547,0.525,3177
1.81089e-07,5.55284e-07,-2.9738e-06,-6.29967e-05,-0.000138976,-0.00341651,10.0852,9.85841,0.0747431,5.0076,10.0876,9.85832,0.0724171,9.90254,213,5.25123,2.284,0.525,3178
-1.81649e-07,5.33661e-07,-2.99186e-06,-6.35324e-05,-0.000141587,-0.00342939,10.0328,9.79978,-0.0145513,5.02444,10.0343,9.79831,-0.0145746,9.93298,213,14.8487,2.28395,0.525,3179
1.74222e-07,-3.54888e-07,-2.99078e-06,-6.3031e-05,-8.15663e-05,-0.00345434,10.1471,10.0917,0.0237557,5.07415,10.1719,10.067,0.0236409,10.0962,213,5.26149,17.2283,0.525,3180
6.16832e-07,3.18266e-08,-3.00967e-06,-0.000162762,-2.42432e-05,-0.00343858,9.76486,10.1784,-0.0137055,5.09621,10.1787,9.76468,-0.0137731,9.99187,213,2.01827,9.01995,0.525,3181
-6.11801e-07,-3.7922e-09,-3.00031e-06,-0.000185962,-2.17389e-05,-0.00339903,9.75541,10.2456,0.164159,5.04099,10.2459,9.75541,0.16389,9.84592,213,18.0655,10.5086,0.525,3182
2.12334e-07,-2.93028e-08,-2.9814e-06,-7.39642e-05,-2.56791e-05,-0.0034785,10.1804,10.3245,0.0176158,5.15354,10.3247,10.1802,0.0176096,10.2356,213,5.1753,11.5819,0.525,3183
-2.04951e-07,-2.98634e-08,-2.98161e-06,-7.00607e-05,-2.60843e-05,-0.00348325,10.1881,10.3194,-0.000532968,5.16032,10.3201,10.1874,-0.000533116,10.2549,213,14.8281,11.6002,0.525,3184
4.84908e-08,2.14306e-07,-2.9805e-06,-3.09928e-05,-7.37472e-05,-0.0034787,10.2919,10.1643,0.000210836,5.14598,10.2922,10.164,0.000210825,10.2285,213,8.32648,5.14147,0.525,3185
-4.86245e-08,2.13072e-07,-2.98164e-06,-3.01438e-05,-7.24835e-05,-0.00347962,10.2982,10.1718,0.00125062,5.14862,10.2985,10.1715,0.00125058,10.2343,213,11.77,5.13793,0.525,3186
6.73572e-07,-1.32834e-07,-3.00312e-06,-0.000190776,-3.72563e-05,-0.00341393,9.62931,10.0876,0.00795821,5.04002,10.0879,9.6291,0.00786242,9.85865,213,1.80645,14.4222,0.525,3187
-6.7494e-07,-1.31151e-07,-3.00098e-06,-0.000200058,-3.47995e-05,-0.00340826,9.59795,10.0913,0.0212369,5.03558,10.0923,9.59703,0.021151,9.83288,213,18.3168,14.3968,0.525,3188
6.65356e-07,1.94824e-07,-2.99761e-06,-0.000204559,-5.99381e-05,-0.00339682,9.52678,9.95848,-0.00235703,4.98096,9.95952,9.52578,-0.00239464,9.75228,213,1.78318,5.10924,0.525,3189
-6.64366e-07,1.9334e-07,-2.99742e-06,-0.000195345,-5.78518e-05,-0.00339898,9.58325,9.99368,0.0201482,4.98725,9.9946,9.58239,0.0200919,9.77492,213,18.3168,5.10316,0.525,3190
-6.62325e-08,3.82111e-08,-2.99206e-06,-3.49875e-05,-2.66727e-05,-0.0035009,10.3462,10.371,0.000140628,5.18557,10.3713,10.3459,0.000140626,10.3585,213,12.1535,8.94738,0.525,3191
6.4994e-08,3.60684e-08,-2.99297e-06,-3.39887e-05,-2.76916e-05,-0.00350129,10.3478,10.3666,-0.0023192,5.18456,10.3668,10.3476,-0.00232166,10.3595,213,7.96923,9.01775,0.525,3192
6.03061e-07,5.7555e-07,-3.00633e-06,-0.000208803,-0.000211878,-0.00331744,9.2705,9.26132,-0.00901727,4.66976,9.33039,9.20154,-0.00913016,9.27577,213,1.79521,1.92508,0.525,3193
6.06074e-07,-4.0385e-07,-3.00967e-06,-0.000238186,-0.000126446,-0.00334519,9.27254,9.60609,-0.00211312,4.80948,9.61683,9.26181,-0.0021208,9.44644,213,1.79521,17.5749,0.525,3194
-6.1007e-07,5.82682e-07,-3.01001e-06,-0.000202329,-0.000213307,-0.0033304,9.26474,9.23197,-0.0727884,4.67251,9.27197,9.22501,-0.0730594,9.32164,213,18.3048,1.92508,0.525,3195
-6.04012e-07,-3.98762e-07,-3.01231e-06,-0.000236123,-0.000128069,-0.00335717,9.24212,9.56466,-0.0744349,4.821,9.5673,9.23973,-0.0746921,9.48246,213,18.3048,17.5749,0.525,3196
3.01907e-08,-2.97521e-08,-2.9939e-06,-2.94257e-05,-2.62551e-05,-0.00350527,10.3679,10.3774,-0.00774724,5.19263,10.3775,10.3678,-0.0077504,10.3804,213,9.03367,11.5197,0.525,3197
-3.24601e-07,-1.1944e-07,-2.96893e-06,-0.000109617,-4.25683e-05,-0.00345411,9.98469,10.1848,0.00113543,5.09209,10.1853,9.98418,0.00113251,10.0851,213,16.234,14.2232,0.525,3198
3.23421e-07,-1.19323e-07,-2.97058e-06,-0.00010549,-4.3423e-05,-0.00345606,10.0012,10.1865,-0.000466964,5.09404,10.1876,10.0001,-0.000467044,10.0956,213,3.86597,14.2232,0.525,3199
3.16661e-07,1.86228e-07,-2.9641e-06,-0.000101818,-6.39875e-05,-0.00344641,9.98921,10.1021,0.00536302,5.04989,10.1051,9.98618,0.00536143,10.0408,213,3.86597,5.2768,0.525,3200
-3.17339e-07,1.86493e-07,-2.96525e-06,-0.000102714,-6.27127e-05,-0.00344457,9.99357,10.113,0.0178936,5.04886,10.1156,9.99095,0.0178921,10.036,213,16.234,5.2768,0.525,3201
-7.4904e-07,4.87254e-08,-2.98506e-06,-0.0003799,-2.8509e-05,-0.00331079,8.81978,9.86871,0.0708519,4.89909,9.86888,8.81976,0.0707053,9.31801,213,18.5677,8.37929,0.525,3202
7.60087e-07,-1.82914e-08,-3.00451e-06,-0.000401398,-2.38013e-05,-0.0033199,8.67347,9.80062,-0.0384697,4.91974,9.80082,8.67346,-0.0386554,9.32703,213,1.52042,11.1343,0.525,3203
-2.35715e-07,8.75055e-08,-2.97774e-06,-7.41563e-05,-3.89452e-05,-0.00347959,10.1337,10.2388,-0.0317682,5.13574,10.2397,10.1328,-0.0317786,10.2185,213,15.3361,7.3,0.525,3204
2.44555e-07,8.31359e-08,-2.97582e-06,-7.98708e-05,-3.7473e-05,-0.00347346,10.1226,10.2492,-0.00748754,5.12855,10.2496,10.1222,-0.00748786,10.194,213,4.69563,7.40844,0.525,3205
4.7339e-08,7.62047e-07,-3.00751e-06,-2.5469e-05,-0.000274443,-0.00337704,10.0118,9.26858,0.00710019,5.00266,10.0122,9.26836,0.0069031,9.6549,213,8.29761,1.62276,0.525,3206
-4.82588e-08,7.52692e-07,-3.00249e-06,-2.76768e-05,-0.000271048,-0.0033781,10.0056,9.27913,0.00435655,5.00103,10.0063,9.27854,0.00424173,9.65877,213,11.8024,1.62276,0.525,3207
-4.5048e-08,-5.18265e-07,-3.00271e-06,-2.1919e-05,-0.000193989,-0.00342933,10.123,9.60932,-0.0484117,5.08579,10.1231,9.60921,-0.0484448,9.92461,213,11.9444,17.8726,0.525,3208
4.36028e-08,-5.08192e-07,-3.005e-06,-2.42527e-05,-0.000165763,-0.00343787,10.171,9.7486,-0.0188917,5.09589,10.1726,9.74728,-0.0191746,9.98591,213,8.21497,17.8638,0.525,3209
-1.83103e-07,-1.95564e-07,-2.97071e-06,-6.58372e-05,-6.68793e-05,-0.00345522,10.1736,10.1705,0.056023,5.06653,10.1891,10.155,0.0560173,10.1161,213,14.7466,15.5038,0.525,3210
1.86788e-07,-1.87784e-07,-2.97085e-06,-6.63177e-05,-6.91824e-05,-0.00346381,10.1361,10.1275,-0.00567769,5.07662,10.1476,10.116,-0.00567798,10.1375,213,5.31946,15.358,0.525,3211
1.85381e-07,2.91091e-07,-2.96687e-06,-6.53251e-05,-9.70925e-05,-0.00344848,10.1023,10.0075,0.00331568,5.05097,10.1053,10.0045,0.00331555,10.052,213,5.2873,4.12494,0.525,3212
-1.85367e-07,2.91998e-07,-2.96176e-06,-6.44049e-05,-9.86892e-05,-0.00344759,10.1057,10.0034,0.00665868,5.05109,10.1088,10.0003,0.0066581,10.0483,213,14.8124,4.1247,0.525,3213
4.68056e-08,-1.65588e-07,-2.98214e-06,-2.93991e-05,-6.07808e-05,-0.00348548,10.3213,10.2276,0.00464785,5.15858,10.3218,10.2271,0.00464661,10.2701,213,8.37419,14.9304,0.525,3214
5.93951e-10,6.8318e-08,-2.99288e-06,-2.85406e-05,-3.23396e-05,-0.00350155,10.3658,10.3545,-0.00137391,5.18359,10.3658,10.3545,-0.00137407,10.3615,213,10.049,7.98216,0.525,3215
5.71721e-11,1.5027e-07,-2.98797e-06,-2.70057e-05,-5.65198e-05,-0.00348938,10.3372,10.2491,0.00177364,5.16771,10.3372,10.2491,0.00177362,10.2917,213,10.0475,6.13403,0.525,3216
-9.26563e-08,-5.73037e-08,-2.99078e-06,-4.1577e-05,-3.15016e-05,-0.00349515,10.3085,10.3386,-0.000634182,5.16985,10.3391,10.308,-0.000634519,10.3242,213,12.8577,12.4858,0.525,3217
-3.15454e-07,6.70744e-07,-2.99773e-06,-8.04068e-05,-0.000196584,-0.00338133,9.90688,9.56008,0.0533729,4.92894,9.91107,9.55607,0.0531947,9.68526,213,16.5298,1.69917,0.525,3218
-2.98093e-07,-4.57251e-07,-2.99389e-06,-8.45893e-05,-9.26266e-05,-0.003431,10.0533,10.0293,0.0640112,5.01757,10.0991,9.98359,0.0639403,9.9779,213,16.5298,17.8008,0.525,3219
3.16303e-07,6.62541e-07,-2.99945e-06,-8.03349e-05,-0.000255882,-0.0033562,9.79895,9.27493,0.0202473,4.89236,9.80488,9.26907,0.0201713,9.52811,213,3.57022,1.69917,0.525,3220
2.961e-07,-4.46833e-07,-2.99492e-06,-8.68941e-05,-0.000123504,-0.0034183,9.98147,9.87218,0.0369771,4.99588,10.0285,9.82536,0.0367516,9.89175,213,3.57022,17.8008,0.525,3221
-3.86842e-08,-1.17182e-08,-2.99364e-06,-3.05818e-05,-2.52696e-05,-0.00350435,10.3668,10.3827,-0.00262906,5.19273,10.3828,10.3667,-0.00263204,10.3774,213,11.3305,10.8317,0.525,3222
-4.40226e-08,-2.49117e-07,-2.98297e-06,-2.92507e-05,-8.27577e-05,-0.00347452,10.2873,10.1276,0.00291658,5.14229,10.2875,10.1274,0.0029129,10.2055,213,11.694,16.053,0.525,3223
3.24543e-08,3.98034e-07,-2.9709e-06,-2.7089e-05,-0.000126067,-0.00344507,10.2566,9.96117,0.053687,5.10151,10.2567,9.96106,0.0536862,10.0585,213,8.79125,3.30162,0.525,3224
-3.31538e-08,4.01271e-07,-2.97049e-06,-2.77796e-05,-0.000131135,-0.0034398,10.253,9.94449,0.0678701,5.09257,10.253,9.94449,0.0678668,10.0344,213,11.3082,3.30105,0.525,3225
8.96428e-08,-5.85396e-07,-2.99411e-06,-3.37003e-05,-0.000262054,-0.00338335,9.98037,9.29872,-0.0185888,4.99994,9.98109,9.2982,-0.0187887,9.67652,213,6.66755,18.0948,0.525,3226
-9.57392e-08,-5.99553e-07,-3.00082e-06,-2.11182e-05,-0.00031141,-0.00338692,9.89,9.02345,-0.157159,5.0266,9.89303,9.02344,-0.160178,9.64785,213,13.4877,18.1567,0.525,3227
1.0992e-07,8.30864e-07,-2.9949e-06,-3.39781e-05,-0.000348703,-0.00333685,9.85132,8.91184,-0.00801285,4.92968,9.85134,8.91183,-0.00802093,9.42479,213,6.6648,1.42575,0.525,3228
-1.04508e-07,8.36657e-07,-2.98085e-06,-3.60833e-05,-0.00035282,-0.00332659,9.85786,8.91238,0.0354521,4.91128,9.85796,8.91233,0.0354076,9.38553,213,13.4351,1.42565,0.525,3229
1.11622e-07,-5.59034e-08,-2.99049e-06,-4.67899e-05,-3.05644e-05,-0.00349299,10.2863,10.3347,-0.00089139,5.16797,10.335,10.286,-0.000894494,10.3115,213,6.81125,12.4443,0.525,3230
-1.73039e-07,1.29451e-08,-2.97895e-06,-6.54672e-05,-2.34991e-05,-0.00348648,10.2143,10.3396,0.00237238,5.16863,10.3396,10.2143,0.00237237,10.2752,213,14.2936,9.86615,0.525,3231
1.73039e-07,1.11302e-08,-2.98313e-06,-6.39552e-05,-2.34384e-05,-0.00348634,10.2243,10.3452,0.00821106,5.1685,10.3452,10.2243,0.00820908,10.2771,213,5.75081,9.92104,0.525,3232
-1.05597e-07,1.14057e-07,-2.9878e-06,-4.46284e-05,-4.50916e-05,-0.00348659,10.2738,10.2724,-0.000737058,5.14035,10.28,10.2662,-0.000737077,10.2738,213,13.2057,6.76702,0.525,3233
1.0663e-07,1.12762e-07,-2.98847e-06,-4.43372e-05,-4.48672e-05,-0.00348683,10.2755,10.2739,-0.000584032,5.14066,10.2807,10.2687,-0.000584299,10.2753,213,6.8777,6.79768,0.525,3234
8.85385e-07,1.00694e-07,-2.96232e-06,-0.000386715,-3.88279e-05,-0.0033091,8.75047,9.78894,0.0269409,4.88129,9.78947,8.74999,0.0268936,9.28657,213,1.2925,6.95314,0.525,3235
-8.93292e-07,-6.0024e-08,-2.95604e-06,-0.000392313,-3.57413e-05,-0.00331422,8.70954,9.77394,-0.0125673,4.89363,9.77434,8.7095,-0.0129257,9.30068,213,18.8042,12.5623,0.525,3236
9.37255e-07,-6.46627e-08,-2.96153e-06,-0.000470848,-3.38641e-05,-0.00327219,8.36529,9.66972,0.00307759,4.8335,9.67,8.36509,0.00300278,9.0851,213,1.19679,12.6951,0.525,3237
-9.21572e-07,1.07552e-07,-2.94484e-06,-0.000439667,-4.27412e-05,-0.0032921,8.46597,9.65082,-0.0487543,4.84994,9.65107,8.46577,-0.0488088,9.1649,213,18.9047,6.81528,0.525,3238
3.314e-08,-2.78591e-07,-2.97967e-06,-2.57753e-05,-9.83662e-05,-0.00345869,10.3094,10.0927,0.0618861,5.1238,10.3095,10.0926,0.061883,10.1409,213,8.76622,16.3512,0.525,3239
8.08297e-07,-2.41917e-07,-2.97072e-06,-0.000299688,-6.61983e-05,-0.0033412,9.09765,9.79464,0.0185233,4.88819,9.79484,9.09753,0.0184476,9.44706,213,1.41256,16.0564,0.525,3240
-8.0893e-07,-2.41659e-07,-2.97203e-06,-0.000296134,-6.78473e-05,-0.00334517,9.10171,9.78316,0.000113031,4.89204,9.78408,9.10089,4.05813e-06,9.461,213,18.6887,16.0551,0.525,3241
-7.75341e-07,3.42925e-07,-2.97679e-06,-0.000335459,-9.14283e-05,-0.00331309,8.88656,9.61501,-0.00187908,4.80869,9.61535,8.88636,-0.00201785,9.27439,213,18.6887,3.44488,0.525,3242
7.83657e-07,3.42908e-07,-2.97284e-06,-0.000322879,-9.7699e-05,-0.00331473,8.93891,9.61109,0.00802747,4.8016,9.61122,8.93879,0.00801378,9.28527,213,1.41135,3.4452,0.525,3243
8.71333e-09,-9.92104e-08,-2.99039e-06,-2.76492e-05,-4.15463e-05,-0.00349469,10.3639,10.3224,0.0144773,5.17471,10.3639,10.3224,0.0144772,10.3287,213,9.74867,13.5792,0.525,3244
-3.94689e-07,4.78618e-08,-2.98941e-06,-0.000114859,-2.79215e-05,-0.00348574,9.89856,10.1581,-0.163753,5.16329,10.1622,9.89505,-0.164357,10.1956,213,16.824,8.44825,0.525,3245
3.9789e-07,-1.99441e-08,-2.97413e-06,-0.000113109,-2.2549e-05,-0.00346732,9.98479,10.2551,-0.0277654,5.1423,10.2568,9.98312,-0.0277994,10.1505,213,3.32453,11.1543,0.525,3246
-3.52279e-07,-2.27678e-08,-2.98137e-06,-0.000101283,-2.37813e-05,-0.00347331,10.0347,10.266,-0.031068,5.14992,10.2688,10.0319,-0.0310689,10.1835,213,16.4448,11.2795,0.525,3247
3.75614e-07,5.05921e-08,-2.97362e-06,-0.000118078,-2.84714e-05,-0.0034578,9.96559,10.2331,-0.00373417,5.11928,10.2348,9.96388,-0.00373547,10.1058,213,3.47973,8.35565,0.525,3248
1.04315e-07,-1.37256e-07,-2.98391e-06,-4.54043e-05,-5.03169e-05,-0.0034843,10.2597,10.245,-0.00568522,5.13408,10.2625,10.2422,-0.00569092,10.2581,213,6.86584,14.4853,0.525,3249
-2.78267e-07,-6.70606e-08,-2.9795e-06,-9.24262e-05,-3.36874e-05,-0.00346782,10.0752,10.2506,-0.000582804,5.12561,10.2506,10.0752,-0.00059652,10.1646,213,15.8093,12.8307,0.525,3250
2.88146e-07,-6.35882e-08,-2.97586e-06,-9.50979e-05,-3.2937e-05,-0.00346784,10.0611,10.2466,-0.0068305,5.12672,10.2466,10.0611,-0.00683126,10.162,213,4.23485,12.7577,0.525,3251
-1.10408e-07,2.299e-07,-2.97802e-06,-4.64978e-05,-7.92451e-05,-0.00346784,10.2134,10.1157,0.000466244,5.10658,10.2136,10.1155,0.000465738,10.1644,213,13.4072,4.86033,0.525,3252
1.09827e-07,2.31226e-07,-2.9775e-06,-4.48488e-05,-7.88004e-05,-0.00346898,10.2214,10.12,6.86577e-05,5.11121,10.2225,10.1189,6.8653e-05,10.171,213,6.69222,4.86036,0.525,3253
-9.70441e-08,-1.81585e-07,-2.98156e-06,-4.19025e-05,-6.48217e-05,-0.00347884,10.2526,10.1841,-0.00696197,5.13047,10.254,10.1827,-0.00697034,10.2255,213,13.127,15.2137,0.525,3254
-1.01627e-06,9.77784e-07,-2.88288e-06,-0.000588505,-0.000568279,-0.00292445,7.04883,7.10921,0.0758532,3.54384,7.16352,6.99454,0.075838,7.00472,213,19.2648,0.968771,0.525,3255
9.82088e-07,-7.46698e-07,-2.9079e-06,-0.00061258,-0.000479745,-0.00296639,7.0484,7.44492,0.0220949,3.72642,7.47492,7.01843,0.02207,7.23541,213,0.835166,18.5312,0.525,3256
-9.81443e-07,-7.46659e-07,-2.90847e-06,-0.00058943,-0.00047792,-0.0029725,7.17732,7.51019,0.0636683,3.74571,7.55507,7.13246,0.0636434,7.28932,213,19.2648,18.5312,0.525,3257
1.01768e-06,9.77924e-07,-2.90469e-06,-0.000621523,-0.000592327,-0.00290694,6.82482,6.91197,0.00267179,3.45962,6.92185,6.815,0.00261253,6.86644,213,0.835166,0.968771,0.525,3258
-2.34341e-07,4.05034e-08,-2.97118e-06,-8.14352e-05,-2.78109e-05,-0.00346445,10.1722,10.3323,0.0736688,5.13014,10.3339,10.1707,0.0736015,10.1797,213,15.1701,8.74407,0.525,3259
2.34105e-07,4.0352e-08,-2.97353e-06,-8.2326e-05,-2.79631e-05,-0.00347467,10.1338,10.2961,0.00741573,5.14463,10.2967,10.1332,0.00741362,10.2085,213,4.90336,8.75383,0.525,3260
7.87324e-07,1.41005e-06,-2.80885e-06,-0.000400924,-0.00114054,-0.00275215,6.93518,4.72738,-0.0834114,3.50997,6.93636,4.72636,-0.0835795,6.21688,213,1.29031,0.484385,0.525,3261
1.39566e-06,1.36737e-06,-2.588e-06,-0.00111295,-0.00108844,-0.00239281,3.85638,3.92955,0.0359159,2.02714,4.09002,3.69609,0.0357371,3.87237,213,0.367583,0.484385,0.525,3262
1.47282e-06,7.51834e-07,-2.77641e-06,-0.00121311,-0.000362391,-0.0027357,4.45496,6.99442,-0.0900983,3.54322,6.99624,4.45325,-0.0902094,6.21802,213,0.367583,1.45939,0.525,3263
-7.87292e-07,1.40003e-06,-2.79219e-06,-0.000368633,-0.00115885,-0.00275856,7.0556,4.69675,-0.0785121,3.56772,7.05624,4.6968,-0.0792052,6.2965,213,18.8097,0.484385,0.525,3264
-1.37056e-06,1.34584e-06,-2.59263e-06,-0.00108426,-0.00106723,-0.00241809,4.02013,4.07095,0.038549,2.12832,4.29502,3.79624,0.0383701,4.03047,213,19.7324,0.484385,0.525,3265
-1.46408e-06,7.51505e-07,-2.76189e-06,-0.00122857,-0.000335967,-0.00273733,4.43846,7.10294,-0.0653044,3.58552,7.10516,4.43681,-0.065877,6.27766,213,19.7324,1.45939,0.525,3266
1.46099e-06,-5.80366e-07,-2.76526e-06,-0.00118555,-0.000285657,-0.00278625,4.70769,7.39394,-0.070515,3.73461,7.39862,4.70309,-0.0705998,6.55146,213,0.367583,18.0406,0.525,3267
1.31103e-06,-1.10849e-06,-2.70627e-06,-0.00110357,-0.00101374,-0.0024409,3.99849,4.26665,0.0064613,2.2089,4.42422,3.84096,0.00641832,4.15698,213,0.367583,19.0156,0.525,3268
7.24301e-07,-1.13608e-06,-2.87797e-06,-0.00037605,-0.00110097,-0.00278886,7.09739,4.93344,-0.105038,3.60534,7.10549,4.92547,-0.105176,6.40522,213,1.29031,19.0156,0.525,3269
-1.45748e-06,-5.76994e-07,-2.76557e-06,-0.00121793,-0.000264965,-0.00278262,4.58551,7.43017,-0.0852243,3.75979,7.43387,4.5823,-0.0857094,6.57517,213,19.7324,18.0406,0.525,3270
-1.30272e-06,-1.10148e-06,-2.7111e-06,-0.00109073,-0.00101113,-0.00244899,4.06019,4.29781,0.00567656,2.23818,4.48199,3.87605,0.00563139,4.20625,213,19.7324,19.0156,0.525,3271
-7.2674e-07,-1.12507e-06,-2.87942e-06,-0.00035696,-0.00110836,-0.00279193,7.18178,4.9388,-0.0867876,3.63644,7.18545,4.93577,-0.0874255,6.44935,213,18.8097,19.0156,0.525,3272
3.23149e-07,1.16748e-06,-2.85979e-06,-8.36717e-05,-0.000938169,-0.00300677,8.7227,6.17196,-0.00297004,4.36328,8.72316,6.17194,-0.00341026,7.77164,213,3.58056,0.849583,0.525,3273
4.21354e-07,1.12564e-06,-2.87846e-06,-0.000150291,-0.000908189,-0.0029962,8.44116,6.17878,-0.0540938,4.24814,8.44213,6.17788,-0.054162,7.62076,213,2.65784,0.849583,0.525,3274
4.30176e-07,6.25927e-07,-2.98742e-06,-0.000159149,-0.000233333,-0.00333543,9.45109,9.22965,-0.0303567,4.74763,9.4649,9.21585,-0.0303626,9.37322,213,2.68271,1.81212,0.525,3275
6.02306e-07,1.0426e-06,-2.92963e-06,-0.000248299,-0.000792367,-0.00299487,8.20933,6.58524,0.0106203,4.10026,8.21076,6.58418,0.0102475,7.52033,213,1.77033,0.962542,0.525,3276
7.59026e-07,7.32687e-07,-2.99655e-06,-0.000413485,-0.0004084,-0.00310434,8.06291,8.07809,0.0305021,4.04331,8.11704,8.02405,0.0304167,8.04053,213,1.31519,1.44693,0.525,3277
2.40387e-07,1.207e-06,-2.86862e-06,-8.47572e-05,-0.000870463,-0.00313978,8.5089,6.16351,-0.610571,4.66909,8.6191,6.16182,-0.719084,8.38412,213,4.50329,0.849583,0.525,3278
1.01071e-07,1.31161e-06,-2.85609e-06,-3.75754e-05,-0.00106234,-0.00297072,8.72702,5.66801,-0.028624,4.37947,8.73017,5.66501,-0.0287753,7.69849,213,6.97331,0.712873,0.525,3279
1.26866e-07,1.31544e-06,-2.85008e-06,-3.96224e-05,-0.00100532,-0.00302259,8.73074,5.84806,-0.173651,4.4527,8.7313,5.84796,-0.174107,7.87036,213,6.05058,0.712873,0.525,3280
2.42603e-07,6.06197e-07,-2.99845e-06,-8.04247e-05,-0.000193677,-0.00337426,9.93842,9.60035,0.106076,4.93532,9.95761,9.60028,0.0869641,9.69692,213,4.41072,1.99158,0.525,3281
1.73115e-07,9.7849e-07,-2.94684e-06,-7.31924e-05,-0.000737915,-0.00307013,9.22139,7.23714,0.275297,4.47474,9.22311,7.23708,0.27364,8.14023,213,5.3438,1.142,0.525,3282
1.39523e-07,6.66742e-07,-2.99213e-06,-4.84482e-05,-0.000253184,-0.00337451,9.94577,9.33461,0.0172367,4.96806,9.9531,9.32752,0.0169919,9.63856,213,5.95801,1.85487,0.525,3283
3.84898e-08,1.2494e-06,-2.87418e-06,-2.37414e-05,-0.000946893,-0.00303824,8.96419,6.20852,-0.0343118,4.50015,8.9659,6.20689,-0.0343934,7.98658,213,8.71244,0.811382,0.525,3284
6.29314e-08,1.24693e-06,-2.87595e-06,-3.70032e-05,-0.000997154,-0.00300235,8.83696,5.97084,-0.014823,4.42747,8.84005,5.96781,-0.0148914,7.82472,213,7.78971,0.811382,0.525,3285
7.45243e-08,7.93028e-07,-3.00129e-06,-3.84347e-05,-0.000296744,-0.00335854,9.9199,9.14883,0.00914735,4.95554,9.92011,9.14875,0.00902182,9.5488,213,7.4812,1.52425,0.525,3286
-5.2783e-09,1.06277e-06,-2.93482e-06,-2.00962e-05,-0.000816297,-0.00310253,9.19694,6.82022,-0.00435149,4.60203,9.19964,6.81758,-0.004413,8.27431,213,10.5114,1.06179,0.525,3287
5.33437e-09,1.06406e-06,-2.93041e-06,-2.01527e-05,-0.000808986,-0.00310594,9.20897,6.85424,-0.00233523,4.60706,9.21172,6.85155,-0.00239963,8.28997,213,9.58864,1.06179,0.525,3288
2.35405e-08,6.73511e-07,-3.00763e-06,-2.89017e-05,-0.000204727,-0.00341858,10.08,9.55517,-0.0384099,5.06052,10.0825,9.55289,-0.0385832,9.86692,213,9.1738,1.87317,0.525,3289
-6.49448e-08,1.24802e-06,-2.8758e-06,-3.29757e-05,-0.00100202,-0.00300128,8.84972,5.95704,-0.0108862,4.43088,8.85081,5.95601,-0.0109459,7.82672,213,12.3103,0.811382,0.525,3290
-3.8014e-08,1.24808e-06,-2.87856e-06,-2.83242e-05,-0.000951141,-0.00303367,8.93699,6.18231,-0.0342049,4.48589,8.9375,6.18188,-0.0342789,7.96011,213,11.3876,0.811382,0.525,3291
-2.42076e-08,6.76484e-07,-3.00453e-06,-2.99957e-05,-0.000194933,-0.00342197,10.0936,9.60123,-0.0317192,5.06382,10.0958,9.59925,-0.0318919,9.88875,213,10.9262,1.87317,0.525,3292
-1.2849e-07,1.30659e-06,-2.85899e-06,-3.83582e-05,-0.00101525,-0.00301024,8.74618,5.83008,-0.125118,4.43619,8.74703,5.82946,-0.125355,7.83235,213,14.0494,0.712826,0.525,3293
-9.49894e-08,1.33064e-06,-2.84924e-06,-4.1643e-05,-0.00106359,-0.00296641,8.71168,5.6611,-0.0189814,4.36595,8.71287,5.65994,-0.0190198,7.67519,213,13.1267,0.712826,0.525,3294
-7.38738e-08,7.84411e-07,-2.99434e-06,-3.46971e-05,-0.000305729,-0.00335529,9.92472,9.11567,0.0124944,4.95641,9.92523,9.11525,0.0124044,9.53368,213,12.6188,1.52421,0.525,3295
-3.24476e-07,1.13811e-06,-2.86682e-06,-8.3439e-05,-0.000961673,-0.00299471,8.68784,6.06624,-0.00252694,4.34588,8.68894,6.06544,-0.00282408,7.72183,213,16.5194,0.849583,0.525,3296
-2.39254e-07,1.20256e-06,-2.8709e-06,-8.91293e-05,-0.000822865,-0.00306365,8.87439,6.68414,-0.00478741,4.44254,8.88026,6.67831,-0.00481926,8.01428,213,15.5967,0.849583,0.525,3297
-2.40986e-07,6.01946e-07,-2.99766e-06,-8.05106e-05,-0.00022027,-0.00338378,9.82334,9.40615,-0.0371678,4.93027,9.82337,9.40612,-0.0371692,9.65868,213,15.6893,1.99156,0.525,3298
-1.74559e-07,1.00452e-06,-2.93989e-06,-6.96779e-05,-0.000744661,-0.00310036,9.12577,7.1109,0.0789686,4.52345,9.12586,7.11082,0.0789569,8.2266,213,14.7562,1.14198,0.525,3299
-1.37871e-07,6.54694e-07,-2.99906e-06,-5.18081e-05,-0.000246519,-0.00338595,9.90991,9.32869,-0.042753,4.9854,9.92778,9.31108,-0.043016,9.6772,213,14.1419,1.8548,0.525,3300
-4.18785e-07,1.13254e-06,-2.88617e-06,-0.000144022,-0.00088763,-0.00301022,8.5005,6.28077,-0.0553113,4.27838,8.50129,6.28013,-0.0554663,7.69063,213,17.4422,0.849583,0.525,3301
-4.30574e-07,6.26572e-07,-2.98223e-06,-0.000163509,-0.000238328,-0.00333194,9.41951,9.19617,-0.0384829,4.73602,9.43355,9.18213,-0.0384887,9.34887,213,17.4173,1.81212,0.525,3302
-6.02708e-07,1.03711e-06,-2.93436e-06,-0.000256397,-0.00077566,-0.00299052,8.22625,6.67622,0.064702,4.08174,8.22814,6.67437,0.0646575,7.50816,213,18.3297,0.962542,0.525,3303
-7.65161e-07,7.39214e-07,-3.00486e-06,-0.000402486,-0.00040363,-0.00313443,8.05033,8.04692,-0.104727,4.09958,8.09373,8.00421,-0.10542,8.15476,213,18.7848,1.44693,0.525,3304
1.26609e-06,-2.31743e-07,-2.83003e-06,-0.000970948,-7.21887e-05,-0.00299694,6.03774,8.7206,-0.0100104,4.36661,8.72313,6.0353,-0.0100971,7.74727,213,0.656279,15.8282,0.525,3305
1.25532e-06,-3.18251e-07,-2.82785e-06,-0.000975705,-0.000116758,-0.00298144,5.91627,8.48029,-0.0710022,4.27586,8.48067,5.91593,-0.0710444,7.60111,213,0.656279,16.8032,0.525,3306
7.01682e-07,-3.05119e-07,-2.9884e-06,-0.000290041,-0.000108223,-0.0033333,9.04882,9.59155,-0.0355327,4.81937,9.60319,9.0372,-0.0355525,9.36858,213,1.60388,16.8157,0.525,3307
1.08878e-06,-4.25228e-07,-2.89194e-06,-0.00083228,-0.000176599,-0.00300621,6.53094,8.4882,0.0415991,4.22337,8.48827,6.53094,0.0415324,7.65803,213,0.847604,17.5625,0.525,3308
7.55319e-07,-5.27182e-07,-2.98537e-06,-0.000435673,-0.000296671,-0.00315009,8.13558,8.55051,0.0328402,4.2597,8.55215,8.13404,0.0327434,8.31823,213,1.31519,18.0531,0.525,3309
1.16033e-06,-1.28266e-07,-2.88657e-06,-0.000885474,-3.96319e-05,-0.00305673,6.47762,9.00252,-0.00374015,4.504,9.00418,6.47603,-0.00381035,8.04748,213,0.853224,14.0361,0.525,3310
1.13734e-06,-1.65549e-07,-2.88314e-06,-0.000889913,-5.18075e-05,-0.00304805,6.43919,8.941,-0.0030163,4.4742,8.94529,6.43498,-0.00310162,7.99451,213,0.853224,15.0111,0.525,3311
7.27817e-07,-1.79141e-07,-2.98842e-06,-0.000250185,-6.6322e-05,-0.00337269,9.30216,9.85101,-0.0187387,4.93616,9.85344,9.29988,-0.0188839,9.60751,213,1.6095,15.2393,0.525,3312
1.44148e-06,-5.57552e-08,-2.80992e-06,-0.00106173,-3.07797e-05,-0.00297737,5.67222,8.74969,-0.0461123,4.39834,8.75048,5.67153,-0.0462077,7.73156,213,0.548396,12.1975,0.525,3313
1.43157e-06,-8.38432e-08,-2.80238e-06,-0.00109983,-3.4379e-05,-0.00295405,5.50024,8.68068,-0.034748,4.35827,8.68172,5.49928,-0.034829,7.63978,213,0.548396,13.1725,0.525,3314
7.84221e-07,-9.79056e-08,-2.98821e-06,-0.0003139,-4.45399e-05,-0.00334958,9.05225,9.85631,-0.00948164,4.93404,9.85849,9.05019,-0.00960086,9.48979,213,1.50162,13.5586,0.525,3315
1.35165e-06,-2.24003e-09,-2.82349e-06,-0.000991489,-2.48651e-05,-0.00300883,6.02368,8.90912,0.00177112,4.45374,8.90919,6.02367,0.00171155,7.87189,213,0.710212,10.4421,0.525,3316
1.31541e-06,-2.91952e-08,-2.84406e-06,-0.000966811,-3.06853e-05,-0.00301881,6.12549,8.91989,0.000111715,4.46109,8.92214,6.12339,-3.59615e-05,7.90362,213,0.710212,11.4171,0.525,3317
8.43781e-07,-4.04289e-08,-2.98546e-06,-0.000436326,-2.90078e-05,-0.00329632,8.51669,9.73256,-0.0206122,4.87744,9.73405,8.51543,-0.0208357,9.20626,213,1.35861,11.9147,0.525,3318
1.10244e-06,4.99427e-08,-2.90787e-06,-0.000817655,-2.91655e-05,-0.00309575,6.8046,9.1583,0.00431604,4.57769,9.15962,6.80335,0.00424447,8.2341,213,0.959135,8.40997,0.525,3319
1.11645e-06,2.42595e-08,-2.9015e-06,-0.000829849,-2.46725e-05,-0.0030931,6.75218,9.15569,-0.00379614,4.5798,9.15575,6.75216,-0.00384235,8.22554,213,0.959135,9.38497,0.525,3320
6.7073e-07,6.21393e-09,-3.01559e-06,-0.000271452,-2.37898e-05,-0.00338176,9.27734,10.0166,-0.00716872,5.01199,10.0167,9.2773,-0.00725896,9.67549,213,1.76935,10.0771,0.525,3321
1.35762e-06,1.23691e-07,-2.82568e-06,-0.00105812,-4.14572e-05,-0.00297423,5.67059,8.7054,-0.0491339,4.37821,8.70717,5.66893,-0.0492465,7.70076,213,0.59625,6.40157,0.525,3322
1.38068e-06,8.73674e-08,-2.82323e-06,-0.00102185,-3.91387e-05,-0.00299523,5.8346,8.76808,-0.0560634,4.41233,8.76849,5.83428,-0.0561599,7.784,213,0.59625,7.37657,0.525,3323
7.21225e-07,6.17792e-08,-3.0009e-06,-0.000279964,-3.31565e-05,-0.00337376,9.22062,9.95736,-0.0145777,4.98761,9.96054,9.21755,-0.0146887,9.62527,213,1.65539,7.98654,0.525,3324
1.13433e-06,2.40792e-07,-2.87278e-06,-0.000888347,-7.12658e-05,-0.00303649,6.4238,8.86285,0.0114384,4.42679,8.86499,6.42167,0.0114211,7.91981,213,0.841591,4.50462,0.525,3325
1.1466e-06,1.82863e-07,-2.88301e-06,-0.000885422,-6.17231e-05,-0.00304628,6.44103,8.89983,-0.00927866,4.45542,8.90149,6.43945,-0.00935495,7.97031,213,0.841591,5.47962,0.525,3326
7.67157e-07,1.41117e-07,-2.97874e-06,-0.000286908,-5.35692e-05,-0.00335965,9.15786,9.8544,-0.0144994,4.93635,9.85807,9.15433,-0.0146383,9.54032,213,1.53784,6.03119,0.525,3327
1.2592e-06,4.40217e-07,-2.81894e-06,-0.000964687,-0.000159737,-0.00295738,5.92409,8.32692,-0.0242587,4.17561,8.32694,5.92409,-0.0242752,7.44646,213,0.655674,2.6976,0.525,3328
1.25785e-06,3.21349e-07,-2.81891e-06,-0.000972215,-9.05252e-05,-0.00298865,5.9981,8.63001,-0.0211053,4.32574,8.63034,5.99781,-0.021139,7.68134,213,0.655674,3.6726,0.525,3329
7.12469e-07,2.58176e-07,-2.99116e-06,-0.0002712,-8.97376e-05,-0.00334814,9.17635,9.71803,-0.0085526,4.8634,9.71824,9.17615,-0.00856412,9.46741,213,1.59726,4.27722,0.525,3330
6.87349e-07,4.35311e-07,-2.98406e-06,-0.000279539,-0.000150263,-0.00331444,9.03995,9.42585,-0.0194481,4.7323,9.44513,9.02069,-0.0194646,9.25967,213,1.60328,2.68514,0.525,3331
1.06187e-06,5.78051e-07,-2.90671e-06,-0.000842646,-0.000227273,-0.00297556,6.40362,8.24056,0.0367277,4.10245,8.24153,6.40276,0.0366203,7.45752,213,0.847604,1.93754,0.525,3332
-1.25826e-06,3.22479e-07,-2.81975e-06,-0.000983011,-8.87174e-05,-0.00298148,5.96009,8.62962,-0.00550024,4.31823,8.63086,5.95895,-0.0055996,7.65844,213,19.4443,3.67244,0.525,3333
-1.26411e-06,4.37225e-07,-2.82143e-06,-0.000979044,-0.000156106,-0.00294745,5.87872,8.33525,0.00287381,4.1663,8.3354,5.87865,0.00279476,7.41598,213,19.4443,2.69744,0.525,3334
-6.85322e-07,4.35578e-07,-2.98832e-06,-0.000271427,-0.000153474,-0.00331912,9.06485,9.41695,-0.0327502,4.73469,9.43657,9.04529,-0.0328141,9.27993,213,18.4967,2.68498,0.525,3335
-1.05644e-06,5.77118e-07,-2.91501e-06,-0.000832983,-0.000239334,-0.00297927,6.41308,8.18517,0.00625067,4.0906,8.1874,6.41089,0.00620836,7.45345,213,19.2524,1.93754,0.525,3336
-1.15069e-06,1.81801e-07,-2.87458e-06,-0.000882947,-5.77397e-05,-0.00304356,6.47751,8.94082,0.0279197,4.45715,8.94222,6.47612,0.0279164,7.97263,213,19.2584,5.47658,0.525,3337
-1.13157e-06,2.39259e-07,-2.86988e-06,-0.000889424,-7.08681e-05,-0.0030385,6.41205,8.8555,-0.00310217,4.43035,8.85755,6.41007,-0.00316338,7.92565,213,19.2584,4.50158,0.525,3338
-7.13351e-07,2.58429e-07,-2.99257e-06,-0.000259742,-9.16059e-05,-0.00335425,9.22159,9.72349,-0.0157482,4.86973,9.72361,9.22159,-0.0158621,9.49841,213,18.5027,4.27402,0.525,3339
-1.4182e-06,9.07314e-08,-2.80834e-06,-0.00102667,-4.15963e-05,-0.0029763,5.8572,8.79771,0.037402,4.38016,8.79772,5.85719,0.0373995,7.72204,213,19.5523,7.30764,0.525,3340
-1.40756e-06,1.32469e-07,-2.79986e-06,-0.00105712,-4.93539e-05,-0.00298064,5.63134,8.6396,-0.110497,4.37518,8.6398,5.6312,-0.110558,7.70026,213,19.5523,6.33264,0.525,3341
-7.80358e-07,1.4617e-07,-2.97257e-06,-0.000309438,-5.35874e-05,-0.00334474,9.0664,9.83013,0.00581059,4.91382,9.83346,9.06307,0.00580946,9.466,213,18.6108,5.95922,0.525,3342
-1.33851e-06,3.23566e-08,-2.81757e-06,-0.000972778,-2.64426e-05,-0.00309506,5.86039,8.68527,-0.474777,4.59046,8.69577,5.86026,-0.485147,8.14228,213,19.3838,9.06465,0.525,3343
-1.29658e-06,6.07107e-08,-2.83796e-06,-0.000951531,-3.26691e-05,-0.00298595,6.3175,9.06038,0.244619,4.41181,9.06578,6.31455,0.242169,7.81982,213,19.3838,8.08965,0.525,3344
-8.28899e-07,7.55934e-08,-2.96835e-06,-0.000407296,-3.70106e-05,-0.00334749,8.50775,9.61308,-0.268953,4.9455,9.6182,8.50647,-0.272796,9.38465,213,18.7362,7.59729,0.525,3345
-1.10135e-06,-1.81931e-08,-2.89497e-06,-0.000800425,-2.74037e-05,-0.00316392,6.70006,9.00758,-0.355152,4.69221,9.01941,6.69809,-0.365012,8.46591,213,19.1327,11.1043,0.525,3346
-1.11887e-06,5.46782e-09,-2.88381e-06,-0.000820269,-2.32245e-05,-0.00312938,6.70069,9.07992,-0.19218,4.63962,9.08348,6.70071,-0.195758,8.34695,213,19.1327,10.1293,0.525,3347
-6.67643e-07,2.11735e-08,-2.99695e-06,-0.000267361,-2.43904e-05,-0.00336624,9.34986,10.0751,0.0994903,4.98795,10.0752,9.34986,0.0993425,9.63372,213,18.3166,9.44392,0.525,3348
-1.37452e-06,-8.49943e-08,-2.8146e-06,-0.00103323,-3.64951e-05,-0.00298408,5.80829,8.78362,-0.0151496,4.3994,8.78363,5.8083,-0.0151733,7.75192,213,19.5021,13.1061,0.525,3349
-1.37483e-06,-5.1517e-08,-2.8297e-06,-0.000974669,-3.47493e-05,-0.00302895,6.03207,8.83781,-0.100095,4.46964,8.8385,6.03207,-0.100786,7.9183,213,19.5021,12.1311,0.525,3350
-7.21994e-07,-2.86685e-08,-2.98802e-06,-0.000291881,-2.70854e-05,-0.00335096,9.2388,10.0292,0.107208,4.96262,10.0323,9.23578,0.10709,9.55191,213,18.4348,11.5354,0.525,3351
-1.14962e-06,-1.64125e-07,-2.87985e-06,-0.000903819,-5.11591e-05,-0.00304101,6.37796,8.92321,-0.00173021,4.46456,8.92731,6.37394,-0.00180984,7.96552,213,19.2584,14.9984,0.525,3352
-1.17578e-06,-1.28225e-07,-2.87545e-06,-0.00089589,-3.66998e-05,-0.00305163,6.43897,9.00372,0.00393373,4.50076,9.00541,6.43733,0.00388493,8.03155,213,19.2584,14.0234,0.525,3353
-7.76633e-07,-9.48898e-08,-2.9812e-06,-0.000295833,-4.2642e-05,-0.00336438,9.12257,9.87836,-0.03727,4.95906,9.88058,9.12062,-0.0375398,9.56082,213,18.5605,13.4796,0.525,3354
-1.25902e-06,-3.16609e-07,-2.82722e-06,-0.000978315,-0.000114907,-0.00298142,5.90615,8.48348,-0.0732628,4.27862,8.48392,5.90577,-0.0733228,7.60338,213,19.4443,16.8026,0.525,3355
-1.26917e-06,-2.31677e-07,-2.83136e-06,-0.000974865,-7.1974e-05,-0.00299467,6.02153,8.71673,-0.00772068,4.36368,8.71954,6.01881,-0.00781763,7.7389,213,19.4443,15.8276,0.525,3356
-7.29915e-07,-1.77169e-07,-2.99103e-06,-0.000242582,-6.70429e-05,-0.00337641,9.33488,9.85888,-0.0198217,4.94081,9.86162,9.33233,-0.0200029,9.62789,213,18.5027,15.226,0.525,3357
-7.01642e-07,-3.02345e-07,-2.98931e-06,-0.00028674,-0.000104381,-0.00334106,9.05669,9.60104,-0.0606965,4.83769,9.61467,9.04308,-0.0607144,9.40263,213,18.4967,16.815,0.525,3358
-1.08982e-06,-4.22615e-07,-2.89464e-06,-0.000832898,-0.00017809,-0.00299877,6.546,8.50065,0.0807091,4.21077,8.50201,6.54488,0.0804712,7.63352,213,19.2524,17.5625,0.525,3359
-7.51834e-07,-5.27435e-07,-2.99087e-06,-0.000434683,-0.000311374,-0.00316813,8.03783,8.40591,-0.121709,4.26463,8.40687,8.03757,-0.122402,8.35075,213,18.7848,18.0531,0.525,3360
-2.84024e-07,-8.36599e-07,-2.92465e-06,-7.8567e-05,-0.000882704,-0.00303184,8.85054,6.45013,0.0347971,4.40789,8.85057,6.45011,0.0347857,7.8942,213,16.5194,18.6504,0.525,3361
-3.84932e-07,-8.44731e-07,-2.93504e-06,-0.000154126,-0.000791681,-0.0030487,8.62055,6.7174,-0.01998,4.3207,8.62132,6.71674,-0.0200888,7.86404,213,17.4422,18.6504,0.525,3362
-4.17927e-07,-4.2703e-07,-2.99451e-06,-0.000166766,-0.000138901,-0.00338965,9.53177,9.61495,-0.0887665,4.87994,9.67097,9.47589,-0.0889086,9.66382,213,17.4173,17.6879,0.525,3363
-5.71212e-07,-7.86071e-07,-2.95708e-06,-0.000256476,-0.000719123,-0.00302777,8.28694,6.9059,0.0144261,4.14033,8.29496,6.89799,0.0143115,7.67808,213,18.3297,18.5375,0.525,3364
-2.05041e-07,-8.94916e-07,-2.92911e-06,-8.31747e-05,-0.000739539,-0.0031099,9.02864,7.06935,-0.00636932,4.52218,9.03796,7.06006,-0.00640039,8.23552,213,15.5967,18.6504,0.525,3365
-8.29174e-08,-1.02987e-06,-2.91681e-06,-3.0055e-05,-0.00103522,-0.00302361,8.6916,5.69113,-0.24438,4.47266,8.69767,5.68833,-0.24765,7.88387,213,13.1529,18.8284,0.525,3366
-9.80149e-08,-1.02927e-06,-2.92263e-06,-2.46892e-05,-0.000984294,-0.00303419,8.85257,5.98808,-0.131021,4.49311,8.85475,5.98634,-0.131463,7.95007,213,14.0757,18.8284,0.525,3367
-2.30146e-07,-4.08162e-07,-2.9877e-06,-7.91778e-05,-0.000130536,-0.00343295,9.96021,9.8069,-0.0510536,5.00565,9.96024,9.80687,-0.0510549,9.9355,213,15.6868,17.5278,0.525,3368
-1.50383e-07,-7.25007e-07,-2.96529e-06,-6.70867e-05,-0.000670272,-0.00313916,9.25459,7.45403,0.084215,4.5853,9.25482,7.4538,0.0842148,8.41589,213,14.7537,18.3773,0.525,3369
-1.29509e-07,-4.52542e-07,-2.99858e-06,-4.49542e-05,-0.000178788,-0.00341306,10.081,9.68146,0.0269186,5.04266,10.1122,9.65027,0.0268894,9.86247,213,14.1658,17.7057,0.525,3370
-3.61365e-08,-9.2733e-07,-2.93559e-06,-1.91126e-05,-0.000856063,-0.00308889,9.12013,6.62177,-0.0433927,4.58231,9.12115,6.62082,-0.0434623,8.20532,213,11.4586,18.6863,0.525,3371
-5.12014e-08,-9.26518e-07,-2.93212e-06,-3.17518e-05,-0.00091127,-0.00301241,9.10977,6.48435,0.212273,4.45223,9.11456,6.48173,0.210103,7.92321,213,12.3813,18.6863,0.525,3372
-6.59073e-08,-5.51344e-07,-3.00262e-06,-3.44622e-05,-0.00022348,-0.00341534,9.99658,9.43235,-0.0955813,5.04649,9.99699,9.43236,-0.0959966,9.82285,213,12.7161,18.0147,0.525,3373
1.59103e-09,-7.62993e-07,-2.96442e-06,-1.27332e-05,-0.000733551,-0.0031463,9.3659,7.21421,0.0119826,4.67873,9.36943,7.21068,0.0119809,8.48656,213,9.58864,18.4382,0.525,3374
-1.50321e-09,-7.64606e-07,-2.95893e-06,-2.15503e-05,-0.000720379,-0.00313215,9.39826,7.3122,0.112881,4.64454,9.40143,7.30957,0.112342,8.43988,213,10.5114,18.4382,0.525,3375
-2.40979e-08,-4.54213e-07,-3.00334e-06,-2.50662e-05,-0.000146298,-0.00347361,10.1144,9.75251,-0.179783,5.14871,10.1167,9.75109,-0.180689,10.1196,213,10.9972,17.6245,0.525,3376
5.34013e-08,-9.22288e-07,-2.93474e-06,-2.82158e-05,-0.00091995,-0.00304284,9.00753,6.34563,0.00865956,4.50012,9.0089,6.34427,0.00865526,8.00764,213,7.74839,18.6819,0.525,3377
3.28783e-08,-9.22178e-07,-2.93826e-06,-2.39922e-05,-0.000853412,-0.00308939,9.0969,6.62102,-0.0535578,4.57531,9.09702,6.62095,-0.0536068,8.19801,213,8.67112,18.6819,0.525,3378
2.18809e-08,-4.56325e-07,-3.00311e-06,-2.61401e-05,-0.000117427,-0.00346322,10.2323,9.95982,-0.0276154,5.13098,10.2343,9.95778,-0.0276158,10.1265,213,9.13248,17.6201,0.525,3379
1.00253e-07,-9.89445e-07,-2.92574e-06,-3.48119e-05,-0.00091552,-0.00305234,8.95082,6.32184,-0.0567262,4.50395,8.95114,6.32154,-0.0567532,8.02308,213,6.05196,18.7974,0.525,3380
7.78544e-08,-1.01621e-06,-2.91409e-06,-3.43068e-05,-0.000994849,-0.0029948,8.88484,6.01755,0.047558,4.41896,8.88533,6.01721,0.0474074,7.8094,213,6.97468,18.7974,0.525,3381
6.50052e-08,-5.36075e-07,-3.00272e-06,-3.1095e-05,-0.000207474,-0.00339603,10.1293,9.60282,0.0847544,5.0225,10.1297,9.60243,0.0847276,9.792,213,7.44126,17.9793,0.525,3382
2.80415e-07,-8.48099e-07,-2.92261e-06,-7.77683e-05,-0.000892411,-0.00303337,8.81981,6.38804,-0.00287892,4.41236,8.82146,6.38678,-0.00326501,7.89418,213,3.58056,18.6504,0.525,3383
2.04992e-07,-9.03535e-07,-2.92344e-06,-7.72629e-05,-0.000764327,-0.0030961,9.0302,6.97926,0.0187354,4.50868,9.03607,6.9734,0.0187222,8.18336,213,4.50329,18.6504,0.525,3384
2.29515e-07,-3.98261e-07,-2.99037e-06,-7.90274e-05,-0.000139636,-0.003421,9.97018,9.78926,-0.00584902,4.98912,9.97239,9.78705,-0.00585433,9.88688,213,4.41585,17.5146,0.525,3385
1.52376e-07,-7.16184e-07,-2.96155e-06,-6.73382e-05,-0.00066324,-0.00314821,9.24664,7.46783,0.0500003,4.5987,9.2474,7.46708,0.0499898,8.44912,213,5.34892,18.3642,0.525,3386
1.27609e-07,-4.40191e-07,-2.99967e-06,-5.07239e-05,-0.000173723,-0.00344414,9.96292,9.59575,-0.166691,5.07972,9.99244,9.56654,-0.167001,9.95333,213,5.96452,17.6616,0.525,3387
3.89471e-07,-8.59047e-07,-2.9303e-06,-0.000164503,-0.00078509,-0.00304477,8.59002,6.73752,-0.00780383,4.29895,8.59009,6.73746,-0.00781773,7.83757,213,2.65784,18.6504,0.525,3388
4.15999e-07,-4.28752e-07,-2.99688e-06,-0.000169127,-0.000148801,-0.00337162,9.543,9.60368,-0.0166781,4.83427,9.65185,9.49483,-0.0166783,9.59098,213,2.68271,17.6879,0.525,3389
5.71678e-07,-7.72026e-07,-2.95938e-06,-0.000249154,-0.000739159,-0.00302012,8.29271,6.83001,0.0211635,4.13844,8.29799,6.82479,0.0211088,7.64745,213,1.77033,18.5375,0.525,3390
-3.12614e-08,5.28226e-08,-2.99295e-06,-3.14599e-05,-2.97585e-05,-0.00350113,10.3574,10.3625,0.000145225,5.1815,10.3632,10.3567,0.000145222,10.3598,213,11.1012,8.46477,0.525,3391
-3.21176e-08,2.86853e-08,-2.9933e-06,-3.17612e-05,-2.72936e-05,-0.00350209,10.3603,10.3736,0.00107717,5.1863,10.3737,10.3602,0.0010771,10.3659,213,11.1174,9.31095,0.525,3392
-1.38075e-11,4.24548e-08,-2.99347e-06,-2.86998e-05,-2.94186e-05,-0.00350263,10.3707,10.3685,0.000735065,5.18499,10.3707,10.3685,0.000734904,10.3689,213,10.0652,8.82834,0.525,3393
-5.24309e-08,1.3034e-08,-2.99292e-06,-3.2743e-05,-2.66265e-05,-0.00350245,10.3552,10.3735,-0.00210213,5.1878,10.3735,10.3552,-0.00210227,10.3665,213,11.742,9.88953,0.525,3394
-1.96524e-08,3.28109e-09,-2.99383e-06,-3.01153e-05,-2.64516e-05,-0.00350269,10.3712,10.3821,0.00530669,5.1884,10.3821,10.3712,0.00529984,10.3714,213,10.706,10.2531,0.525,3395
4.75436e-08,2.42261e-09,-2.9937e-06,-3.17667e-05,-2.63237e-05,-0.0035017,10.3646,10.3808,0.00658195,5.18712,10.3808,10.3646,0.00658005,10.3661,213,8.50145,10.2687,0.525,3396
3.08875e-08,2.70992e-08,-2.99361e-06,-3.11915e-05,-2.75661e-05,-0.00350295,10.3602,10.371,-0.00323803,5.18714,10.371,10.3602,-0.00324923,10.3689,213,9.02532,9.34613,0.525,3397
1.43978e-08,-6.02461e-09,-2.99407e-06,-2.99202e-05,-2.60884e-05,-0.00350374,10.3702,10.3817,0.000618424,5.19055,10.3817,10.3702,0.000608409,10.3754,213,9.55754,10.5971,0.525,3398
3.11766e-08,5.18216e-08,-2.99324e-06,-3.07973e-05,-2.98987e-05,-0.00350169,10.3592,10.3619,-0.00165975,5.18209,10.3625,10.3586,-0.0016598,10.3622,213,9.00911,8.49996,0.525,3399
-4.25093e-09,-2.09271e-08,-2.9941e-06,-2.99787e-05,-2.5295e-05,-0.00350515,10.3679,10.3819,-0.00574687,5.19383,10.3819,10.3679,-0.00575025,10.3807,213,10.1821,11.1757,0.525,3400
-6.97081e-08,-8.67624e-08,-2.99051e-06,-3.65836e-05,-3.95404e-05,-0.00349416,10.3169,10.3081,-0.00421483,5.16142,10.3186,10.3064,-0.00422027,10.3167,213,12.3165,13.3077,0.525,3401
-1.22939e-07,-7.75986e-08,-2.98835e-06,-4.92195e-05,-3.66228e-05,-0.00348759,10.2692,10.3068,0.0054357,5.15097,10.3074,10.2686,0.00543568,10.2826,213,13.5543,13.1056,0.525,3402
-9.60906e-08,-1.12216e-07,-2.98744e-06,-4.36362e-05,-4.49055e-05,-0.00348374,10.2895,10.2858,0.020586,5.13651,10.2936,10.2817,0.0205789,10.2671,213,13.0132,13.9275,0.525,3403
-7.20344e-08,-1.50332e-07,-2.98524e-06,-3.67289e-05,-5.58769e-05,-0.00348175,10.3036,10.2464,0.0198965,5.14216,10.3042,10.2458,0.0198864,10.2552,213,12.4512,14.6717,0.525,3404
-1.25784e-07,-1.37052e-07,-2.98371e-06,-5.00991e-05,-5.26061e-05,-0.00348348,10.2261,10.2187,-0.0227382,5.12715,10.2315,10.2133,-0.0227438,10.2452,213,13.689,14.4695,0.525,3405
-1.40816e-07,-4.27357e-08,-2.98749e-06,-5.54763e-05,-2.91398e-05,-0.00349018,10.2462,10.3248,-0.00665606,5.16598,10.3253,10.2457,-0.00666375,10.2924,213,13.8429,12.043,0.525,3406
-1.80168e-07,-6.14508e-08,-2.98557e-06,-6.33714e-05,-3.34033e-05,-0.00348469,10.2015,10.291,-0.0113737,5.15149,10.2916,10.2009,-0.0113785,10.2579,213,14.5396,12.6628,0.525,3407
-2.37528e-07,-4.72564e-08,-2.9815e-06,-7.94668e-05,-2.99206e-05,-0.00347653,10.1393,10.2872,-0.00117276,5.14427,10.2874,10.1391,-0.00117306,10.2152,213,15.3187,12.2155,0.525,3408
-2.11364e-07,-8.30841e-08,-2.98378e-06,-7.5072e-05,-3.75507e-05,-0.00347391,10.1505,10.2625,0.00472214,5.12899,10.2627,10.1503,0.00471263,10.2023,213,15.0301,13.2781,0.525,3409
-2.45849e-07,-1.53453e-07,-2.97109e-06,-8.89189e-05,-5.56561e-05,-0.00346041,10.0506,10.1499,-0.0135428,5.08292,10.1523,10.0482,-0.0135436,10.1142,213,15.4903,14.8635,0.525,3410
-1.71199e-07,-1.42984e-07,-2.98012e-06,-6.20753e-05,-5.38409e-05,-0.00347132,10.1871,10.2116,0.0102208,5.10224,10.2147,10.184,0.0102184,10.1892,213,14.4988,14.6146,0.525,3411
-2.2698e-07,-1.10658e-07,-2.98006e-06,-8.39785e-05,-4.233e-05,-0.00347227,10.0857,10.21,-0.0286319,5.11941,10.2102,10.0856,-0.0286544,10.1771,213,15.2425,13.9743,0.525,3412
-2.99642e-07,-9.18809e-08,-2.97595e-06,-0.000104769,-3.78061e-05,-0.00345951,10.0125,10.2124,-0.00165315,5.10703,10.2124,10.0125,-0.00165515,10.1156,213,16.0216,13.527,0.525,3413
-1.35157e-07,-1.88792e-07,-2.97759e-06,-5.39616e-05,-6.65814e-05,-0.00345852,10.2372,10.1995,0.0743108,5.08325,10.2407,10.1961,0.0741926,10.1443,213,13.9368,15.3587,0.525,3414
2.78154e-07,1.2867e-07,-2.97131e-06,-9.38584e-05,-4.95499e-05,-0.00345983,10.0414,10.1737,-0.00625993,5.09026,10.1743,10.0408,-0.00626033,10.1145,213,4.2808,6.34262,0.525,3415
2.3626e-07,1.77708e-07,-2.97334e-06,-8.48735e-05,-6.14537e-05,-0.00345741,10.0667,10.1366,-0.000603299,5.06981,10.139,10.0643,-0.000603316,10.1025,213,4.71445,5.48368,0.525,3416
2.07893e-07,1.20925e-07,-2.97887e-06,-7.25913e-05,-4.84163e-05,-0.00347026,10.1429,10.215,0.000596011,5.10776,10.2161,10.1418,0.000595991,10.1786,213,5.12928,6.54949,0.525,3417
2.43853e-07,2.33317e-07,-2.96839e-06,-8.60608e-05,-8.25708e-05,-0.00344618,10.028,10.0384,-0.00218947,5.02892,10.0557,10.0107,-0.00218967,10.0355,213,4.57664,4.70087,0.525,3418
1.8003e-07,2.22195e-07,-2.9751e-06,-6.52695e-05,-7.95072e-05,-0.00345734,10.1303,10.0878,0.00474895,5.06499,10.1347,10.0834,0.00474882,10.1044,213,5.42512,4.90775,0.525,3419
1.6561e-07,9.72796e-08,-2.9841e-06,-6.23779e-05,-4.13514e-05,-0.00347926,10.1996,10.2624,-5.62434e-05,5.13166,10.2633,10.1987,-5.62444e-05,10.2312,213,5.78666,7.10306,0.525,3420
1.37593e-07,1.38502e-07,-2.98461e-06,-5.43611e-05,-5.26387e-05,-0.00347749,10.2188,10.2239,0.000478551,5.11474,10.23,10.2127,0.000478545,10.2209,213,6.22032,6.24411,0.525,3421
1.44118e-07,2.59467e-07,-2.9732e-06,-5.53882e-05,-8.94718e-05,-0.00345796,10.1576,10.0558,0.000650639,5.07905,10.1588,10.0546,0.000650631,10.1065,213,5.98976,4.49265,0.525,3422
1.394e-07,1.97542e-07,-2.98004e-06,-5.47236e-05,-6.99341e-05,-0.00346874,10.1895,10.1441,-0.0016124,5.09706,10.1925,10.1411,-0.00161244,10.1685,213,6.12758,5.27546,0.525,3423
1.08369e-07,1.63977e-07,-2.9844e-06,-4.46652e-05,-6.1461e-05,-0.00347801,10.2489,10.1987,7.51604e-05,5.12516,10.2504,10.1972,7.51598e-05,10.2238,213,6.78496,5.82902,0.525,3424
1.56181e-07,-4.17541e-08,-2.98747e-06,-6.06236e-05,-2.86402e-05,-0.00348585,10.2298,10.3253,0.00526637,5.16012,10.3255,10.2296,0.00526637,10.2726,213,5.99328,12.0131,0.525,3425
1.43788e-07,-7.38151e-08,-2.98757e-06,-5.60099e-05,-3.51024e-05,-0.00348651,10.2356,10.2981,-0.00465808,5.15167,10.2987,10.235,-0.00466592,10.2717,213,6.16322,13.0139,0.525,3426
1.96909e-07,-5.84822e-08,-2.98372e-06,-6.97407e-05,-3.25159e-05,-0.00347394,10.1992,10.3103,0.0374004,5.13666,10.3107,10.1988,0.0373967,10.2178,213,5.34525,12.5827,0.525,3427
2.47441e-07,-4.53662e-08,-2.97865e-06,-8.30281e-05,-2.94337e-05,-0.00347221,10.1326,10.2926,0.0156739,5.1385,10.2927,10.1325,0.0156686,10.1979,213,4.70508,12.1698,0.525,3428
2.30156e-07,-7.83234e-08,-2.98057e-06,-8.18796e-05,-3.61917e-05,-0.00347309,10.1155,10.2519,-0.00751168,5.12984,10.2522,10.1152,-0.00751259,10.1919,213,4.87502,13.1706,0.525,3429
2.46774e-07,-1.49389e-07,-2.97016e-06,-8.79271e-05,-5.61603e-05,-0.00345902,10.0596,10.1544,-0.00339251,5.08029,10.1572,10.0568,-0.00339303,10.1108,213,4.59271,14.7906,0.525,3430
2.43464e-07,-1.06567e-07,-2.97849e-06,-8.82538e-05,-4.079e-05,-0.00346653,10.0825,10.2242,-0.00192874,5.11329,10.2246,10.0821,-0.00192881,10.156,213,4.69058,13.9034,0.525,3431
1.84453e-07,-1.3393e-07,-2.97935e-06,-6.63161e-05,-5.27742e-05,-0.00347482,10.1532,10.1936,-0.0214335,5.10857,10.1957,10.1511,-0.0214356,10.1949,213,5.41732,14.4707,0.525,3432
3.05601e-07,-8.95337e-08,-2.97364e-06,-0.000103627,-3.82029e-05,-0.0034606,10.0148,10.2101,-0.00598811,5.10809,10.2102,10.0147,-0.0059883,10.1199,213,4.05041,13.4905,0.525,3433
1.41644e-07,-1.61103e-07,-2.98049e-06,-5.58616e-05,-6.0316e-05,-0.00347398,10.1963,10.183,-0.00699501,5.10383,10.2006,10.1787,-0.00701979,10.1967,213,6.09265,14.9217,0.525,3434
1.39255e-07,-1.14464e-07,-2.98478e-06,-5.46328e-05,-4.47235e-05,-0.00347962,10.2355,10.265,0.0116255,5.12746,10.2665,10.234,0.011625,10.2387,213,6.19051,14.0344,0.525,3435
1.08257e-07,-9.13921e-08,-2.98819e-06,-4.63096e-05,-3.98186e-05,-0.00348901,10.2725,10.2919,-0.00421944,5.14884,10.2935,10.2709,-0.0042201,10.2864,213,6.83854,13.4648,0.525,3436
-2.71417e-07,1.32013e-07,-2.97408e-06,-9.21407e-05,-4.99531e-05,-0.00345884,10.0539,10.1798,0.00401735,5.08796,10.1799,10.0538,0.00401702,10.1134,213,15.7851,6.2884,0.525,3437
-2.02653e-07,1.23756e-07,-2.98021e-06,-6.9764e-05,-4.93514e-05,-0.0034715,10.1534,10.2143,-0.00107966,5.10831,10.2155,10.1522,-0.0010797,10.1851,213,14.9361,6.49479,0.525,3438
-2.35528e-07,1.77705e-07,-2.97448e-06,-8.5662e-05,-6.09838e-05,-0.00345702,10.0645,10.1382,0.000779814,5.06924,10.1393,10.0634,0.000779761,10.1008,213,15.3851,5.48319,0.525,3439
-2.42908e-07,2.34136e-07,-2.96607e-06,-8.61677e-05,-8.28316e-05,-0.00344563,10.0283,10.0382,6.05826e-06,5.02831,10.0566,10.0099,5.11301e-06,10.0333,213,15.5232,4.70075,0.525,3440
-1.79475e-07,2.22375e-07,-2.9745e-06,-6.37222e-05,-8.01278e-05,-0.00345765,10.1369,10.0879,0.00579747,5.06712,10.14,10.0848,0.00579696,10.1067,213,14.6742,4.90714,0.525,3441
-1.62155e-07,9.98061e-08,-2.98374e-06,-6.01562e-05,-4.24883e-05,-0.0034801,10.207,10.2598,-0.00173303,5.13139,10.2611,10.2057,-0.0017331,10.2352,213,14.2709,7.03351,0.525,3442
-1.36601e-07,1.39045e-07,-2.9844e-06,-5.28563e-05,-5.29369e-05,-0.00347814,10.225,10.2248,0.000318426,5.1162,10.2327,10.2171,0.000318422,10.2246,213,13.8709,6.2283,0.525,3443
-1.45011e-07,2.60645e-07,-2.97317e-06,-5.51666e-05,-9.03531e-05,-0.00345816,10.1555,10.0505,-0.00266593,5.07954,10.1564,10.0496,-0.00266606,10.1061,213,14.1098,4.49252,0.525,3444
-1.39532e-07,1.97354e-07,-2.98002e-06,-5.36285e-05,-7.09286e-05,-0.00346847,10.1939,10.1423,0.00037145,5.09724,10.1949,10.1413,0.000371314,10.1678,213,13.9717,5.27495,0.525,3445
-1.07889e-07,1.64094e-07,-2.98412e-06,-4.56708e-05,-6.10166e-05,-0.00347766,10.2452,10.1994,0.000413958,5.12293,10.2463,10.1983,0.000413956,10.222,213,13.3065,5.81368,0.525,3446
-2.04646e-08,-3.17724e-07,-2.98485e-06,-2.69829e-05,-0.0001139,-0.00345088,10.2774,10.018,0.0568329,5.11037,10.2775,10.0179,0.0568032,10.0934,213,10.872,16.7147,0.525,3447
7.25353e-10,-2.74471e-07,-2.98195e-06,-2.44489e-05,-0.000101887,-0.00346813,10.2765,10.0453,-0.00317533,5.13984,10.2765,10.0453,-0.00317574,10.166,213,10.0494,16.2899,0.525,3448
-2.08862e-08,-2.15154e-07,-2.98156e-06,-2.77921e-05,-7.52336e-05,-0.0034828,10.2939,10.1523,-0.0195844,5.15675,10.2939,10.1523,-0.0195878,10.2434,213,10.8714,15.6282,0.525,3449
1.59025e-08,-3.36905e-07,-2.98634e-06,-2.50932e-05,-0.000123532,-0.00345686,10.2396,9.94573,-0.0044994,5.12207,10.2396,9.9457,-0.00450314,10.1004,213,9.40811,16.8638,0.525,3450
1.70789e-08,-2.27236e-07,-2.9782e-06,-2.57783e-05,-8.11869e-05,-0.00347733,10.3047,10.1393,0.00157015,5.15157,10.3047,10.1393,0.00156956,10.2214,213,9.40752,15.7773,0.525,3451
-4.70367e-08,-1.76805e-07,-2.98453e-06,-3.05764e-05,-6.53711e-05,-0.00347506,10.3326,10.2287,0.0505296,5.14121,10.3329,10.2285,0.0504542,10.2306,213,11.7346,15.0913,0.525,3452
-2.30892e-08,-1.52127e-07,-2.98602e-06,-2.86762e-05,-5.61788e-05,-0.0034873,10.3346,10.2525,0.0103479,5.16219,10.3347,10.2524,0.0103323,10.2835,213,10.9121,14.6665,0.525,3453
-1.94445e-08,-1.10975e-07,-2.9896e-06,-2.90897e-05,-4.48525e-05,-0.00349444,10.3453,10.2983,0.000989273,5.17218,10.3453,10.2983,0.000981225,10.3209,213,10.762,13.8544,0.525,3454
4.43288e-09,-1.37545e-07,-2.98644e-06,-2.64202e-05,-5.29056e-05,-0.00349263,10.342,10.2629,-0.00493051,5.17347,10.342,10.2629,-0.00493465,10.3076,213,9.89875,14.3913,0.525,3455
3.96798e-08,-2.16022e-07,-2.97972e-06,-2.7614e-05,-7.91722e-05,-0.00348498,10.2756,10.1217,-0.0449129,5.16035,10.2758,10.1215,-0.0449295,10.2445,213,8.5702,15.6408,0.525,3456
2.28455e-08,-1.75779e-07,-2.98143e-06,-2.73487e-05,-6.26714e-05,-0.00348713,10.3227,10.2173,-0.00501292,5.16391,10.3228,10.2172,-0.00501295,10.2754,213,9.21151,15.0669,0.525,3457
2.78032e-08,-1.29962e-07,-2.9865e-06,-2.88157e-05,-5.04224e-05,-0.00349632,10.3234,10.2589,-0.0273615,5.17551,10.3236,10.2587,-0.0273956,10.3187,213,9.06143,14.2548,0.525,3458
1.64746e-08,4.90808e-07,-2.97613e-06,-2.61519e-05,-0.00016952,-0.00343632,10.1523,9.72436,-0.0272967,5.08991,10.1525,9.72423,-0.0273473,9.9726,213,9.42062,2.7126,0.525,3459
7.93709e-10,4.04461e-07,-2.96831e-06,-2.50653e-05,-0.000143018,-0.00345452,10.1854,9.83327,-0.0518164,5.11862,10.1854,9.83327,-0.0518286,10.0658,213,10.05,3.28128,0.525,3460
1.59958e-08,3.30869e-07,-2.9668e-06,-2.51318e-05,-0.000108057,-0.0034552,10.2937,10.0462,0.0546916,5.11952,10.2937,10.0462,0.0546796,10.1175,213,9.42062,3.8703,0.525,3461
-1.60241e-08,4.92174e-07,-2.97831e-06,-2.79721e-05,-0.00017504,-0.00343428,10.1301,9.69108,-0.0380058,5.08412,10.1302,9.69103,-0.0380465,9.95592,213,10.6791,2.71232,0.525,3462
-1.58538e-08,3.3082e-07,-2.96911e-06,-2.68556e-05,-0.000109765,-0.00345361,10.2827,10.0352,0.0535548,5.1146,10.2827,10.0352,0.0535434,10.1077,213,10.6791,3.87002,0.525,3463
2.36258e-08,1.80514e-07,-2.98351e-06,-2.86571e-05,-6.56209e-05,-0.00348399,10.3153,10.2049,0.000852162,5.15725,10.3153,10.2049,0.000852082,10.2597,213,9.18701,5.63775,0.525,3464
2.28613e-08,2.43479e-07,-2.97643e-06,-2.74353e-05,-8.19452e-05,-0.00347657,10.2945,10.1318,-0.00139635,5.14798,10.2946,10.1317,-0.00139636,10.2155,213,9.18824,4.79022,0.525,3465
2.83689e-10,2.04962e-07,-2.9821e-06,-2.59941e-05,-7.29368e-05,-0.00348161,10.316,10.1759,0.000747909,5.15763,10.316,10.1759,0.000747896,10.2459,213,10.0488,5.28651,0.525,3466
3.98425e-08,2.93818e-07,-2.97357e-06,-2.91285e-05,-9.94705e-05,-0.00346606,10.2619,10.0519,0.00236717,5.12981,10.262,10.0518,0.00236715,10.1562,213,8.55886,4.22154,0.525,3467
-2.36808e-08,1.80198e-07,-2.98609e-06,-2.8828e-05,-6.50611e-05,-0.00348445,10.3145,10.2064,-0.000747611,5.15767,10.3146,10.2063,-0.000747616,10.2616,213,10.9088,5.63598,0.525,3468
-2.28565e-08,2.42551e-07,-2.97833e-06,-2.8091e-05,-8.09209e-05,-0.00347666,10.2934,10.1357,-0.000802613,5.14719,10.2936,10.1355,-0.000802856,10.2163,213,10.91,4.78846,0.525,3469
-4.03426e-08,2.93371e-07,-2.97447e-06,-2.90726e-05,-0.00010215,-0.00346458,10.2584,10.0403,0.00313791,5.12766,10.2585,10.0402,0.00313721,10.148,213,11.5391,4.21949,0.525,3470
-4.93858e-07,2.01209e-08,-2.99762e-06,-0.000159224,-2.49401e-05,-0.00349829,9.59507,9.99591,-0.372289,5.18919,10.0013,9.59455,-0.377126,10.1811,213,17.4447,9.4784,0.525,3471
-4.28078e-07,3.20322e-09,-2.99146e-06,-0.000139464,-2.39247e-05,-0.00343812,9.91078,10.2557,0.064059,5.09676,10.2567,9.9106,0.0632079,10.0249,213,17.0148,10.1708,0.525,3472
-3.55041e-07,2.96981e-08,-2.97529e-06,-9.70328e-05,-2.62658e-05,-0.00344062,10.1567,10.3679,0.175801,5.09712,10.3694,10.1559,0.175144,10.0892,213,16.394,9.14066,0.525,3473
-4.57145e-07,-1.35366e-08,-2.99737e-06,-0.000155017,-2.27705e-05,-0.00342617,9.85657,10.2513,0.0919344,5.08008,10.2521,9.85581,0.0919131,9.96794,213,17.2551,10.894,0.525,3474
-3.35929e-07,-5.75707e-09,-2.97186e-06,-9.59367e-05,-2.36675e-05,-0.00349071,10.0128,10.2285,-0.120886,5.17517,10.2294,10.0119,-0.120893,10.2433,213,16.2044,10.5563,0.525,3475
-1.90666e-07,-7.94046e-09,-2.97807e-06,-6.82636e-05,-2.45995e-05,-0.00348392,10.2017,10.3321,0.00577057,5.16321,10.3322,10.2016,0.00576929,10.2618,213,14.5609,10.7332,0.525,3476
-2.37661e-07,1.27783e-08,-2.96815e-06,-8.93388e-05,-2.26014e-05,-0.00347415,10.1093,10.3085,0.00542049,5.15154,10.3085,10.1093,0.00542029,10.2049,213,15.1288,9.84961,0.525,3477
-2.57077e-07,-7.90966e-09,-2.96934e-06,-8.91504e-05,-2.45858e-05,-0.00347405,10.1045,10.2972,0.000312395,5.14881,10.2979,10.1038,0.000309751,10.2019,213,15.3961,10.7166,0.525,3478
-2.70352e-07,-2.61459e-08,-2.97487e-06,-8.88149e-05,-2.47855e-05,-0.00346664,10.1294,10.3206,0.0463782,5.13783,10.322,10.128,0.0463774,10.18,213,15.6365,11.4398,0.525,3479
-2.03135e-07,2.6117e-08,-2.97381e-06,-7.42431e-05,-2.54656e-05,-0.00348162,10.1695,10.3151,-0.00178144,5.1586,10.3154,10.1692,-0.00178242,10.2449,213,14.7318,9.30511,0.525,3480
-2.75839e-07,2.54711e-08,-2.96436e-06,-9.61908e-05,-2.54056e-05,-0.00346922,10.0739,10.2852,0.00512382,5.14072,10.2866,10.0725,0.00511722,10.1761,213,15.5671,9.28857,0.525,3481
-3.07595e-07,4.43835e-08,-2.97226e-06,-9.92163e-05,-2.79941e-05,-0.00342847,10.1763,10.3889,0.23818,5.07686,10.3913,10.1745,0.237586,10.0471,213,15.997,8.59616,0.525,3482
4.96971e-07,5.25434e-09,-2.99015e-06,-0.000156167,-2.39354e-05,-0.00344577,9.78364,10.1784,-0.0360805,5.10742,10.1787,9.78332,-0.0361002,10.023,213,2.6714,10.0871,0.525,3483
4.34379e-07,2.25343e-08,-2.98005e-06,-0.000143118,-2.54239e-05,-0.00344544,9.8603,10.2116,0.00262146,5.10459,10.2118,9.86009,0.00262135,10.038,213,3.0774,9.38497,0.525,3484
3.56281e-07,-3.49542e-09,-2.96444e-06,-0.000108399,-2.33876e-05,-0.00346471,10.0194,10.2732,0.000592782,5.13637,10.2733,10.0193,0.000592554,10.1481,213,3.73053,10.4521,0.525,3485
4.79916e-07,4.07658e-08,-2.98975e-06,-0.000161726,-2.70315e-05,-0.00343576,9.77133,10.1734,-0.00191983,5.08783,10.1737,9.77099,-0.00192075,9.98038,213,2.749,8.6878,0.525,3486
3.43956e-07,3.18401e-08,-2.9658e-06,-0.000106236,-2.63186e-05,-0.00346439,10.0245,10.263,0.000122374,5.13181,10.2637,10.0238,0.00012174,10.1458,213,3.80813,9.05282,0.525,3487
1.928e-07,-8.7485e-09,-2.98129e-06,-6.91122e-05,-2.4489e-05,-0.00348145,10.2047,10.3379,0.018618,5.15965,10.3379,10.2047,0.0186102,10.2533,213,5.46306,10.7515,0.525,3488
2.59062e-07,-6.4877e-09,-2.9707e-06,-9.28612e-05,-2.42639e-05,-0.00347268,10.087,10.2918,-0.00203025,5.147,10.292,10.0868,-0.00203029,10.193,213,4.65592,10.6659,0.525,3489
2.34926e-07,1.29598e-08,-2.97256e-06,-8.95427e-05,-2.27089e-05,-0.00347608,10.1016,10.3011,-0.00748039,5.1543,10.3011,10.1016,-0.00748228,10.2103,213,4.94367,9.83552,0.525,3490
2.93526e-07,-2.38712e-08,-2.97202e-06,-9.84766e-05,-2.38223e-05,-0.00346887,10.0659,10.2888,0.00505122,5.14214,10.2893,10.0654,0.00505056,10.1741,213,4.24991,11.3681,0.525,3491
2.02223e-07,2.51524e-08,-2.97817e-06,-7.41965e-05,-2.55577e-05,-0.00347951,10.1762,10.3214,0.0110516,5.15522,10.3215,10.1761,0.011047,10.2385,213,5.32708,9.33743,0.525,3492
2.7261e-07,2.65294e-08,-2.96603e-06,-9.71601e-05,-2.57581e-05,-0.00346953,10.0658,10.2789,-0.00096039,5.1404,10.2798,10.0649,-0.000960395,10.175,213,4.51995,9.25192,0.525,3493
2.97867e-07,4.55086e-08,-2.9686e-06,-0.000101721,-2.82062e-05,-0.00346579,10.0418,10.2613,-0.000180237,5.13115,10.2621,10.041,-0.000181112,10.1535,213,4.19155,8.55474,0.525,3494
-1.79516e-07,-2.65196e-07,-2.96823e-06,-6.35121e-05,-9.37656e-05,-0.00345852,10.0922,10.0019,-0.0421431,5.07007,10.098,9.99619,-0.0421842,10.0896,213,14.7952,16.3792,0.525,3495
-2.61347e-07,-2.12044e-07,-2.96095e-06,-9.24501e-05,-7.35858e-05,-0.00343715,10.0458,10.1021,0.0616075,5.02454,10.1106,10.0374,0.0615336,10.0127,213,15.7761,15.7939,0.525,3496
-2.54793e-07,-2.8955e-07,-2.96243e-06,-9.12913e-05,-0.000105785,-0.00342785,9.9803,9.93704,0.0204303,4.9843,9.98902,9.92834,0.0204091,9.93841,213,15.8247,16.6693,0.525,3497
-3.35359e-07,-3.17312e-07,-2.96364e-06,-0.000109205,-0.000131339,-0.00340359,9.86592,9.79985,0.0319473,4.92781,9.88756,9.77821,0.031943,9.8014,213,16.6676,16.9424,0.525,3498
-4.63276e-07,-1.21689e-07,-2.97097e-06,-0.000169639,-4.60706e-05,-0.0034271,9.68972,10.0586,-0.0340469,5.04707,10.0601,9.68829,-0.0340803,9.91349,213,17.2754,14.31,0.525,3499
-4.99943e-07,-1.7274e-07,-2.97717e-06,-0.000184425,-5.99059e-05,-0.00340339,9.62998,10.0017,0.021123,4.99106,10.0032,9.62846,0.0211057,9.80012,213,17.5612,15.2404,0.525,3500
-3.45653e-07,-1.67513e-07,-2.96346e-06,-0.000113793,-6.02813e-05,-0.0034382,9.95326,10.113,0.0296437,5.04329,10.1162,9.95004,0.0296364,10.0045,213,16.5198,15.1536,0.525,3501
-5.31537e-07,-2.30252e-07,-2.97522e-06,-0.000234682,-7.53201e-05,-0.00336647,9.38878,9.86448,0.0401439,4.91219,9.86453,9.38873,0.0401426,9.59534,213,17.7471,16.0696,0.525,3502
-4.67598e-07,-2.98623e-07,-2.97502e-06,-0.000186647,-0.000115021,-0.00337339,9.53666,9.75047,0.0239881,4.86784,9.75964,9.52752,0.0239623,9.62172,213,17.5552,16.8295,0.525,3503
-1.82825e-07,3.96267e-07,-2.95656e-06,-6.28468e-05,-0.000131465,-0.00343005,10.067,9.86218,0.0156623,5.0265,10.0687,9.86051,0.015661,9.95056,213,14.8306,3.20432,0.525,3504
-2.56639e-07,4.3727e-07,-2.95522e-06,-8.9519e-05,-0.000147213,-0.00341092,9.91353,9.74131,-0.00108485,4.95816,9.91524,9.7396,-0.00108523,9.82968,213,15.8271,2.84997,0.525,3505
-2.60462e-07,3.21137e-07,-2.95324e-06,-9.08168e-05,-0.000108783,-0.0034312,9.96309,9.90946,-0.00820652,4.98993,9.97166,9.90089,-0.00820705,9.94467,213,15.809,3.77034,0.525,3506
-3.39149e-07,4.76476e-07,-2.95366e-06,-0.000105895,-0.000183467,-0.00338195,9.78958,9.55803,0.0103041,4.89199,9.79428,9.55333,0.0103035,9.66575,213,16.6676,2.55757,0.525,3507
-4.52296e-07,1.88047e-07,-2.96894e-06,-0.000168046,-6.48135e-05,-0.00341344,9.68338,9.99154,-0.00437079,4.99929,9.99421,9.68072,-0.0043717,9.84558,213,17.2754,5.18998,0.525,3508
-3.37811e-07,2.57229e-07,-2.9618e-06,-0.000110057,-9.13465e-05,-0.00343001,9.90371,9.95956,-0.00659815,4.9882,9.96981,9.89346,-0.00659815,9.93845,213,16.5198,4.34639,0.525,3509
-4.88126e-07,2.60537e-07,-2.97156e-06,-0.000181188,-9.14646e-05,-0.00339219,9.58535,9.85318,0.000262511,4.92816,9.85658,9.58195,0.000261241,9.72191,213,17.5612,4.25957,0.525,3510
-5.12597e-07,3.4515e-07,-2.96252e-06,-0.000219574,-0.000106741,-0.00336265,9.39425,9.73107,0.0119224,4.8608,9.73352,9.3918,0.0119224,9.55532,213,17.7471,3.43043,0.525,3511
-4.62583e-07,4.48276e-07,-2.9529e-06,-0.000175714,-0.00016665,-0.00335704,9.49207,9.51913,-0.00442958,4.77274,9.54106,9.47015,-0.00443265,9.51023,213,17.5552,2.67053,0.525,3512
1.81635e-07,-2.61877e-07,-2.96845e-06,-6.39378e-05,-8.9598e-05,-0.00345081,10.1272,10.0506,0.0171809,5.05882,10.1348,10.043,0.0171773,10.072,213,5.29047,16.2932,0.525,3513
2.55679e-07,-2.87274e-07,-2.96388e-06,-9.14309e-05,-9.77485e-05,-0.00343526,9.98142,9.96256,-0.000172222,5.00032,10.0005,9.94351,-0.000172415,9.97228,213,4.27799,16.6562,0.525,3514
2.63756e-07,-2.0794e-07,-2.96053e-06,-9.24839e-05,-7.38852e-05,-0.00344749,10.0119,10.0674,-0.00307602,5.03995,10.0768,10.0025,-0.00307679,10.0429,213,4.30697,15.721,0.525,3515
3.36926e-07,-3.13783e-07,-2.96609e-06,-0.000108522,-0.000126641,-0.00341022,9.86398,9.80989,0.00815429,4.93753,9.88322,9.79065,0.00815423,9.82911,213,3.43235,16.9424,0.525,3516
4.60702e-07,-1.23199e-07,-2.97261e-06,-0.00017123,-4.60143e-05,-0.00341901,9.70574,10.0795,0.010868,5.03464,10.0802,9.70509,0.0108669,9.88709,213,2.83621,14.3227,0.525,3517
3.45329e-07,-1.66568e-07,-2.96309e-06,-0.000113583,-5.98548e-05,-0.00344377,9.93824,10.0986,-0.00261408,5.05209,10.1016,9.93527,-0.00261521,10.0221,213,3.58023,15.1536,0.525,3518
4.98147e-07,-1.73443e-07,-2.97699e-06,-0.000185834,-6.01334e-05,-0.0034058,9.61296,9.98819,0.00112749,4.99427,9.98967,9.61148,0.00112652,9.80492,213,2.55047,15.2531,0.525,3519
5.31952e-07,-2.30365e-07,-2.97573e-06,-0.000234538,-7.42601e-05,-0.00337333,9.37127,9.84971,0.00173447,4.92411,9.84995,9.37104,0.00173022,9.61771,213,2.35352,16.0702,0.525,3520
4.69167e-07,-3.00305e-07,-2.97675e-06,-0.000186521,-0.000118411,-0.0033763,9.51744,9.72075,-0.00430682,4.86665,9.729,9.50919,-0.00430837,9.62529,213,2.54485,16.8295,0.525,3521
1.82819e-07,3.9849e-07,-2.95355e-06,-6.14348e-05,-0.000143682,-0.00342555,10.0512,9.80572,0.00911573,5.02174,10.0526,9.80433,0.00911264,9.92168,213,5.26927,3.20447,0.525,3522
2.60711e-07,3.20378e-07,-2.95751e-06,-9.16843e-05,-0.000104874,-0.00343215,9.96713,9.92775,-0.00442201,4.99108,9.97774,9.91714,-0.00442454,9.952,213,4.29089,3.77046,0.525,3523
2.55176e-07,4.38065e-07,-2.95387e-06,-9.03722e-05,-0.000155725,-0.00340656,9.89508,9.7,-0.0039952,4.95118,9.89837,9.69671,-0.00399717,9.80309,213,4.27286,2.84999,0.525,3524
3.39207e-07,4.75436e-07,-2.95494e-06,-0.000107457,-0.000179422,-0.00338356,9.78769,9.57287,0.00827007,4.89124,9.79075,9.56981,0.00826478,9.67391,213,3.43235,2.55757,0.525,3525
4.52287e-07,1.88344e-07,-2.96797e-06,-0.00016848,-6.51037e-05,-0.00340983,9.69126,9.99984,0.0155879,4.99286,10.0013,9.68978,0.0155875,9.83366,213,2.82458,5.19302,0.525,3526
4.89706e-07,2.60226e-07,-2.9722e-06,-0.000180028,-9.06008e-05,-0.00339312,9.59229,9.85923,0.000968716,4.93099,9.86295,9.58857,0.00096726,9.7277,213,2.53883,4.26261,0.525,3527
3.38594e-07,2.57523e-07,-2.96116e-06,-0.000110116,-9.1349e-05,-0.00342927,9.90568,9.9617,-0.00225284,4.98658,9.9709,9.89648,-0.00225309,9.93615,213,3.58023,4.34639,0.525,3528
5.16512e-07,3.45728e-07,-2.96281e-06,-0.000223799,-0.000108394,-0.00336055,9.36968,9.71417,0.00625727,4.85479,9.71584,9.36801,0.006257,9.54042,213,2.35292,3.43059,0.525,3529
4.62668e-07,4.46664e-07,-2.95228e-06,-0.000174839,-0.000164962,-0.00335816,9.49928,9.52876,-0.00316413,4.78156,9.55996,9.46808,-0.00316657,9.51752,213,2.54485,2.67053,0.525,3530
-9.7001e-08,-3.2519e-08,-2.9908e-06,-4.29929e-05,-2.82064e-05,-0.00349602,10.3075,10.3516,-6.0655e-05,5.17594,10.3518,10.3073,-6.06967e-05,10.3297,213,12.9322,11.6597,0.525,3531
-1.47611e-07,-1.98669e-08,-2.9857e-06,-5.87885e-05,-2.54177e-05,-0.0034892,10.2407,10.3403,0.000672995,5.17001,10.3407,10.2403,0.000672977,10.2902,213,13.9174,11.2169,0.525,3532
-1.34259e-07,1.43461e-09,-2.98534e-06,-5.59036e-05,-2.40868e-05,-0.00349204,10.2537,10.3487,-0.00340379,5.17605,10.3487,10.2537,-0.00340395,10.3049,213,13.6502,10.3499,0.525,3533
-8.26264e-08,1.2864e-08,-2.99119e-06,-4.01136e-05,-2.58533e-05,-0.00349882,10.3238,10.3664,-0.000661172,5.18353,10.3664,10.3238,-0.000661173,10.3458,213,12.5801,9.89053,0.525,3534
-6.6936e-08,-1.13099e-08,-2.99249e-06,-3.71744e-05,-2.49025e-05,-0.00350012,10.3408,10.3774,0.00366212,5.18691,10.3775,10.3407,0.00366197,10.3555,213,12.1686,10.8327,0.525,3535
-1.11593e-07,2.50829e-08,-2.98802e-06,-4.97489e-05,-2.55142e-05,-0.00349385,10.2813,10.3537,0.000401586,5.17667,10.3537,10.2813,0.000401514,10.3173,213,13.2235,9.40677,0.525,3536
-6.36481e-08,-3.30025e-08,-2.99278e-06,-3.63378e-05,-2.7918e-05,-0.00350136,10.3325,10.3576,-0.0108895,5.18433,10.3578,10.3324,-0.0109108,10.356,213,12.0941,11.6587,0.525,3537
1.49257e-07,-2.00834e-08,-2.98779e-06,-5.92598e-05,-2.48944e-05,-0.00348962,10.2382,10.3407,-0.0017123,5.17126,10.3408,10.2381,-0.00171235,10.2915,213,6.13429,11.2078,0.525,3538
1.05738e-07,-3.20259e-08,-2.99157e-06,-4.51683e-05,-2.79575e-05,-0.00349703,10.2917,10.3431,-0.0123518,5.17779,10.3432,10.2916,-0.0123521,10.3298,213,6.95226,11.639,0.525,3539
1.33696e-07,2.83025e-11,-2.98829e-06,-5.43266e-05,-2.3907e-05,-0.00349271,10.2619,10.3527,-0.00196724,5.17733,10.3527,10.2619,-0.00196724,10.3096,213,6.42204,10.3774,0.525,3540
6.15604e-08,-2.03009e-08,-2.99363e-06,-3.57936e-05,-2.53479e-05,-0.00349947,10.3499,10.3811,0.0106083,5.18531,10.3812,10.3498,0.0106045,10.3549,213,8.06347,11.1767,0.525,3541
8.15066e-08,1.12302e-08,-2.99264e-06,-3.93039e-05,-2.58825e-05,-0.00350034,10.3239,10.364,-0.00753647,5.18578,10.364,10.3239,-0.00754203,10.3516,213,7.53125,9.92571,0.525,3542
1.10984e-07,2.27775e-08,-2.99034e-06,-4.8545e-05,-2.59178e-05,-0.00349426,10.2862,10.3537,0.000463619,5.17664,10.3537,10.2862,0.000463613,10.3197,213,6.86002,9.46939,0.525,3543
6.61536e-08,-4.27446e-08,-2.99301e-06,-3.70665e-05,-2.91286e-05,-0.00349858,10.333,10.3567,9.93956e-05,5.1784,10.3569,10.3328,8.95619e-05,10.3448,213,7.92246,11.982,0.525,3544
-1.28309e-07,-3.32624e-07,-2.9816e-06,-5.24187e-05,-0.000119144,-0.00344975,10.1078,9.90862,-0.0334903,5.07237,10.1112,9.9052,-0.0335101,10.0433,213,14.0061,16.9556,0.525,3545
-1.32554e-07,-2.44011e-07,-2.97421e-06,-5.32345e-05,-8.70415e-05,-0.00344966,10.2049,10.104,0.0662909,5.07076,10.2075,10.1017,0.0660035,10.089,213,13.9574,16.0802,0.525,3546
-9.39331e-08,-4.21502e-07,-2.98754e-06,-4.05414e-05,-0.000202423,-0.00336711,10.1789,9.69566,0.248835,4.96827,10.1836,9.69265,0.247101,9.70037,213,13.328,17.4066,0.525,3547
-4.56085e-08,-3.5028e-07,-2.98553e-06,-2.63144e-05,-0.000147837,-0.00343177,10.2345,9.87179,0.0690104,5.08276,10.2345,9.87175,0.0690092,9.98908,213,11.8192,16.9628,0.525,3548
-6.62487e-08,-2.73961e-07,-2.98155e-06,-3.39514e-05,-9.56685e-05,-0.00347116,10.2281,10.0438,-0.03227,5.1305,10.2287,10.0432,-0.0322769,10.1695,213,12.4311,16.3547,0.525,3549
-6.58424e-08,-3.95677e-07,-2.98777e-06,-3.17663e-05,-0.000170809,-0.0034365,10.1131,9.69807,-0.0502489,5.08227,10.1141,9.69721,-0.0504136,9.96263,213,12.5564,17.2645,0.525,3550
-9.48644e-08,-2.34867e-07,-2.97962e-06,-4.1014e-05,-8.3667e-05,-0.00347773,10.2018,10.0745,-0.0570423,5.13006,10.203,10.0734,-0.0571197,10.1959,213,13.1477,15.9351,0.525,3551
-6.79514e-08,-2.13403e-07,-2.98218e-06,-3.53637e-05,-7.50365e-05,-0.00347284,10.2795,10.161,0.0183221,5.13096,10.2802,10.1603,0.0182799,10.2025,213,12.4105,15.6333,0.525,3552
1.31708e-07,4.70732e-07,-2.96944e-06,-5.13769e-05,-0.000161539,-0.0034231,10.0643,9.73545,-0.000538978,5.03247,10.0644,9.73536,-0.000540172,9.90452,213,6.1541,2.75298,0.525,3553
1.33421e-07,3.44323e-07,-2.96653e-06,-5.19312e-05,-0.000113612,-0.00344754,10.1353,9.95122,-0.000811048,5.06837,10.1359,9.95059,-0.000811061,10.0454,213,6.17213,3.67346,0.525,3554
9.85482e-08,5.64165e-07,-2.98005e-06,-4.16211e-05,-0.00023977,-0.00338721,9.99006,9.39857,0.00322982,4.99352,9.99027,9.39836,0.0032295,9.70463,213,6.86088,2.32386,0.525,3555
6.83405e-08,2.95714e-07,-2.97475e-06,-3.63581e-05,-0.000100837,-0.00346191,10.2262,10.0337,0.000643092,5.11292,10.2265,10.0334,0.000643086,10.1307,213,7.69172,4.18172,0.525,3556
5.91978e-08,4.01859e-07,-2.97515e-06,-3.43e-05,-0.000125356,-0.00344617,10.211,9.9392,0.0263281,5.09237,10.2111,9.93915,0.0263214,10.0515,213,7.92411,3.26179,0.525,3557
7.65425e-08,2.23001e-07,-2.97961e-06,-3.79059e-05,-7.59499e-05,-0.003474,10.2572,10.1437,0.000244082,5.12871,10.2577,10.1432,0.000244062,10.2007,213,7.50935,5.00092,0.525,3558
1.00444e-07,3.07017e-07,-2.97224e-06,-4.2726e-05,-0.000104191,-0.00345709,10.1916,10.0081,-0.00053551,5.09626,10.192,10.0077,-0.000535518,10.1016,213,6.87459,4.04116,0.525,3559
4.04266e-08,5.38689e-07,-2.98236e-06,-2.7781e-05,-0.000216301,-0.00340254,10.1011,9.53833,0.0271759,5.03698,10.1011,9.53831,0.0271705,9.80467,213,8.54443,2.46219,0.525,3560
6.76983e-08,5.45375e-07,-2.98386e-06,-3.39895e-05,-0.000219851,-0.00340248,10.0518,9.49698,-0.0034007,5.02771,10.052,9.49677,-0.00340769,9.78962,213,7.67729,2.42237,0.525,3561
1.29512e-07,-2.28929e-07,-2.97629e-06,-5.24812e-05,-8.45951e-05,-0.00346451,10.1702,10.0743,-0.0149625,5.09298,10.171,10.0735,-0.0149665,10.1376,213,6.23128,15.8699,0.525,3562
1.24787e-07,-3.19447e-07,-2.98136e-06,-5.05558e-05,-0.000104359,-0.0034358,10.2104,10.0498,0.105182,5.05399,10.2129,10.0476,0.104898,10.0264,213,6.20229,16.8051,0.525,3563
9.00358e-08,-3.94592e-07,-2.98558e-06,-3.83164e-05,-0.000183172,-0.00341877,10.0898,9.65742,-0.00107156,5.04619,10.0913,9.65599,-0.00110923,9.88193,213,6.90532,17.2383,0.525,3564
6.28523e-08,-3.72696e-07,-2.98792e-06,-3.34449e-05,-0.000152457,-0.00345566,10.1002,9.74497,-0.115325,5.10903,10.1018,9.7443,-0.116255,10.0441,213,7.67903,17.1228,0.525,3565
3.90803e-08,-3.7286e-07,-2.98834e-06,-2.56098e-05,-0.000152112,-0.00343581,10.2125,9.8349,0.0328314,5.08987,10.2126,9.83484,0.0328281,9.99623,213,8.49059,17.1075,0.525,3566
5.63133e-08,-2.78079e-07,-2.9812e-06,-3.24631e-05,-9.8669e-05,-0.00347059,10.2295,10.0319,-0.0335891,5.13177,10.2299,10.0315,-0.0335906,10.1657,213,7.95466,16.3665,0.525,3567
9.49258e-08,-1.95022e-07,-2.98085e-06,-4.23838e-05,-7.26962e-05,-0.00346923,10.2551,10.1646,0.0257322,5.11503,10.2558,10.1639,0.0257239,10.1844,213,7.00447,15.4336,0.525,3568
6.48929e-08,-2.14846e-07,-2.98084e-06,-3.48883e-05,-7.91577e-05,-0.00347412,10.2653,10.1331,-0.00107434,5.13359,10.2661,10.1323,-0.00110051,10.201,213,7.75864,15.6561,0.525,3569
7.23752e-08,-1.50807e-07,-2.9835e-06,-3.73794e-05,-5.51787e-05,-0.00348308,10.2975,10.2444,0.0118648,5.14334,10.2985,10.2434,0.0118638,10.2592,213,7.62002,14.7079,0.525,3570
-1.32624e-07,3.46178e-07,-2.96499e-06,-5.11983e-05,-0.000117892,-0.00344539,10.1331,9.93402,0.00118322,5.06628,10.1337,9.93338,0.0011821,10.0339,213,13.9276,3.67312,0.525,3571
-1.30633e-07,4.71173e-07,-2.97012e-06,-5.11901e-05,-0.000151167,-0.00343085,10.0738,9.77532,-0.0147711,5.04472,10.0746,9.77451,-0.0147997,9.94277,213,13.9457,2.75275,0.525,3572
-9.81807e-08,5.69521e-07,-2.97425e-06,-3.97218e-05,-0.000240745,-0.00338291,10.0123,9.41222,0.0326141,4.9899,10.0124,9.4121,0.0326136,9.6936,213,13.239,2.3236,0.525,3573
-5.95078e-08,4.04782e-07,-2.9726e-06,-3.37665e-05,-0.000132032,-0.00344354,10.2015,9.90814,0.0230456,5.08928,10.2016,9.90805,0.0230396,10.035,213,12.1755,3.2613,0.525,3574
-6.82366e-08,2.95053e-07,-2.97487e-06,-3.54112e-05,-0.000103343,-0.00346146,10.2255,10.0227,-0.00152968,5.11366,10.2258,10.0224,-0.00152988,10.1272,213,12.4064,4.17974,0.525,3575
-7.60923e-08,2.21516e-07,-2.97995e-06,-3.80648e-05,-7.50415e-05,-0.0034739,10.2594,10.1491,0.00322045,5.12828,10.2598,10.1487,0.00321991,10.2015,213,12.5886,4.99913,0.525,3576
-1.00374e-07,3.06073e-07,-2.97315e-06,-4.30864e-05,-0.000107114,-0.00345528,10.1859,9.99474,0.000215193,5.0929,10.186,9.99463,0.000215061,10.0915,213,13.225,4.04094,0.525,3577
-4.09609e-08,5.42801e-07,-2.98108e-06,-2.7629e-05,-0.000209586,-0.00340381,10.1193,9.57613,0.041139,5.03909,10.1193,9.57613,0.0411333,9.81786,213,11.5553,2.46191,0.525,3578
-6.77375e-08,5.48175e-07,-2.97841e-06,-3.42832e-05,-0.000210512,-0.00340813,10.0617,9.53563,-0.00949306,5.03577,10.062,9.5353,-0.00950414,9.81878,213,12.4226,2.42216,0.525,3579
-4.48049e-08,1.51439e-07,-2.98845e-06,-3.03821e-05,-5.73934e-05,-0.00348754,10.3195,10.2388,-0.000398187,5.16002,10.3196,10.2387,-0.000398203,10.2798,213,11.6092,6.08985,0.525,3580
-1.95093e-08,1.25762e-07,-2.99054e-06,-2.85645e-05,-4.97536e-05,-0.0034923,10.3398,10.2766,0.00030217,5.16976,10.3398,10.2766,0.000302169,10.308,213,10.748,6.5879,0.525,3581
-7.41963e-08,1.57618e-07,-2.98642e-06,-3.72268e-05,-5.88593e-05,-0.0034834,10.2858,10.2213,-0.00124453,5.14384,10.2864,10.2207,-0.00124454,10.255,213,12.4879,5.95248,0.525,3582
-7.00303e-08,1.09456e-07,-2.99027e-06,-3.74944e-05,-4.3427e-05,-0.00349093,10.3092,10.2915,0.000469747,5.15481,10.3101,10.2906,0.000469746,10.2999,213,12.3271,6.9044,0.525,3583
-1.98205e-08,8.52644e-08,-2.99233e-06,-2.9405e-05,-3.79511e-05,-0.00349812,10.3536,10.3281,-0.00077194,5.17719,10.3536,10.3281,-0.000771942,10.3416,213,10.7487,7.51197,0.525,3584
-5.27622e-08,6.74568e-08,-2.99228e-06,-3.31001e-05,-3.44065e-05,-0.00349801,10.3424,10.3385,-0.000579889,5.17246,10.3443,10.3366,-0.000579893,10.341,213,11.801,7.99458,0.525,3585
-8.50199e-08,7.11894e-08,-2.99062e-06,-3.99488e-05,-3.56481e-05,-0.00349359,10.3104,10.3232,0.000996429,5.16181,10.3246,10.309,0.000996412,10.3158,213,12.6796,7.8572,0.525,3586
3.09888e-10,1.03725e-07,-2.99143e-06,-2.80962e-05,-4.43427e-05,-0.00349532,10.3503,10.3018,0.000344353,5.17498,10.3503,10.3018,0.000344346,10.3258,213,10.0483,7.0581,0.525,3587
1.99177e-08,1.25488e-07,-2.98924e-06,-2.86027e-05,-5.00675e-05,-0.00349224,10.3387,10.2747,-0.000469921,5.16961,10.3388,10.2746,-0.000469921,10.3073,213,9.34445,6.59796,0.525,3588
4.48969e-08,1.51236e-07,-2.98659e-06,-3.05875e-05,-5.82079e-05,-0.0034869,10.3177,10.2352,0.000304088,5.15879,10.3179,10.235,0.000304066,10.2764,213,8.48392,6.10168,0.525,3589
7.50266e-08,1.57512e-07,-2.98615e-06,-3.78596e-05,-5.95063e-05,-0.00348263,10.2823,10.2177,-0.000591921,5.14173,10.2829,10.2171,-0.000591924,10.2507,213,7.60209,5.96957,0.525,3590
7.08289e-08,1.08123e-07,-2.99007e-06,-3.74938e-05,-4.35443e-05,-0.00349106,10.3084,10.2904,-0.000736437,5.15499,10.3092,10.2896,-0.000737099,10.3002,213,7.75953,6.92978,0.525,3591
5.28988e-08,6.5609e-08,-2.99265e-06,-3.26419e-05,-3.3963e-05,-0.00349827,10.3458,10.3419,0.000686454,5.17325,10.3472,10.3405,0.000686142,10.3432,213,8.30529,8.03982,0.525,3592
2.06419e-08,8.44673e-08,-2.99216e-06,-2.91604e-05,-3.7919e-05,-0.0034981,10.3553,10.3291,0.000204995,5.17758,10.3554,10.329,0.000204528,10.342,213,9.34518,7.52203,0.525,3593
8.5176e-08,6.93349e-08,-2.99146e-06,-3.95881e-05,-3.52163e-05,-0.00349403,10.3126,10.3256,0.000798431,5.16275,10.3263,10.3119,0.000798226,10.3183,213,7.42346,7.90771,0.525,3594
6.24706e-07,9.78196e-08,-2.98336e-06,-0.000281007,-3.76137e-05,-0.00336922,9.21445,9.94099,-0.00410185,4.9726,9.94111,9.21434,-0.00410298,9.60247,213,2.07678,6.96984,0.525,3595
5.31537e-07,6.07521e-08,-2.99562e-06,-0.000193403,-3.1714e-05,-0.00341782,9.61838,10.101,-0.00672859,5.05392,10.1011,9.61828,-0.0067341,9.87528,213,2.43966,8.00324,0.525,3596
4.03384e-07,7.17146e-08,-2.98301e-06,-0.000136724,-3.39723e-05,-0.00344395,9.87729,10.184,0.00497469,5.09009,10.1851,9.87614,0.00497444,10.0292,213,3.17039,7.67109,0.525,3597
3.77961e-07,1.36429e-07,-2.96886e-06,-0.000127849,-4.98119e-05,-0.00344089,9.89138,10.1243,0.00169908,5.06139,10.1245,9.89121,0.00169906,10.0082,213,3.36351,6.13166,0.525,3598
5.52687e-07,1.36878e-07,-2.98236e-06,-0.000210734,-5.24309e-05,-0.00339943,9.50429,9.97683,-0.0142091,4.99555,9.97688,9.50424,-0.01421,9.76335,213,2.32212,6.04788,0.525,3599
3.29659e-07,9.0221e-08,-2.97415e-06,-0.000108895,-3.85823e-05,-0.00345465,10.0001,10.21,0.0127603,5.09863,10.21,10.0001,0.0127601,10.0939,213,3.77834,7.19748,0.525,3600
3.0282e-07,6.57601e-08,-2.97196e-06,-9.83506e-05,-3.31451e-05,-0.00346659,10.0444,10.239,-0.010098,5.12552,10.2409,10.0425,-0.010099,10.1533,213,4.08768,7.88204,0.525,3601
-6.27312e-07,-5.88592e-08,-2.98517e-06,-0.000285858,-3.12415e-05,-0.00340036,9.10602,9.86607,-0.19101,5.03005,9.86803,9.10512,-0.192074,9.70118,213,18.0216,12.5592,0.525,3602
-5.23499e-07,-2.88741e-08,-3.00113e-06,-0.000199055,-2.64124e-05,-0.00331346,9.93137,10.4467,0.634619,4.92242,10.4631,9.93136,0.618244,9.59004,213,17.6522,11.5323,0.525,3603
-3.86402e-07,-3.95681e-08,-2.99173e-06,-0.000125303,-2.7925e-05,-0.00346728,9.89278,10.1835,-0.0832868,5.13355,10.1837,9.89263,-0.0833647,10.1247,213,16.8419,11.9178,0.525,3604
-3.8503e-07,-8.67592e-08,-2.97404e-06,-0.000134592,-3.50353e-05,-0.0034434,9.88878,10.186,0.0117434,5.08728,10.1863,9.8885,0.0117346,10.029,213,16.7365,13.3896,0.525,3605
-5.64961e-07,-8.67507e-08,-2.97839e-06,-0.00021206,-3.65102e-05,-0.00339979,9.54548,10.0695,0.0298637,5.0199,10.0696,9.54536,0.0298365,9.7882,213,17.7779,13.4764,0.525,3606
-3.53117e-07,-6.29476e-08,-2.98089e-06,-0.000119152,-3.23551e-05,-0.00345435,9.95761,10.2167,0.00179279,5.10796,10.2177,9.9566,0.00179022,10.0879,213,16.5241,12.6934,0.525,3607
-3.09247e-07,-4.31518e-08,-2.98096e-06,-9.61939e-05,-2.88736e-05,-0.00347425,10.0469,10.2478,-0.0368824,5.14265,10.2484,10.0463,-0.036884,10.1857,213,16.127,12.0551,0.525,3608
5.65115e-07,-8.85803e-08,-2.98052e-06,-0.000209187,-3.85246e-05,-0.00340856,9.52897,10.0384,-0.0213804,5.02998,10.0386,9.5288,-0.0213831,9.815,213,2.30616,13.5156,0.525,3609
3.89361e-07,-8.63445e-08,-2.9725e-06,-0.000131657,-3.58009e-05,-0.00344584,9.8967,10.1828,0.00361831,5.08959,10.1828,9.8967,0.00361827,10.0392,213,3.33592,13.4161,0.525,3610
6.51286e-07,-6.15688e-08,-2.98261e-06,-0.000296643,-3.08258e-05,-0.00335869,9.17311,9.9666,0.03268,4.96697,9.96661,9.17311,0.0326745,9.56191,213,2.00133,12.652,0.525,3611
3.65267e-07,-6.12836e-08,-2.97646e-06,-0.000120823,-3.17383e-05,-0.00345084,9.96043,10.2264,0.020093,5.10327,10.2266,9.9602,0.0200909,10.076,213,3.52036,12.6833,0.525,3612
5.95556e-07,-3.85381e-08,-2.99515e-06,-0.000245831,-2.81875e-05,-0.00339089,9.39217,10.0418,0.00391971,5.01917,10.0422,9.39173,0.0039161,9.72939,213,2.16315,11.8716,0.525,3613
5.34234e-07,-1.92603e-08,-2.99799e-06,-0.000200806,-2.34561e-05,-0.00340578,9.63719,10.1666,0.0701117,5.04827,10.1667,9.63714,0.0701059,9.84248,213,2.42247,11.1443,0.525,3614
4.21427e-07,-3.80842e-08,-2.98293e-06,-0.000139699,-2.66375e-05,-0.00345609,9.84373,10.1812,-0.0559549,5.11876,10.1815,9.84348,-0.056017,10.0728,213,3.0652,11.8816,0.525,3615
3.35837e-07,-3.94726e-08,-2.97656e-06,-0.000106377,-2.76874e-05,-0.00346623,10.0134,10.2483,-0.0160083,5.1324,10.2488,10.0129,-0.0160113,10.1489,213,3.77969,11.956,0.525,3616
-5.57029e-07,1.38411e-07,-2.98264e-06,-0.000212327,-5.09616e-05,-0.00339923,9.49977,9.98145,-0.0133835,4.99743,9.98147,9.49976,-0.0133913,9.76292,213,17.7779,6.02355,0.525,3617
-3.76806e-07,1.38551e-07,-2.97163e-06,-0.0001321,-4.96339e-05,-0.00343588,9.88168,10.1279,0.01966,5.05414,10.1279,9.88166,0.0196562,9.98741,213,16.7365,6.11038,0.525,3618
-6.35682e-07,1.01724e-07,-2.9829e-06,-0.000289107,-3.93788e-05,-0.00333093,9.28043,10.0259,0.200372,4.91384,10.027,9.28036,0.199329,9.47644,213,18.0718,6.87962,0.525,3619
-3.19679e-07,9.40006e-08,-2.97915e-06,-0.000106599,-4.01786e-05,-0.0034531,10.014,10.2123,0.0244714,5.09395,10.2124,10.014,0.0244456,10.0902,213,16.2875,7.12198,0.525,3620
-5.77166e-07,7.20509e-08,-2.99692e-06,-0.000245037,-3.4973e-05,-0.00336603,9.45441,10.0815,0.138024,4.97297,10.0829,9.45397,0.137015,9.64683,213,17.9033,7.66162,0.525,3621
-5.28885e-07,4.78052e-08,-3.0027e-06,-0.000203297,-2.85753e-05,-0.00334126,9.81024,10.3318,0.443194,4.95343,10.3409,9.81021,0.434081,9.65245,213,17.6958,8.41377,0.525,3622
-4.08296e-07,7.11201e-08,-2.99551e-06,-0.000136835,-3.44546e-05,-0.00344654,9.86687,10.1725,-0.0128308,5.09301,10.1732,9.86622,-0.0128512,10.0361,213,17.0315,7.6961,0.525,3623
-3.04871e-07,6.62394e-08,-2.97769e-06,-9.46334e-05,-3.35114e-05,-0.00347449,10.041,10.2235,-0.0480788,5.13751,10.2269,10.0377,-0.0481492,10.1818,213,16.0801,7.87413,0.525,3624
-3.89633e-08,-8.80402e-08,-2.9911e-06,-3.04244e-05,-4.0117e-05,-0.00349715,10.3435,10.3146,-0.00492762,5.1743,10.3437,10.3144,-0.00492931,10.334,213,11.4022,13.3203,0.525,3625
-5.73629e-08,-5.8094e-08,-2.99241e-06,-3.51625e-05,-3.19937e-05,-0.00349794,10.3376,10.3471,0.000988434,5.17333,10.3477,10.337,0.000987936,10.3414,213,11.9434,12.4983,0.525,3626
-9.40616e-09,-7.80006e-08,-2.99202e-06,-2.83291e-05,-3.72698e-05,-0.00349879,10.3603,10.3336,0.000667531,5.17987,10.3604,10.3335,0.000666886,10.3463,213,10.3889,13.0451,0.525,3627
-3.35211e-08,-3.35824e-08,-2.99376e-06,-2.93666e-05,-2.80459e-05,-0.00350472,10.3643,10.3683,-0.00984787,5.18947,10.3691,10.3635,-0.00985201,10.3762,213,11.1798,11.6713,0.525,3628
3.54727e-10,-4.36272e-08,-2.99376e-06,-2.94773e-05,-2.95223e-05,-0.00350287,10.3648,10.3647,-0.00354725,5.18441,10.3653,10.3642,-0.00354775,10.3683,213,10.0314,12.0153,0.525,3629
1.90675e-08,-6.06231e-08,-2.99301e-06,-2.87812e-05,-3.38069e-05,-0.00350119,10.3609,10.3459,-0.0045346,5.18273,10.3609,10.3459,-0.00454669,10.358,213,9.39117,12.5494,0.525,3630
4.21794e-08,-5.56902e-08,-2.99306e-06,-3.08168e-05,-3.2299e-05,-0.00350009,10.3566,10.3521,0.00051535,5.17823,10.357,10.3517,0.000513867,10.3538,213,8.61718,12.4013,0.525,3631
8.08929e-08,-7.00912e-08,-2.99119e-06,-3.95586e-05,-3.4058e-05,-0.00349449,10.3149,10.3313,0.00168242,5.1654,10.3325,10.3137,0.00167856,10.3214,213,7.50597,12.8636,0.525,3632
3.10814e-08,-9.29682e-08,-2.99059e-06,-2.99613e-05,-3.97532e-05,-0.00349248,10.3623,10.3331,0.0264459,5.16798,10.3624,10.333,0.0264426,10.3213,213,8.97468,13.431,0.525,3633
5.1097e-08,-1.21504e-07,-2.98687e-06,-3.06574e-05,-4.79458e-05,-0.00349737,10.3166,10.265,-0.0318255,5.17455,10.3172,10.2644,-0.0318577,10.3228,213,8.28744,14.1066,0.525,3634
7.76625e-08,-1.10106e-07,-2.9876e-06,-3.88794e-05,-4.40744e-05,-0.00348805,10.3078,10.2923,0.0117517,5.14897,10.3097,10.2904,0.011737,10.2883,213,7.53327,13.8841,0.525,3635
-9.87549e-08,4.49954e-08,-2.98961e-06,-4.53429e-05,-2.78475e-05,-0.00349508,10.2972,10.3494,-0.000556125,5.17518,10.3498,10.2968,-0.000556132,10.324,213,12.9712,8.66978,0.525,3636
-1.56216e-07,3.1461e-08,-2.9818e-06,-6.05338e-05,-2.60787e-05,-0.00348798,10.2317,10.3346,0.000554325,5.16714,10.3348,10.2315,0.000554307,10.283,213,14.0412,9.12916,0.525,3637
-1.21277e-07,7.96363e-08,-2.98743e-06,-5.00347e-05,-3.7452e-05,-0.00348751,10.2618,10.2994,0.000724474,5.15004,10.3008,10.2604,0.000724469,10.2799,213,13.4973,7.5796,0.525,3638
-1.83758e-07,6.83545e-08,-2.98167e-06,-6.55161e-05,-3.38239e-05,-0.00348145,10.1972,10.2918,0.000438539,5.14602,10.2925,10.1965,0.000438534,10.2444,213,14.5625,7.84609,0.525,3639
-2.34343e-07,6.20569e-08,-2.97516e-06,-7.80091e-05,-3.2618e-05,-0.00346929,10.1627,10.2982,0.039448,5.13,10.2994,10.1615,0.0394288,10.1917,213,15.2531,8.02204,0.525,3640
-1.82265e-07,4.61872e-08,-2.97918e-06,-6.72614e-05,-2.81442e-05,-0.00348367,10.1975,10.3142,-0.000787945,5.15799,10.3152,10.1965,-0.000787957,10.2572,213,14.4795,8.56812,0.525,3641
1.56915e-07,3.02395e-08,-2.98521e-06,-5.96472e-05,-2.65385e-05,-0.00348837,10.2345,10.3334,-0.000467747,5.16697,10.3335,10.2344,-0.000467798,10.2848,213,6.00343,9.16216,0.525,3642
9.86555e-08,4.36725e-08,-2.99129e-06,-4.48035e-05,-2.84128e-05,-0.003495,10.2989,10.3479,-0.000166081,5.17412,10.3481,10.2987,-0.000166122,10.3237,213,7.11264,8.71051,0.525,3643
1.22934e-07,7.91801e-08,-2.98885e-06,-5.00513e-05,-3.73927e-05,-0.0034879,10.2607,10.2985,-0.00155393,5.15043,10.2993,10.2599,-0.00155454,10.2812,213,6.56687,7.60047,0.525,3644
1.88272e-07,6.67011e-08,-2.9826e-06,-6.80283e-05,-3.35103e-05,-0.00348048,10.1858,10.2889,-0.000578821,5.14491,10.2892,10.1855,-0.000578825,10.2383,213,5.47584,7.90586,0.525,3645
2.39104e-07,6.02636e-08,-2.97471e-06,-8.09007e-05,-3.19858e-05,-0.00347434,10.1309,10.2769,0.00124603,5.13809,10.2774,10.1304,0.00124596,10.2034,213,4.7995,8.08113,0.525,3646
1.83005e-07,4.60419e-08,-2.98223e-06,-6.79738e-05,-2.87019e-05,-0.00348286,10.1939,10.3111,0.000185768,5.15559,10.3114,10.1936,0.000185712,10.2528,213,5.57971,8.57855,0.525,3647
-2.31611e-06,-7.54695e-08,-2.49476e-06,-0.00166794,-3.07657e-05,-0.00262663,3.05245,7.93953,0.190666,3.88362,7.94885,3.05219,0.181606,6.80248,213,20.2,12.675,0.51375,3648
-2.33238e-06,4.41824e-08,-2.47139e-06,-0.00149661,-3.21313e-05,-0.00273901,3.74648,8.11807,0.0378383,4.05012,8.12855,3.74554,0.0283055,7.02291,213,20.2,8.775,0.51375,3649
-2.33208e-06,2.3831e-07,-2.43788e-06,-0.00162131,-8.67964e-05,-0.00266309,3.04614,7.62679,-0.0636532,3.84772,7.62929,3.04614,-0.0661534,6.7049,213,20.2,4.875,0.51375,3650
-2.26406e-06,4.40255e-07,-2.39788e-06,-0.00165778,-0.000153772,-0.00259907,2.81231,7.30187,0.00249017,3.65515,7.30762,2.81174,-0.0026883,6.38649,213,20.2,2.925,0.51375,3651
-2.31254e-06,1.18489e-07,-2.49232e-06,-0.00168281,-4.13206e-05,-0.00264263,2.87668,7.77664,0.0115258,3.8843,7.77861,2.87621,0.0100201,6.8044,213,20.2,6.825,0.51375,3652
-2.33247e-06,-1.21143e-08,-2.47513e-06,-0.00148645,-3.03776e-05,-0.00274405,3.79862,8.14512,0.0446183,4.05357,8.14895,3.7976,0.0418049,7.0273,213,20.2,10.725,0.51375,3653
-2.36612e-06,-1.65908e-07,-2.41769e-06,-0.00162994,-6.98828e-05,-0.00265809,3.06254,7.71944,-0.00654455,3.86689,7.72334,3.06255,-0.0104536,6.74454,213,20.2,14.625,0.51375,3654
-2.30803e-06,-3.39753e-07,-2.41017e-06,-0.00173588,-0.000125549,-0.0025612,2.54108,7.34803,0.0774303,3.63999,7.35299,2.54054,0.0730068,6.41275,213,20.2,16.575,0.51375,3655
-2.18474e-06,9.8132e-07,-2.31104e-06,-0.00192024,-0.000667881,-0.00218274,0.886264,4.62464,0.102659,2.28696,4.65085,0.885773,0.0769396,4.22792,213,20.2,0.975,0.51375,3656
-2.1614e-06,-7.94495e-07,-2.3826e-06,-0.00192858,-0.00062713,-0.00219774,0.916575,4.8015,0.113107,2.3691,4.82715,0.915075,0.0889567,4.38391,213,20.2,18.525,0.51375,3657
-2.09768e-06,1.38378e-06,-2.20299e-06,-0.0018941,-0.000976721,-0.00204412,0.507291,3.24575,0.0594766,1.6322,3.26372,0.549486,-0.000688848,3.02706,213,20.2,0.4875,0.519375,3658
-2.08658e-06,1.37901e-06,-2.17988e-06,-0.00187962,-0.000970003,-0.00204713,0.60822,3.32351,0.108217,1.66152,3.34967,0.663655,0.0266231,3.05476,213,20.2,0.4875,0.508125,3659
-2.20909e-06,7.29684e-07,-2.37806e-06,-0.001946,-0.000361798,-0.0023717,1.09913,5.82809,-0.171613,3.01417,5.83712,1.10969,-0.19121,5.49462,213,20.2,1.4625,0.508125,3660
-2.22019e-06,7.30352e-07,-2.40483e-06,-0.00195888,-0.000363584,-0.00236244,1.04353,5.8056,-0.161141,2.99751,5.80974,1.06353,-0.18528,5.47843,213,20.2,1.4625,0.519375,3661
-2.0395e-06,-1.17679e-06,-2.34978e-06,-0.00191293,-0.000938788,-0.00204718,0.502031,3.4099,0.101282,1.68602,3.42984,0.52558,0.0577975,3.16419,213,20.2,19.0125,0.519375,3662
-2.0292e-06,-1.17399e-06,-2.32656e-06,-0.00189906,-0.000933457,-0.00206299,0.554136,3.43654,0.064807,1.7509,3.45712,0.643038,-0.0446749,3.21361,213,20.2,19.0125,0.508125,3663
-2.2034e-06,-5.64128e-07,-2.40421e-06,-0.00194349,-0.00031784,-0.00238818,1.20174,6.05443,-0.125674,3.11175,6.07041,1.21317,-0.153085,5.66531,213,20.2,18.0375,0.508125,3664
-2.21399e-06,-5.64187e-07,-2.43125e-06,-0.00195683,-0.000318073,-0.00239304,1.10345,5.99527,-0.198659,3.10623,5.99744,1.11763,-0.215014,5.66494,213,20.2,18.0375,0.519375,3665
-2.26241e-06,3.74611e-07,-2.38898e-06,-0.00166066,-0.000115387,-0.00262368,2.83824,7.451,-0.0364366,3.75177,7.46039,2.83556,-0.0431476,6.55665,213,20.2,3.4125,0.508125,3666
-2.23131e-06,5.24673e-07,-2.39298e-06,-0.00164781,-0.00019242,-0.0025923,2.77255,7.11699,-0.0468439,3.58916,7.12412,2.77277,-0.0541968,6.26316,213,20.2,2.4375,0.508125,3667
-2.2401e-06,5.24463e-07,-2.42209e-06,-0.00165404,-0.000191809,-0.00258251,2.76717,7.13204,-0.00436829,3.57008,7.1338,2.7674,-0.00636184,6.23463,213,20.2,2.4375,0.519375,3668
-2.1822e-06,6.27603e-07,-2.43271e-06,-0.00168306,-0.000187279,-0.00258094,2.60787,7.07287,-0.0723933,3.57381,7.07439,2.60718,-0.0732214,6.25415,213,20.2,1.95,0.51375,3669
-2.32493e-06,1.97014e-07,-2.43506e-06,-0.00161332,-8.19716e-05,-0.00265509,3.13605,7.70725,0.0263103,3.84861,7.71605,3.13474,0.0188225,6.70614,213,20.2,5.3625,0.508125,3670
-2.29979e-06,2.81746e-07,-2.41467e-06,-0.00162358,-9.17761e-05,-0.00266167,3.0209,7.59345,-0.0778773,3.84183,7.60021,3.0197,-0.0834441,6.69512,213,20.2,4.3875,0.508125,3671
-2.30754e-06,2.81949e-07,-2.44447e-06,-0.00162805,-9.17149e-05,-0.0026485,3.03532,7.62141,-0.0107965,3.81778,7.62365,3.03418,-0.011896,6.65746,213,20.2,4.3875,0.519375,3672
-2.24408e-06,3.2779e-07,-2.42506e-06,-0.00163685,-9.06064e-05,-0.00264431,2.99799,7.61364,-0.00936613,3.81436,7.61656,2.99786,-0.0121561,6.65544,213,20.2,3.9,0.51375,3673
-2.27085e-06,3.74701e-07,-2.41844e-06,-0.00166615,-0.000115374,-0.00261446,2.83371,7.4629,0.0029428,3.73272,7.46704,2.83091,0.00159996,6.52808,213,20.2,3.4125,0.519375,3674
-2.29024e-06,9.83379e-08,-2.48603e-06,-0.00165275,-4.12631e-05,-0.002676,2.95609,7.7665,-0.098376,3.94084,7.776,2.95389,-0.105679,6.88239,213,20.2,7.3125,0.508125,3675
-2.3088e-06,1.3839e-07,-2.46569e-06,-0.00170613,-4.09145e-05,-0.0026439,2.73032,7.70113,-0.0689713,3.89063,7.70671,2.73031,-0.0745403,6.82568,213,20.2,6.3375,0.508125,3676
-2.33243e-06,1.97356e-07,-2.46491e-06,-0.00161827,-8.17491e-05,-0.00266396,3.07812,7.66476,-0.0433341,3.85548,7.66686,3.07679,-0.0440994,6.71817,213,20.2,5.3625,0.519375,3677
-2.29409e-06,1.58479e-07,-2.46588e-06,-0.00165154,-6.02512e-05,-0.00265384,2.97361,7.72372,-0.0183376,3.87514,7.72845,2.97237,-0.0218284,6.7695,213,20.2,5.85,0.51375,3678
-2.31601e-06,1.38735e-07,-2.49544e-06,-0.00171139,-4.11381e-05,-0.00264171,2.70421,7.69004,-0.0728517,3.88161,7.69021,2.7042,-0.0730149,6.81326,213,20.2,6.3375,0.519375,3679
-2.34568e-06,2.92261e-08,-2.44727e-06,-0.00150351,-2.97104e-05,-0.00274374,3.69669,8.0961,-0.00547936,4.06205,8.10744,3.69653,-0.0166607,7.04432,213,20.2,9.2625,0.508125,3680
-2.29762e-06,6.05981e-08,-2.47082e-06,-0.00148338,-3.46994e-05,-0.00272996,3.84851,8.17293,0.127374,4.04157,8.19293,3.84609,0.109792,7.00686,213,20.2,8.2875,0.508125,3681
-2.30503e-06,6.03454e-08,-2.50148e-06,-0.00148796,-3.47384e-05,-0.0027289,3.82355,8.16153,0.11927,4.02651,8.16813,3.82112,0.115103,6.98148,213,20.2,8.2875,0.519375,3682
-2.25686e-06,7.8037e-08,-2.507e-06,-0.00152952,-3.82418e-05,-0.00271806,3.59099,8.04255,0.0431061,4.00702,8.05018,3.59032,0.0361462,6.95512,213,20.2,7.8,0.51375,3683
-2.29733e-06,9.82646e-08,-2.51622e-06,-0.00165794,-4.17746e-05,-0.00267383,2.92942,7.75379,-0.103086,3.92997,7.75636,2.92733,-0.103572,6.86602,213,20.2,7.3125,0.519375,3684
-2.29813e-06,-2.76727e-08,-2.47717e-06,-0.00147346,-3.26512e-05,-0.00274539,3.86714,8.16807,0.0703526,4.05637,8.17686,3.8646,0.0641057,7.03051,213,20.2,11.2125,0.508125,3685
-2.346e-06,2.08715e-09,-2.44886e-06,-0.00149445,-2.83622e-05,-0.00274538,3.75157,8.12794,0.0174422,4.0621,8.13488,3.7514,0.0106749,7.04311,213,20.2,10.2375,0.508125,3686
-2.35275e-06,2.90718e-08,-2.47815e-06,-0.00150868,-2.93634e-05,-0.00274271,3.66925,8.08512,-0.0144181,4.05198,8.0874,3.66911,-0.0165612,7.02779,213,20.2,9.2625,0.519375,3687
-2.35251e-06,1.53826e-08,-2.46011e-06,-0.00150774,-2.62243e-05,-0.00274565,3.67569,8.09812,-0.0195573,4.06112,8.10041,3.67569,-0.0218414,7.04346,213,20.2,9.75,0.51375,3688
-2.3527e-06,2.24585e-09,-2.47972e-06,-0.00149924,-2.80347e-05,-0.00274386,3.72791,8.11958,0.0126445,4.05404,8.12024,3.72773,0.0121597,7.02996,213,20.2,10.2375,0.519375,3689
-2.32168e-06,-8.96651e-08,-2.4499e-06,-0.00169121,-2.91234e-05,-0.00263684,2.882,7.84345,0.0592139,3.90538,7.85673,2.88195,0.04598,6.84832,213,20.2,13.1625,0.508125,3690
-2.28918e-06,-5.99959e-08,-2.49699e-06,-0.00163763,-3.168e-05,-0.00267725,3.07558,7.86947,-0.0277645,3.95838,7.8803,3.07346,-0.0364655,6.90842,213,20.2,12.1875,0.508125,3691
-2.29626e-06,-6.01239e-08,-2.5272e-06,-0.00164268,-3.3264e-05,-0.00267558,3.0448,7.84902,-0.0384803,3.94549,7.85192,3.04248,-0.0390655,6.88819,213,20.2,12.1875,0.519375,3692
-2.25631e-06,-4.3845e-08,-2.51679e-06,-0.00151643,-3.43984e-05,-0.00274611,3.59477,8.01874,-0.0759312,4.04841,8.02023,3.59395,-0.0765979,7.02223,213,20.2,11.7,0.51375,3693
-2.30424e-06,-2.72142e-08,-2.50808e-06,-0.00147647,-3.24353e-05,-0.00274432,3.85271,8.16326,0.0680774,4.049,8.16597,3.85011,0.0679731,7.01814,213,20.2,11.2125,0.519375,3694
-2.32682e-06,-2.0152e-07,-2.41483e-06,-0.00163344,-7.56758e-05,-0.00265235,3.04081,7.69086,-0.000707471,3.85464,7.70108,3.03809,-0.00820291,6.72519,213,20.2,15.1125,0.508125,3695
-2.35905e-06,-1.33237e-07,-2.4002e-06,-0.00162125,-6.43919e-05,-0.00266304,3.1178,7.76513,0.00798041,3.88618,7.77325,3.11678,0.000884014,6.775,213,20.2,14.1375,0.508125,3696
-2.32972e-06,-9.038e-08,-2.47968e-06,-0.00169633,-2.8755e-05,-0.00263608,2.85405,7.83189,0.048834,3.89422,7.83461,2.854,0.0461635,6.83192,213,20.2,13.1625,0.519375,3697
-2.32223e-06,-1.03673e-07,-2.4222e-06,-0.00164993,-4.53152e-05,-0.0026662,2.99168,7.78157,-0.04198,3.91526,7.78596,2.98986,-0.0445527,6.83839,213,20.2,13.65,0.51375,3698
-2.36706e-06,-1.33395e-07,-2.43015e-06,-0.0016255,-6.32709e-05,-0.00266197,3.09856,7.76193,0.00463551,3.88007,7.76387,3.09752,0.00373374,6.76631,213,20.2,14.1375,0.519375,3699
-2.26061e-06,-4.06567e-07,-2.40304e-06,-0.00174364,-0.000148826,-0.00256818,2.39734,7.15796,-0.0639929,3.61966,7.16651,2.39761,-0.072818,6.3739,213,20.2,17.0625,0.508125,3700
-2.3013e-06,-2.84162e-07,-2.40683e-06,-0.00172074,-0.00010225,-0.00259748,2.59311,7.42442,-0.0240228,3.73376,7.43674,2.58755,-0.0307777,6.56254,213,20.2,16.0875,0.508125,3701
-2.33483e-06,-2.01354e-07,-2.44465e-06,-0.00163794,-7.61107e-05,-0.00265055,3.01743,7.67962,-0.00529191,3.84489,7.68343,3.01468,-0.00635436,6.71032,213,20.2,15.1125,0.519375,3702
-2.2578e-06,-2.39896e-07,-2.45132e-06,-0.00165791,-8.20549e-05,-0.00264411,2.89612,7.60015,-0.0477759,3.82675,7.60302,2.89597,-0.0504872,6.68633,213,20.2,15.6,0.51375,3703
-2.30965e-06,-2.84218e-07,-2.43602e-06,-0.00172641,-0.00010263,-0.00258035,2.61131,7.45842,0.062246,3.70275,7.46586,2.60577,0.0603495,6.51695,213,20.2,16.0875,0.519375,3704
-2.26911e-06,-4.06493e-07,-2.43208e-06,-0.00175028,-0.000148098,-0.00258113,2.31769,7.10032,-0.162453,3.63268,7.10161,2.31768,-0.163739,6.39644,213,20.2,17.0625,0.519375,3705
-2.17661e-06,-4.8448e-07,-2.44359e-06,-0.00166742,-0.000143514,-0.00261491,2.73523,7.28419,-0.0931126,3.69017,7.28609,2.73448,-0.0942558,6.44935,213,20.2,17.55,0.51375,3706
-3.8123e-07,-1.90144e-06,-2.66757e-06,-0.000154838,-0.00168121,-0.00259032,7.24873,2.69239,-0.0213672,3.64156,7.2574,2.68807,-0.0257206,6.37523,213,17.4318,19.5,0.51375,3707
-1.06973e-07,-2.00834e-06,-2.65279e-06,-2.62229e-05,-0.0018036,-0.00250992,7.90739,2.60178,0.493371,3.72676,7.92699,2.60208,0.47347,6.64983,213,13.7409,19.5,0.51375,3708
1.09126e-07,-1.9833e-06,-2.67056e-06,-2.79127e-05,-0.00176567,-0.00256353,7.84724,2.6599,0.278232,3.79046,7.85328,2.65973,0.272354,6.71353,213,6.35909,19.5,0.51375,3709
1.9845e-07,-1.88972e-06,-2.69855e-06,-8.12273e-05,-0.00158383,-0.00268566,7.70841,3.22304,-0.0660115,3.89255,7.71456,3.22141,-0.0705393,6.76879,213,4.51364,19.5,0.51375,3710
-4.64697e-08,-1.99635e-06,-2.67996e-06,-2.33504e-05,-0.00167216,-0.00264511,7.91316,2.99132,0.0869974,3.91842,7.91894,2.99045,0.0820899,6.86166,213,11.8955,19.5,0.51375,3711
4.78057e-08,-1.98011e-06,-2.68624e-06,-2.35739e-05,-0.00166372,-0.0026525,7.91513,3.01917,0.0675875,3.9292,7.92111,3.01808,0.0627066,6.87489,213,8.20455,19.5,0.51375,3712
3.78552e-07,-1.87054e-06,-2.67365e-06,-0.000157373,-0.00161212,-0.0026354,7.30928,2.96676,-0.0878097,3.7044,7.31667,2.96369,-0.0921305,6.44891,213,2.66818,19.5,0.51375,3713
9.17115e-07,-1.89113e-06,-2.51636e-06,-0.000688722,-0.00188415,-0.00218342,4.60863,1.04018,0.146846,2.26109,4.6405,1.03684,0.118314,4.14006,213,0.822727,19.5,0.51375,3714
-1.99021e-07,-1.87561e-06,-2.70068e-06,-7.9628e-05,-0.00159269,-0.00268393,7.69562,3.17901,-0.0784277,3.89243,7.70151,3.17804,-0.0833526,6.77136,213,15.5864,19.5,0.51375,3715
-2.55867e-10,-1.97371e-06,-2.70319e-06,-3.56581e-05,-0.00150435,-0.00275585,8.01842,3.63425,-0.101552,4.06232,8.02077,3.63422,-0.103872,7.04361,213,10.05,19.5,0.51375,3716
-9.11218e-07,-1.8839e-06,-2.53259e-06,-0.000688385,-0.00187474,-0.00218748,4.62769,1.08632,0.152787,2.26505,4.65755,1.08181,0.127439,4.13634,213,19.2773,19.5,0.51375,3717
1.30843e-06,-1.84151e-06,-2.40355e-06,-0.00100061,-0.00187124,-0.00203404,3.20312,0.604231,0.118258,1.5817,3.23407,0.62087,0.0706695,2.92734,213,0.361364,19.5,0.519375,3718
1.30324e-06,-1.83308e-06,-2.38045e-06,-0.000993599,-0.00185803,-0.00205152,3.23278,0.652386,0.0748143,1.65191,3.26434,0.735127,-0.0394859,2.99267,213,0.361364,19.5,0.508125,3719
6.70018e-07,-1.88138e-06,-2.60124e-06,-0.000379258,-0.00189666,-0.00238644,5.83033,1.30076,-0.16125,3.01973,5.84641,1.31648,-0.193053,5.44399,213,1.28409,19.5,0.508125,3720
6.71221e-07,-1.88941e-06,-2.6283e-06,-0.00038076,-0.00190867,-0.00238911,5.77451,1.21357,-0.220579,3.00893,5.77665,1.23207,-0.241216,5.43316,213,1.28409,19.5,0.519375,3721
-1.29676e-06,-1.82691e-06,-2.40648e-06,-0.000990768,-0.00185818,-0.00205482,3.23926,0.649967,0.0629964,1.66065,3.27517,0.723183,-0.0461309,3.01127,213,19.7386,19.5,0.508125,3722
-1.30157e-06,-1.83476e-06,-2.42962e-06,-0.000996887,-0.00187032,-0.00203593,3.22298,0.615708,0.121354,1.59111,3.25745,0.627372,0.0752202,2.94523,213,19.7386,19.5,0.519375,3723
-6.6348e-07,-1.86187e-06,-2.61447e-06,-0.000382045,-0.00187837,-0.0024036,5.81676,1.35012,-0.217731,3.03252,5.8261,1.36199,-0.238942,5.44408,213,18.8159,19.5,0.508125,3724
-6.64641e-07,-1.86948e-06,-2.64162e-06,-0.000383743,-0.001889,-0.00239044,5.81433,1.32101,-0.175809,3.00896,5.81831,1.34083,-0.199607,5.41462,213,18.8159,19.5,0.519375,3725
-3.18298e-07,-1.933e-06,-2.64558e-06,-0.000118681,-0.00171313,-0.002576,7.41552,2.65596,0.0802481,3.67962,7.42837,2.65422,0.0691373,6.46658,213,16.9705,19.5,0.508125,3726
-4.61154e-07,-1.84551e-06,-2.66765e-06,-0.000190952,-0.00164367,-0.00262199,7.04498,2.70851,-0.211862,3.6381,7.05896,2.6999,-0.217235,6.34248,213,17.8932,19.5,0.508125,3727
-4.60989e-07,-1.85081e-06,-2.69706e-06,-0.000191883,-0.00164801,-0.00260136,7.09093,2.7443,-0.101549,3.60181,7.10093,2.73544,-0.102685,6.28508,213,17.8932,19.5,0.519375,3728
-5.57833e-07,-1.77656e-06,-2.70447e-06,-0.000203838,-0.00155043,-0.00264951,7.17411,3.15444,-0.126402,3.65301,7.17869,3.15079,-0.127333,6.3383,213,18.3545,19.5,0.51375,3729
-1.6214e-07,-1.8575e-06,-2.69438e-06,-7.95352e-05,-0.00150953,-0.00271681,7.85567,3.58703,-0.0168104,3.94741,7.86687,3.58697,-0.0279498,6.84519,213,15.125,19.5,0.508125,3730
-2.35485e-07,-1.9033e-06,-2.6693e-06,-7.94473e-05,-0.00166978,-0.00263404,7.61046,2.86319,-0.0151998,3.82609,7.62502,2.86058,-0.0271497,6.69308,213,16.0477,19.5,0.508125,3731
-2.72305e-07,-1.95202e-06,-2.65997e-06,-8.02549e-05,-0.00175091,-0.00259557,7.4702,2.48318,-0.0382019,3.75821,7.47452,2.48255,-0.0418953,6.6253,213,16.5091,19.5,0.51375,3732
-3.18287e-07,-1.93862e-06,-2.67462e-06,-0.000117453,-0.00171784,-0.00259383,7.35156,2.57427,-0.0406241,3.6982,7.35452,2.57256,-0.0418719,6.4965,213,16.9705,19.5,0.519375,3733
-2.35941e-07,-1.90874e-06,-2.6989e-06,-7.94661e-05,-0.00167453,-0.00264523,7.55982,2.79845,-0.0991756,3.83222,7.56385,2.79582,-0.100579,6.70324,213,16.0477,19.5,0.519375,3734
-9.36058e-08,-1.99926e-06,-2.64189e-06,-3.24726e-05,-0.0018068,-0.00254518,7.74693,2.45043,0.246314,3.77232,7.76975,2.44882,0.225106,6.71487,213,13.2795,19.5,0.508125,3735
-1.17704e-07,-1.95752e-06,-2.65619e-06,-1.97359e-05,-0.00179088,-0.00261299,7.66079,2.37379,-0.0802593,3.88419,7.67691,2.36888,-0.0914647,6.87663,213,14.2023,19.5,0.508125,3736
-1.17507e-07,-1.96323e-06,-2.68599e-06,-2.01541e-05,-0.00179589,-0.00261174,7.64626,2.34556,-0.0898233,3.87362,7.65461,2.34002,-0.0926366,6.86231,213,14.2023,19.5,0.519375,3737
-1.25312e-07,-1.8595e-06,-2.71113e-06,-6.04344e-05,-0.00148369,-0.00276051,7.91662,3.66808,-0.143309,4.0316,7.91874,3.6671,-0.144452,6.98639,213,14.6636,19.5,0.51375,3738
-1.62318e-07,-1.86237e-06,-2.72499e-06,-8.01434e-05,-0.00151466,-0.00272704,7.80319,3.52104,-0.0980022,3.95201,7.80467,3.5209,-0.0993469,6.85312,213,15.125,19.5,0.519375,3739
-3.79926e-08,-1.95666e-06,-2.67925e-06,-1.28925e-05,-0.00165015,-0.00268674,7.91534,3.028,-0.06628,4.00223,7.93072,3.02009,-0.0737427,6.99133,213,11.4341,19.5,0.508125,3740
-5.94443e-08,-1.9884e-06,-2.66084e-06,-3.3647e-05,-0.00168888,-0.00263119,7.84091,2.89991,0.087046,3.88798,7.8521,2.89963,0.0761397,6.81779,213,12.3568,19.5,0.508125,3741
-7.73362e-08,-1.94443e-06,-2.68145e-06,-4.16996e-05,-0.00174028,-0.00262456,7.64934,2.57895,-0.0606946,3.85832,7.65266,2.57893,-0.0639865,6.79243,213,12.8182,19.5,0.51375,3742
-9.34085e-08,-2.00631e-06,-2.67061e-06,-3.18638e-05,-0.00181551,-0.0025436,7.72805,2.40372,0.230322,3.7573,7.73738,2.40194,0.222774,6.69645,213,13.2795,19.5,0.519375,3743
-5.96997e-08,-1.99405e-06,-2.69043e-06,-3.32631e-05,-0.0016941,-0.00262971,7.83144,2.87373,0.0808546,3.87759,7.8339,2.87341,0.0787161,6.80293,213,12.3568,19.5,0.519375,3744
1.58559e-08,-1.95434e-06,-2.68728e-06,-3.43355e-05,-0.00150713,-0.00273628,8.07981,3.68341,0.0142991,4.04144,8.08974,3.68093,0.006848,7.00962,213,9.58864,19.5,0.508125,3745
-1.70115e-08,-1.9457e-06,-2.69324e-06,-3.69442e-05,-0.00149722,-0.00273918,8.08598,3.72695,0.0195972,4.04309,8.09775,3.72321,0.0115663,7.01068,213,10.5114,19.5,0.508125,3746
-3.43886e-08,-1.88009e-06,-2.71901e-06,-2.7925e-05,-0.0015265,-0.00273566,8.05983,3.58647,-0.0229482,4.0445,8.06294,3.58646,-0.0260506,7.01858,213,10.9727,19.5,0.51375,3747
-3.81352e-08,-1.96152e-06,-2.70958e-06,-1.33595e-05,-0.00165394,-0.00268525,7.90517,3.00792,-0.0706403,3.99285,7.9141,2.99994,-0.0715886,6.97691,213,11.4341,19.5,0.519375,3748
-1.70061e-08,-1.95026e-06,-2.72404e-06,-3.70704e-05,-0.00150061,-0.00275645,8.01967,3.6509,-0.0978915,4.06149,8.02424,3.64718,-0.0987353,7.04177,213,10.5114,19.5,0.519375,3749
5.98768e-08,-1.98301e-06,-2.66565e-06,-2.92895e-05,-0.00168363,-0.00263983,7.857,2.91867,0.0643428,3.90564,7.86627,2.91876,0.0549829,6.84453,213,7.74318,19.5,0.508125,3750
3.82166e-08,-1.94792e-06,-2.67995e-06,-1.76664e-05,-0.00163957,-0.00268798,7.91556,3.07406,-0.0555325,3.99554,7.92783,3.06951,-0.0632475,6.97405,213,8.66591,19.5,0.508125,3751
3.82848e-08,-1.95299e-06,-2.71024e-06,-1.80795e-05,-0.0016427,-0.00268715,7.90573,3.05612,-0.0616555,3.98687,7.91121,3.0515,-0.0625188,6.9604,213,8.66591,19.5,0.519375,3752
3.1338e-08,-1.89739e-06,-2.70707e-06,-2.74732e-05,-0.00153799,-0.00273005,8.04396,3.53497,-0.0234272,4.03662,8.04704,3.53467,-0.0262009,7.0078,213,9.12727,19.5,0.51375,3753
1.58691e-08,-1.95893e-06,-2.71806e-06,-3.41865e-05,-0.00151035,-0.00275287,8.0179,3.61144,-0.0975767,4.05965,8.02104,3.609,-0.0982728,7.04035,213,9.58864,19.5,0.519375,3754
1.19876e-07,-1.93261e-06,-2.67069e-06,-1.80363e-05,-0.00175626,-0.00264762,7.6712,2.48246,-0.178311,3.93214,7.68084,2.47795,-0.183442,6.92821,213,5.89773,19.5,0.508125,3755
9.41578e-08,-1.99118e-06,-2.65336e-06,-3.76354e-05,-0.00176998,-0.00258214,7.71469,2.54352,0.119144,3.80817,7.72523,2.54323,0.108895,6.73749,213,6.82045,19.5,0.508125,3756
9.40169e-08,-1.99676e-06,-2.68258e-06,-3.69498e-05,-0.0017736,-0.00258157,7.70925,2.52521,0.113378,3.79977,7.71126,2.52487,0.111713,6.72588,213,6.82045,19.5,0.519375,3757
7.47446e-08,-1.96795e-06,-2.67792e-06,-3.92798e-05,-0.00173297,-0.002634,7.65747,2.60168,-0.0879755,3.87538,7.66019,2.60155,-0.090565,6.81585,213,7.28182,19.5,0.51375,3758
6.00799e-08,-1.9884e-06,-2.69537e-06,-2.90997e-05,-0.0016867,-0.00263926,7.8502,2.90213,0.058667,3.89713,7.85153,2.9022,0.0572715,6.83154,213,7.74318,19.5,0.519375,3759
2.36356e-07,-1.9175e-06,-2.66581e-06,-8.40223e-05,-0.0016546,-0.00264982,7.58039,2.89209,-0.0787139,3.8383,7.59045,2.88945,-0.0861417,6.70387,213,4.05227,19.5,0.508125,3760
1.61476e-07,-1.86389e-06,-2.69412e-06,-7.82754e-05,-0.00150772,-0.00273007,7.82711,3.5601,-0.0886961,3.96507,7.83469,3.55928,-0.0954559,6.87471,213,4.975,19.5,0.508125,3761
1.2595e-07,-1.85042e-06,-2.71332e-06,-5.51453e-05,-0.0014714,-0.00276332,7.97924,3.75161,-0.104867,4.04382,7.98103,3.75156,-0.106606,7.00655,213,5.43636,19.5,0.51375,3762
1.19667e-07,-1.93786e-06,-2.70067e-06,-1.85414e-05,-0.00176179,-0.00264541,7.65758,2.45386,-0.183815,3.92351,7.66278,2.44909,-0.184244,6.91711,213,5.89773,19.5,0.519375,3763
1.61712e-07,-1.86864e-06,-2.72476e-06,-7.89311e-05,-0.00151202,-0.00271761,7.84895,3.57106,-0.0276967,3.94062,7.85167,3.57023,-0.0295803,6.83386,213,4.975,19.5,0.519375,3764
4.61883e-07,-1.83797e-06,-2.6662e-06,-0.000203285,-0.00155099,-0.00263164,7.23241,3.20942,-0.0164229,3.63602,7.24503,3.20738,-0.0270012,6.31056,213,2.20682,19.5,0.508125,3765
3.16578e-07,-1.9068e-06,-2.65053e-06,-0.000111636,-0.00166765,-0.00262623,7.44384,2.79904,-0.0624041,3.76252,7.45544,2.79463,-0.0695964,6.57849,213,3.12955,19.5,0.508125,3766
2.75869e-07,-1.95871e-06,-2.65571e-06,-7.58347e-05,-0.00172964,-0.00260012,7.55045,2.61372,0.0152695,3.77187,7.55475,2.61368,0.0110088,6.63687,213,3.59091,19.5,0.51375,3767
2.36734e-07,-1.92298e-06,-2.69546e-06,-8.36947e-05,-0.00165943,-0.00263639,7.6097,2.90602,-0.0102955,3.81333,7.6144,2.90328,-0.0122557,6.66561,213,4.05227,19.5,0.519375,3768
3.16538e-07,-1.91245e-06,-2.67991e-06,-0.000110836,-0.00167247,-0.00261356,7.47365,2.81206,0.00283559,3.73953,7.47999,2.80762,0.000929037,6.54389,213,3.12955,19.5,0.519375,3769
5.66495e-07,-1.82045e-06,-2.68727e-06,-0.000199518,-0.00157967,-0.00263295,7.16046,3.04059,-0.103518,3.63398,7.16353,3.03843,-0.104429,6.31337,213,1.74545,19.5,0.51375,3770
4.61804e-07,-1.84329e-06,-2.6958e-06,-0.000204026,-0.00155579,-0.00264119,7.18233,3.14721,-0.0927864,3.63984,7.18567,3.14509,-0.0940061,6.31711,213,2.20682,19.5,0.519375,3771
7.84236e-10,2.32753e-06,-2.40513e-06,-3.95178e-05,-0.00155133,-0.00251005,74.7275,28.3922,-0.991303,37.8697,74.738,28.392,-1.00153,66.1377,213,10.05,0,0.49375,3772
-1.38215e-07,2.33018e-06,-2.39927e-06,-4.12914e-05,-0.00178779,-0.00232826,72.818,19.2899,2.72515,35.09,72.8605,19.292,2.68048,63.5247,213,13.7409,0,0.49375,3773
-2.51399e-07,2.2176e-06,-2.42758e-06,-8.92129e-05,-0.00161584,-0.00244678,71.5305,24.7412,-0.72597,36.1719,71.5811,24.7275,-0.762791,63.5557,213,15.5864,0,0.49375,3774
4.56605e-07,2.20842e-06,-2.40503e-06,-0.000165987,-0.00164334,-0.00237602,68.0757,22.7965,0.340843,33.9133,68.1258,22.7881,0.29913,59.8403,213,2.66818,0,0.49375,3775
1.37234e-07,2.34507e-06,-2.39107e-06,-4.05597e-05,-0.00180836,-0.0023188,72.4993,18.3183,2.67387,34.9527,72.5391,18.3186,2.63376,63.532,213,6.35909,0,0.49375,3776
1.0146e-06,2.1528e-06,-2.27331e-06,-0.00071609,-0.00185712,-0.00196262,39.6972,4.72607,1.4927,19.3756,39.9445,4.77821,1.19324,37.089,213,0.822727,0,0.49375,3777
2.48295e-07,2.21282e-06,-2.42312e-06,-8.75637e-05,-0.00155949,-0.00247732,72.4834,27.3707,-0.759639,36.6263,72.4903,27.3665,-0.762354,64.0052,213,4.51364,0,0.49375,3778
-9.97535e-07,2.13637e-06,-2.29632e-06,-0.000699579,-0.00185302,-0.00197536,40.4618,5.11014,1.36053,19.7749,40.6884,5.10542,1.13862,37.7232,213,19.2773,0,0.49375,3779
5.86501e-08,2.33877e-06,-2.39901e-06,-3.19654e-05,-0.0016985,-0.00241221,73.586,22.5088,0.634358,36.5012,73.6137,22.5042,0.611342,64.8876,213,8.20455,0,0.49375,3780
-6.01236e-08,2.3313e-06,-2.39837e-06,-3.12543e-05,-0.00169766,-0.00243628,72.8674,21.794,-0.843834,36.8623,72.8754,21.7914,-0.849211,65.4121,213,11.8955,0,0.49375,3781
-4.59151e-07,2.23864e-06,-2.38921e-06,-0.000161227,-0.00172245,-0.00234406,66.8287,18.979,-0.0723867,33.503,66.8905,18.9603,-0.115563,59.7955,213,17.4318,0,0.49375,3782
1.41353e-06,2.0812e-06,-2.07998e-06,-0.00102154,-0.00183412,-0.00182235,25.6627,0.758192,1.11875,13.5945,25.9032,2.92212,-1.28569,25.3483,213,0.361364,0,0.489375,3783
1.41885e-06,2.09042e-06,-2.09603e-06,-0.00102798,-0.00184532,-0.00182295,24.866,-0.184456,0.501106,13.589,25.0752,2.21036,-2.1029,25.2987,213,0.361364,0,0.498125,3784
7.56019e-07,2.15419e-06,-2.4104e-06,-0.000408655,-0.0018798,-0.00216683,51.7669,6.67823,-2.11896,27.1182,51.7922,6.97805,-2.44411,50.193,213,1.28409,0,0.498125,3785
-1.39216e-06,2.06818e-06,-2.17055e-06,-0.00100482,-0.00184487,-0.00183725,25.8814,0.135027,0.368541,14.0104,26.158,2.08972,-1.86278,26.2685,213,19.7386,0,0.498125,3786
-1.3881e-06,2.06045e-06,-2.1544e-06,-0.000999841,-0.00183532,-0.00183381,26.6247,1.01814,1.06442,14.0533,26.9381,2.93778,-1.16858,26.295,213,19.7386,0,0.489375,3787
-7.45071e-07,2.13619e-06,-2.40681e-06,-0.000397722,-0.0018703,-0.00217689,52.4429,7.31025,-2.08637,27.4092,52.4641,7.55687,-2.35422,50.5962,213,18.8159,0,0.498125,3788
7.54856e-07,2.14598e-06,-2.39131e-06,-0.000406017,-0.00186932,-0.00216348,52.3889,7.5403,-1.47517,27.1954,52.5058,7.83318,-1.88494,50.2416,213,1.28409,0,0.489375,3789
-7.44184e-07,2.12853e-06,-2.38765e-06,-0.000395768,-0.00186147,-0.0021724,53.005,8.08315,-1.4465,27.4605,53.1161,8.33047,-1.80496,50.6202,213,18.8159,0,0.489375,3790
5.40223e-07,2.15775e-06,-2.44111e-06,-0.000197629,-0.00164161,-0.00237725,66.0827,21.8266,-0.72009,33.4286,66.1271,21.7922,-0.730036,58.9182,213,2.20682,0,0.498125,3791
3.87278e-07,2.24125e-06,-2.40423e-06,-0.000133884,-0.00164772,-0.00239544,69.3327,22.9354,0.0186889,34.6743,69.3498,22.9356,0.00132806,61.1943,213,3.12955,0,0.498125,3792
6.38777e-07,2.0778e-06,-2.47066e-06,-0.000217054,-0.00157798,-0.00240787,65.9339,24.2231,-1.21186,33.5859,65.9507,24.2155,-1.22101,58.7405,213,1.74545,0,0.49375,3793
5.40629e-07,2.15177e-06,-2.42024e-06,-0.000197232,-0.00163756,-0.00239315,65.7184,21.5743,-1.58391,33.709,65.7927,21.5413,-1.62522,59.3298,213,2.20682,0,0.489375,3794
2.89688e-07,2.22727e-06,-2.42243e-06,-9.15029e-05,-0.00160586,-0.00245328,71.4995,25.0862,-0.885973,36.1995,71.5123,25.0742,-0.886769,63.5299,213,4.05227,0,0.498125,3795
2.08788e-07,2.21169e-06,-2.44197e-06,-8.38728e-05,-0.00151416,-0.0024913,73.7483,29.9116,-0.036275,36.9003,73.7564,29.9113,-0.0441381,64.2894,213,4.975,0,0.498125,3796
3.87344e-07,2.23567e-06,-2.38323e-06,-0.000134979,-0.00164598,-0.00238979,69.5059,23.1955,0.398581,34.5962,69.5484,23.1956,0.355947,61.0648,213,3.12955,0,0.489375,3797
3.32564e-07,2.24525e-06,-2.39677e-06,-9.89957e-05,-0.00165115,-0.00243096,70.2685,22.6969,-1.20329,35.746,70.2833,22.6875,-1.20871,63.0377,213,3.59091,0,0.49375,3798
2.89432e-07,2.22228e-06,-2.40093e-06,-9.1185e-05,-0.00160441,-0.00245863,71.3913,25.0129,-1.16798,36.289,71.4066,25.001,-1.17133,63.6633,213,4.05227,0,0.489375,3799
1.54984e-07,2.3062e-06,-2.4158e-06,-3.66805e-05,-0.00180506,-0.00238949,70.5311,16.3325,-1.57972,36.0929,70.5819,16.3059,-1.60395,65.1054,213,5.89773,0,0.498125,3800
1.17599e-07,2.3427e-06,-2.4033e-06,-4.42877e-05,-0.00181641,-0.00234044,71.2867,16.9732,0.912315,35.2228,71.3332,16.9513,0.887716,63.9453,213,6.82045,0,0.498125,3801
1.70953e-07,2.2134e-06,-2.43558e-06,-6.8564e-05,-0.00153946,-0.00249367,73.8111,28.7299,-0.515565,37.2189,73.8677,28.7278,-0.570117,64.9499,213,5.43636,0,0.49375,3802
1.55059e-07,2.29976e-06,-2.39472e-06,-3.6468e-05,-0.00180011,-0.00239153,70.6401,16.5866,-1.53978,36.1616,70.7242,16.5619,-1.5991,65.1691,213,5.89773,0,0.489375,3803
2.08742e-07,2.20618e-06,-2.4202e-06,-8.3752e-05,-0.00151257,-0.00248998,73.8515,30.06,0.103685,36.9023,73.8801,30.0596,0.0754804,64.29,213,4.975,0,0.489375,3804
7.54685e-08,2.33395e-06,-2.41244e-06,-4.07187e-05,-0.00171736,-0.00239909,72.8416,21.4547,0.560595,36.1576,72.8601,21.4519,0.544881,64.457,213,7.74318,0,0.498125,3805
4.59535e-08,2.31294e-06,-2.41302e-06,-2.31985e-05,-0.00168343,-0.00244639,73.5145,22.6304,-0.753429,37.1696,73.5799,22.5709,-0.759329,65.8504,213,8.66591,0,0.498125,3806
1.17683e-07,2.33606e-06,-2.3827e-06,-4.44962e-05,-0.00181153,-0.00234224,71.3749,17.2175,0.951911,35.2903,71.4642,17.1964,0.88368,64.0028,213,6.82045,0,0.489375,3807
9.6294e-08,2.28624e-06,-2.41107e-06,-4.9749e-05,-0.00175269,-0.00239533,71.2303,19.0374,-0.658883,35.9712,71.2569,19.0374,-0.685552,64.3879,213,7.28182,0,0.49375,3808
7.54012e-08,2.32759e-06,-2.39143e-06,-4.08826e-05,-0.00171301,-0.00240082,72.9173,21.6688,0.588206,36.2245,72.9785,21.6663,0.5295,64.5312,213,7.74318,0,0.489375,3809
1.90273e-08,2.30767e-06,-2.41788e-06,-3.96142e-05,-0.00154845,-0.00250913,74.8464,28.6026,-0.841298,37.8639,74.8812,28.5732,-0.846664,66.1236,213,9.58864,0,0.498125,3810
-1.73975e-08,2.31553e-06,-2.41716e-06,-3.93146e-05,-0.00155737,-0.00249079,75.175,28.6484,0.0404087,37.5869,75.2043,28.629,0.0305035,65.72,213,10.5114,0,0.498125,3811
3.7384e-08,2.24444e-06,-2.41177e-06,-3.16771e-05,-0.00157169,-0.00249005,75.2137,28.0143,-0.132519,37.7032,75.2439,28.014,-0.162418,65.995,213,9.12727,0,0.49375,3812
1.90819e-08,2.30175e-06,-2.39606e-06,-3.97081e-05,-0.00154463,-0.00249751,75.348,29.224,0.0195311,37.725,75.4237,29.1941,-0.0262723,65.8928,213,9.58864,0,0.489375,3813
4.59657e-08,2.30683e-06,-2.39156e-06,-2.29298e-05,-0.00167931,-0.00244823,73.6068,22.8409,-0.725742,37.2348,73.7051,22.7813,-0.764478,65.9293,213,8.66591,0,0.489375,3814
-4.68156e-08,2.3099e-06,-2.41326e-06,-2.68711e-05,-0.00168146,-0.00245728,72.9886,22.2776,-1.50036,37.2635,73.0262,22.2404,-1.50074,65.9435,213,11.4341,0,0.498125,3815
-7.56386e-08,2.33578e-06,-2.4086e-06,-3.56472e-05,-0.00171614,-0.00241455,72.6955,21.1905,-0.214991,36.4581,72.6966,21.194,-0.219582,64.9147,213,12.3568,0,0.498125,3816
-1.74518e-08,2.30967e-06,-2.39536e-06,-3.94608e-05,-0.00155413,-0.00250624,74.7646,28.3419,-0.839157,37.8376,74.8104,28.3219,-0.864925,66.1052,213,10.5114,0,0.489375,3817
-3.55702e-08,2.26022e-06,-2.41036e-06,-3.32806e-05,-0.00159013,-0.00247983,74.8415,27.1259,-0.142305,37.5195,74.8692,27.1256,-0.169718,65.785,213,10.9727,0,0.49375,3818
-4.67373e-08,2.30427e-06,-2.39167e-06,-2.63747e-05,-0.00168008,-0.00245852,73.0245,22.3405,-1.51782,37.3008,73.0729,22.303,-1.52873,65.996,213,11.4341,0,0.489375,3819
-1.17366e-07,2.34103e-06,-2.40707e-06,-4.86592e-05,-0.00179316,-0.00234485,71.6283,18.1614,1.25285,35.2166,71.6604,18.1551,1.2271,63.6797,213,13.2795,0,0.498125,3820
-1.55443e-07,2.29166e-06,-2.41975e-06,-3.38424e-05,-0.00178753,-0.00240557,70.7589,17.0104,-1.93148,36.3623,70.7906,16.9812,-1.93397,65.3533,213,14.2023,0,0.498125,3821
-9.32116e-08,2.31122e-06,-2.40157e-06,-4.46807e-05,-0.00174784,-0.00239514,71.718,19.5184,-0.320521,36.0585,71.7575,19.5179,-0.359485,64.5172,213,12.8182,0,0.49375,3822
-1.17508e-07,2.33422e-06,-2.38642e-06,-4.89217e-05,-0.00178805,-0.00234655,71.7241,18.422,1.30474,35.2933,71.8106,18.4162,1.22399,63.7535,213,13.2795,0,0.489375,3823
-7.55748e-08,2.32934e-06,-2.38755e-06,-3.60637e-05,-0.00171143,-0.00241655,72.758,21.41,-0.200879,36.5055,72.7823,21.4135,-0.228702,64.9528,213,12.3568,0,0.489375,3824
-2.10332e-07,2.21071e-06,-2.4434e-06,-8.90072e-05,-0.00154085,-0.00248619,72.7128,28.2156,-0.757954,36.7533,72.7319,28.2132,-0.774679,64.1305,213,15.125,0,0.498125,3825
-2.92841e-07,2.24524e-06,-2.42194e-06,-8.97771e-05,-0.00169493,-0.00239655,70.5463,21.3505,-0.153511,35.3841,70.5979,21.3158,-0.170377,62.8431,213,16.0477,0,0.498125,3826
-1.55552e-07,2.28546e-06,-2.39854e-06,-3.34664e-05,-0.00178227,-0.00240788,70.8797,17.281,-1.89326,36.4219,70.9288,17.2536,-1.91497,65.4013,213,14.2023,0,0.489375,3827
-1.6924e-07,2.21306e-06,-2.42637e-06,-6.69904e-05,-0.00151142,-0.00251719,74.0596,29.7896,-1.03593,37.5611,74.0731,29.7893,-1.04911,65.4041,213,14.6636,0,0.49375,3828
-2.10204e-07,2.20491e-06,-2.42169e-06,-8.89723e-05,-0.0015362,-0.00247842,73.1232,28.7673,-0.110508,36.6983,73.205,28.7666,-0.191629,64.0329,213,15.125,0,0.489375,3829
-3.9066e-07,2.28128e-06,-2.38806e-06,-0.000134786,-0.00174774,-0.00233128,68.0969,18.6617,0.777088,33.6828,68.119,18.6632,0.753425,60.435,213,16.9705,0,0.498125,3830
-5.39207e-07,2.16644e-06,-2.42872e-06,-0.000187174,-0.00170137,-0.00235839,65.4026,18.9944,-1.14247,33.3287,65.5038,18.9043,-1.15364,59.2328,213,17.8932,0,0.498125,3831
-2.92463e-07,2.23911e-06,-2.40099e-06,-8.92346e-05,-0.00169062,-0.00240896,70.3142,21.2336,-0.782547,35.6161,70.3986,21.2002,-0.833603,63.1665,213,16.0477,0,0.489375,3832
-3.34026e-07,2.28196e-06,-2.38422e-06,-9.98887e-05,-0.00176936,-0.00235669,68.7677,17.6006,-0.400513,34.6261,68.8228,17.5745,-0.429439,62.235,213,16.5091,0,0.49375,3833
-3.90691e-07,2.27486e-06,-2.36759e-06,-0.000136386,-0.00174341,-0.00235102,67.4891,18.2359,-0.386664,33.9911,67.5423,18.2361,-0.440043,60.8337,213,16.9705,0,0.489375,3834
-6.31486e-07,2.05242e-06,-2.46523e-06,-0.000214977,-0.0015722,-0.002413,66.0869,24.4897,-1.27991,33.7056,66.1226,24.4627,-1.28859,58.9192,213,18.3545,0,0.49375,3835
-5.39634e-07,2.16021e-06,-2.40796e-06,-0.000186399,-0.00169666,-0.00237874,64.9379,18.6504,-2.25445,33.6712,65.056,18.5643,-2.28643,59.7128,213,17.8932,0,0.489375,3836
2.28781e-06,-3.39654e-07,-2.3723e-06,-0.00172327,-0.000126823,-0.00233529,20.3461,69.2753,1.58858,33.8897,69.3242,20.3409,1.54484,60.6082,213,-0.1,16.575,0.49375,3837
2.34069e-06,1.17718e-07,-2.38424e-06,-0.00173291,-3.57091e-05,-0.00236196,21.8515,73.8687,2.57203,35.7369,73.9581,21.8498,2.4843,64.0266,213,-0.1,6.825,0.49375,3838
2.23197e-06,4.38941e-07,-2.36212e-06,-0.00163767,-0.000155656,-0.00238733,23.1252,68.547,0.14903,34.2497,68.6004,23.1198,0.101046,60.376,213,-0.1,2.925,0.49375,3839
2.35082e-06,-1.64148e-07,-2.36738e-06,-0.00162556,-7.27216e-05,-0.0024431,24.7864,72.3791,-0.270211,36.3484,72.403,24.7861,-0.293832,63.9578,213,-0.1,14.625,0.49375,3840
2.34742e-06,-7.31848e-08,-2.38134e-06,-0.00170812,-2.52898e-05,-0.00243841,21.2561,72.8328,-1.12625,36.9808,72.8352,21.2539,-1.12644,65.6956,213,-0.1,12.675,0.49375,3841
2.33918e-06,-1.34472e-08,-2.3663e-06,-0.00150639,-3.3441e-05,-0.00252832,30.8458,75.9899,-0.475153,38.2695,76.03,30.8396,-0.508976,66.645,213,-0.1,10.725,0.49375,3842
2.33917e-06,4.66181e-08,-2.36391e-06,-0.00152817,-3.2691e-05,-0.00254953,28.7904,74.6249,-2.51305,38.5938,74.6519,28.7859,-2.53558,67.2408,213,-0.1,8.775,0.49375,3843
2.32159e-06,2.34487e-07,-2.37725e-06,-0.00161825,-8.99194e-05,-0.00243456,24.9667,71.808,-0.0524249,35.9571,71.835,24.9665,-0.0792292,63.2281,213,-0.1,4.875,0.49375,3844
2.18041e-06,9.90413e-07,-2.24134e-06,-0.00189484,-0.000677067,-0.00197038,3.35749,40.6809,1.04249,20.1391,40.9379,3.4834,0.659614,38.9432,213,-0.1,0.975,0.49375,3845
2.14852e-06,-7.99299e-07,-2.31782e-06,-0.00190348,-0.000629724,-0.00198939,3.74009,42.7791,1.10698,21.1118,43.0236,3.8026,0.799946,40.8053,213,-0.1,18.525,0.49375,3846
2.09303e-06,1.3928e-06,-2.06548e-06,-0.00185663,-0.000980335,-0.00183322,0.325052,27.1826,1.04264,14.3411,27.3262,2.5801,-1.35605,26.9308,213,-0.1,0.4875,0.489375,3847
2.10295e-06,1.39753e-06,-2.08158e-06,-0.00186874,-0.000986476,-0.00183009,-0.543076,26.4974,0.641572,14.3307,26.6138,2.02979,-2.04767,26.8559,213,-0.1,0.4875,0.498125,3848
2.21177e-06,7.35417e-07,-2.35781e-06,-0.00193292,-0.00037168,-0.00215518,4.9025,52.7525,-1.90945,27.5128,52.7749,5.22129,-2.25068,51.6962,213,-0.1,1.4625,0.498125,3849
2.02028e-06,-1.1804e-06,-2.25756e-06,-0.00187465,-0.000936697,-0.00185488,-0.0969428,28.6502,0.509006,15.6015,28.8039,2.65751,-2.39914,29.0072,213,-0.1,19.0125,0.489375,3850
2.02858e-06,-1.18269e-06,-2.27381e-06,-0.00188567,-0.000940854,-0.00184026,-0.452624,28.5048,0.939205,15.0976,28.67,1.84657,-1.52517,28.6584,213,-0.1,19.0125,0.498125,3851
2.19855e-06,-5.67691e-07,-2.37061e-06,-0.00193135,-0.000320791,-0.00217207,6.11933,55.481,-1.25852,28.572,55.5261,6.43364,-1.61788,53.5739,213,-0.1,18.0375,0.498125,3852
2.2029e-06,7.34579e-07,-2.33886e-06,-0.00192148,-0.000369746,-0.00215386,5.7358,53.2945,-1.38654,27.5896,53.4029,6.01718,-1.77631,51.7247,213,-0.1,1.4625,0.489375,3853
2.19037e-06,-5.67542e-07,-2.35146e-06,-0.00192114,-0.000320606,-0.00218403,6.38112,55.4354,-1.67628,28.7129,55.4967,6.5726,-1.92909,53.6823,213,-0.1,18.0375,0.489375,3854
2.28857e-06,-2.83683e-07,-2.39288e-06,-0.00171257,-0.000103022,-0.00237107,20.6316,69.9624,0.44947,34.803,70.0353,20.579,0.429199,62.036,213,-0.1,16.0875,0.498125,3855
2.24977e-06,-4.07286e-07,-2.38695e-06,-0.00173717,-0.000150466,-0.00235563,18.0179,66.6483,-0.937366,33.8094,66.6647,18.0184,-0.954209,60.41,213,-0.1,17.0625,0.498125,3856
2.24355e-06,-4.07297e-07,-2.36624e-06,-0.00173319,-0.000150893,-0.00235702,18.2107,66.7061,-0.909109,33.8657,66.763,18.213,-0.968317,60.4672,213,-0.1,17.0625,0.489375,3857
2.16239e-06,-4.86556e-07,-2.39535e-06,-0.00165553,-0.000147056,-0.00239657,21.9696,68.2024,-0.742391,34.4827,68.2148,21.9654,-0.750648,60.8739,213,-0.1,17.55,0.49375,3858
2.35016e-06,-1.29776e-07,-2.36976e-06,-0.00162349,-6.79036e-05,-0.00243938,25.1992,72.8759,0.193148,36.3625,72.902,25.1892,0.177057,63.9963,213,-0.1,14.1375,0.498125,3859
2.31803e-06,-2.00581e-07,-2.39403e-06,-0.00163111,-7.73347e-05,-0.00243594,24.5183,72.1395,-0.14886,36.1691,72.1806,24.4859,-0.157561,63.6981,213,-0.1,15.1125,0.498125,3860
2.28246e-06,-2.8365e-07,-2.37205e-06,-0.00170887,-0.000102739,-0.00237243,20.8312,70.0574,0.494149,34.8761,70.1782,20.7784,0.426073,62.1286,213,-0.1,16.0875,0.489375,3861
2.24007e-06,-2.3936e-07,-2.4071e-06,-0.00164668,-8.09586e-05,-0.00242741,23.6899,71.6775,-0.238427,35.9858,71.7068,23.687,-0.264838,63.4803,213,-0.1,15.6,0.49375,3862
2.31212e-06,-2.0077e-07,-2.37272e-06,-0.00162736,-7.6954e-05,-0.00243767,24.7118,72.2298,-0.123314,36.2373,72.3066,24.6797,-0.167976,63.7899,213,-0.1,15.1125,0.489375,3863
2.32723e-06,-6.07975e-08,-2.4039e-06,-0.00168396,-2.57486e-05,-0.00245587,22.2018,73.0239,-1.45616,37.2593,73.0573,22.1735,-1.46125,65.9575,213,-0.1,12.1875,0.498125,3864
2.34365e-06,-8.55874e-08,-2.38045e-06,-0.00173508,-2.50448e-05,-0.00243285,19.7347,72.1451,-1.65125,36.9031,72.1532,19.7282,-1.65288,65.7757,213,-0.1,13.1625,0.498125,3865
2.34378e-06,-1.29783e-07,-2.34843e-06,-0.00161941,-6.86535e-05,-0.00244076,25.388,72.9169,0.214854,36.4178,72.9889,25.3776,0.153263,64.063,213,-0.1,14.1375,0.489375,3866
2.30384e-06,-9.75755e-08,-2.35854e-06,-0.00165908,-4.79366e-05,-0.00243393,23.7736,73.1531,0.0252514,36.6014,73.1919,23.7709,-0.0109107,64.6787,213,-0.1,13.65,0.49375,3867
2.33742e-06,-8.53106e-08,-2.35916e-06,-0.001731,-2.50053e-05,-0.00243483,19.9296,72.2164,-1.64176,36.9437,72.2345,19.9226,-1.65283,65.808,213,-0.1,13.1625,0.489375,3868
2.35493e-06,2.36203e-09,-2.36795e-06,-0.00151752,-3.09625e-05,-0.00251897,30.5281,76.0891,-0.165209,38.1421,76.1042,30.5278,-0.179951,66.481,213,-0.1,10.2375,0.498125,3869
2.31536e-06,-3.0209e-08,-2.39331e-06,-0.00149855,-3.58146e-05,-0.00250797,31.9347,76.7658,0.997441,37.9268,76.8175,31.9164,0.964002,66.0603,213,-0.1,11.2125,0.498125,3870
2.32106e-06,-6.08191e-08,-2.38235e-06,-0.00168026,-2.52419e-05,-0.00245782,22.389,73.1134,-1.44215,37.3237,73.1744,22.359,-1.47308,66.0394,213,-0.1,12.1875,0.489375,3871
2.27107e-06,-4.83413e-08,-2.40518e-06,-0.00154555,-3.2737e-05,-0.00247994,29.9719,76.3378,1.33405,37.6026,76.439,29.9709,1.23382,65.7302,213,-0.1,11.7,0.49375,3872
2.3088e-06,-3.04308e-08,-2.37146e-06,-0.00149355,-3.57536e-05,-0.00250977,32.1951,76.8748,1.04914,38.0338,77.0052,32.1761,0.937725,66.226,213,-0.1,11.2125,0.489375,3873
2.31675e-06,6.29651e-08,-2.38927e-06,-0.00152006,-3.48905e-05,-0.00253857,29.5934,75.112,-1.6227,38.401,75.1527,29.5793,-1.64925,66.898,213,-0.1,8.2875,0.498125,3874
2.35382e-06,3.11573e-08,-2.36698e-06,-0.00153596,-3.03572e-05,-0.00252985,29.0187,75.1636,-1.44283,38.3084,75.1689,29.0186,-1.44796,66.8139,213,-0.1,9.2625,0.498125,3875
2.349e-06,2.21316e-09,-2.34588e-06,-0.00151525,-3.12562e-05,-0.00251971,30.6381,76.1206,-0.147578,38.1983,76.185,30.6378,-0.211679,66.5683,213,-0.1,10.2375,0.489375,3876
2.35075e-06,1.6887e-08,-2.35424e-06,-0.00153024,-2.79196e-05,-0.00250088,30.4142,76.4585,0.665169,37.9421,76.504,30.4141,0.619721,66.2209,213,-0.1,9.75,0.49375,3877
2.34861e-06,3.12763e-08,-2.34485e-06,-0.00153628,-3.06205e-05,-0.00253042,28.9715,75.118,-1.49778,38.3114,75.1215,28.9715,-1.50132,66.8187,213,-0.1,9.2625,0.489375,3878
2.32938e-06,1.34584e-07,-2.39854e-06,-0.00175872,-3.33532e-05,-0.00238191,19.6346,72.5148,0.534584,36.0194,72.545,19.6328,0.50618,64.634,213,-0.1,6.3375,0.498125,3879
2.32727e-06,9.96632e-08,-2.39851e-06,-0.0017104,-3.81904e-05,-0.00242574,21.1038,72.355,-0.820341,36.6141,72.3933,21.0802,-0.83499,65.0987,213,-0.1,7.3125,0.498125,3880
2.32111e-06,9.98303e-08,-2.37714e-06,-0.00170599,-3.78766e-05,-0.00242707,21.3506,72.4761,-0.749676,36.6794,72.5539,21.3281,-0.804961,65.1747,213,-0.1,7.3125,0.489375,3881
2.27698e-06,8.06617e-08,-2.39881e-06,-0.0015725,-3.67407e-05,-0.00251927,26.8363,73.9054,-2.18105,38.0439,73.9067,26.8352,-2.18122,66.5096,213,-0.1,7.8,0.49375,3882
2.31184e-06,6.32226e-08,-2.36714e-06,-0.00151803,-3.49294e-05,-0.00254008,29.671,75.1262,-1.6537,38.3979,75.1415,29.6563,-1.65428,66.8836,213,-0.1,8.2875,0.489375,3883
2.29507e-06,2.79196e-07,-2.38408e-06,-0.0016213,-9.32333e-05,-0.00243221,24.741,71.5744,-0.112501,35.8648,71.6049,24.7227,-0.124687,63.0891,213,-0.1,4.3875,0.498125,3884
2.3207e-06,1.91558e-07,-2.39651e-06,-0.00161822,-8.65032e-05,-0.00243293,25.1342,72.0794,0.164264,35.9748,72.1017,25.1242,0.152018,63.2742,213,-0.1,5.3625,0.498125,3885
2.32284e-06,1.34474e-07,-2.37758e-06,-0.00175384,-3.3185e-05,-0.00238343,19.8997,72.6357,0.603662,36.1007,72.7207,19.8992,0.519206,64.7253,213,-0.1,6.3375,0.489375,3886
2.28081e-06,1.50139e-07,-2.3993e-06,-0.00166733,-6.19796e-05,-0.00243179,22.8587,72.0606,-0.571352,36.3349,72.0807,22.8565,-0.589195,64.2403,213,-0.1,5.85,0.49375,3887
2.31475e-06,1.91407e-07,-2.37523e-06,-0.00161482,-8.65191e-05,-0.0024343,25.3045,72.1452,0.188683,36.0374,72.2094,25.2944,0.134561,63.3594,213,-0.1,5.3625,0.489375,3888
2.21548e-06,5.24282e-07,-2.38314e-06,-0.00163189,-0.000194676,-0.00237478,22.6218,66.6707,-0.146875,33.4282,66.6901,22.6218,-0.16627,58.8689,213,-0.1,2.4375,0.498125,3889
2.24073e-06,3.72632e-07,-2.37322e-06,-0.00164751,-0.000116404,-0.00240658,23.157,70.0837,-0.10741,35.1169,70.1126,23.1419,-0.121194,61.9686,213,-0.1,3.4125,0.498125,3890
2.2345e-06,3.72626e-07,-2.35215e-06,-0.00164329,-0.00011639,-0.00240815,23.3742,70.1718,-0.0677497,35.191,70.2506,23.359,-0.131408,62.0655,213,-0.1,3.4125,0.489375,3891
2.22955e-06,3.25457e-07,-2.37444e-06,-0.00162583,-8.88451e-05,-0.00243023,24.6625,71.7693,0.00863329,35.9099,71.8029,24.6544,-0.0168397,63.2049,213,-0.1,3.9,0.49375,3892
2.28911e-06,2.79098e-07,-2.36279e-06,-0.00161801,-9.33786e-05,-0.00243345,24.9044,71.6325,-0.0879289,35.9231,71.7047,24.8859,-0.141546,63.1674,213,-0.1,4.3875,0.489375,3893
2.20912e-06,5.24495e-07,-2.36234e-06,-0.00162727,-0.000195132,-0.00237667,22.8386,66.7318,-0.12962,33.5044,66.805,22.8394,-0.203659,58.9666,213,-0.1,2.4375,0.489375,3894
2.1789e-06,6.28981e-07,-2.39456e-06,-0.00166801,-0.000188911,-0.00236696,20.7745,66.1071,-0.647307,33.3858,66.1152,20.7754,-0.65632,59.0485,213,-0.1,1.95,0.49375,3895
-1.3197e-09,1.44825e-08,-2.8575e-06,-2.89427e-05,-2.68956e-05,-0.0033725,65.0979,65.1382,0.0168576,32.5607,65.1382,65.0979,0.0168572,65.1012,213,10.0954,9.82548,0.485,3896
-1.75887e-07,-1.04179e-07,-2.84897e-06,-6.2555e-05,-4.20053e-05,-0.00337868,50.5153,50.8348,0.0473926,25.395,50.8374,50.5127,0.0473748,50.6285,213,14.5371,13.8094,0.485,3897
1.78348e-07,1.54688e-07,-2.8453e-06,-6.45359e-05,-5.58567e-05,-0.00336289,53.9644,54.1099,-0.0294838,27.079,54.1286,53.9458,-0.029506,54.0669,213,5.51519,5.91648,0.485,3898
1.76436e-07,-1.035e-07,-2.84834e-06,-6.46202e-05,-4.05114e-05,-0.00334668,63.8735,64.3558,0.00385161,32.1785,64.3609,63.8684,0.00384616,64.1122,213,5.56393,13.8104,0.485,3899
-1.55846e-07,1.63682e-07,-2.84678e-06,-5.65314e-05,-5.89522e-05,-0.00338109,48.2618,48.2254,-0.0666718,24.1781,48.2895,48.1978,-0.066747,48.3104,213,14.251,5.77462,0.485,3900
5.98116e-10,-1.75835e-07,-2.84662e-06,-2.56821e-05,-6.13799e-05,-0.00336858,58.9857,58.3376,0.0182711,29.4837,58.9857,58.3376,0.0182709,58.6461,213,10.05,15.061,0.485,3901
4.31938e-10,2.86028e-07,-2.83437e-06,-2.49502e-05,-9.2501e-05,-0.00337586,49.168,48.1504,0.0822082,24.543,49.1681,48.1503,0.0821735,48.585,213,10.0488,4.29662,0.485,3902
3.17543e-07,1.42887e-08,-2.82371e-06,-9.88184e-05,-2.43342e-05,-0.00332297,59.6361,61.046,0.155918,30.4462,61.0482,59.6341,0.155768,60.1978,213,4.13654,9.75,0.485,3903
-3.22481e-07,1.42498e-08,-2.82497e-06,-9.7327e-05,-2.42834e-05,-0.00333125,49.751,50.8973,0.560202,25.1707,50.9008,49.7483,0.55939,49.7752,213,15.9635,9.75,0.485,3904
-3.67126e-07,-2.29632e-07,-2.8252e-06,-0.00012188,-7.54061e-05,-0.00333301,42.545,43.1716,0.342375,21.4298,43.202,42.5147,0.342328,42.5202,213,16.8055,16.084,0.485,3905
3.6698e-07,-2.28818e-07,-2.82672e-06,-0.000121989,-7.55361e-05,-0.00331958,49.5056,50.2367,0.359105,24.9535,50.2661,49.4763,0.359008,49.5169,213,3.29449,16.084,0.485,3906
3.61879e-07,3.51479e-07,-2.82098e-06,-0.00011694,-0.000112177,-0.00327008,64.9814,65.0977,0.282483,32.4798,65.2419,64.8373,0.282392,64.7582,213,3.29449,3.41598,0.485,3907
-3.61512e-07,3.51458e-07,-2.82086e-06,-0.000115313,-0.000113426,-0.00330074,52.2995,52.3366,0.214758,26.1414,52.4972,52.1392,0.214501,52.1046,213,16.8055,3.41598,0.485,3908
9.92994e-08,4.4798e-08,-2.85519e-06,-4.3877e-05,-2.83573e-05,-0.0033484,70.9267,71.2659,0.0343758,35.6164,71.2672,70.9254,0.0343655,71.0626,213,7.09327,8.66633,0.485,3909
-1.00166e-07,4.49978e-08,-2.85343e-06,-4.49206e-05,-2.75495e-05,-0.00338686,54.7217,55.0187,0.0012532,27.5097,55.0207,54.7197,0.00125034,54.8696,213,13.0067,8.66633,0.485,3910
-8.88591e-08,-2.64486e-07,-2.84474e-06,-3.92433e-05,-8.92235e-05,-0.00336301,51.2889,50.4997,0.201217,25.5465,51.2942,50.4946,0.201082,50.698,213,13.043,16.278,0.485,3911
-9.58935e-08,4.61822e-07,-2.83937e-06,-3.99133e-05,-0.000165933,-0.00329471,62.4597,59.9692,0.210243,31.1271,62.4628,59.9676,0.208737,61.0447,213,13.1683,2.84352,0.485,3912
8.94754e-08,-2.65441e-07,-2.84659e-06,-4.00198e-05,-9.3948e-05,-0.00335163,54.3273,53.4183,0.11217,27.1087,54.3295,53.4161,0.112158,53.7665,213,7.05724,16.2785,0.485,3913
8.80511e-08,4.1758e-07,-2.84023e-06,-3.88888e-05,-0.000137159,-0.00333996,50.8926,49.3537,0.165276,25.3646,50.8944,49.3519,0.165238,49.9758,213,7.1431,3.11822,0.485,3914
4.08252e-08,-5.75094e-08,-2.85672e-06,-3.08193e-05,-3.15995e-05,-0.00336915,64.985,64.9694,0.00105553,32.4932,64.9874,64.967,0.00104496,64.9762,213,8.65154,12.4582,0.485,3915
-4.13346e-08,-5.6208e-08,-2.85666e-06,-3.07655e-05,-3.15815e-05,-0.00338516,58.7493,58.7351,-0.0541626,29.4052,58.7562,58.7282,-0.054174,58.7964,213,11.4586,12.4381,0.485,3916
4.50313e-07,-5.59602e-08,-2.84988e-06,-0.000159026,-2.86751e-05,-0.00338505,48.274,50.324,-0.578488,25.4514,50.3244,48.2736,-0.578488,49.9091,213,2.86104,12.5136,0.485,3917
4.54699e-07,9.93974e-08,-2.85135e-06,-0.000171798,-3.83773e-05,-0.00329389,65.2661,68.1348,-0.027078,34.0813,68.1352,65.266,-0.027401,66.7743,213,2.80587,6.89105,0.485,3918
-4.45039e-07,-5.65455e-08,-2.85869e-06,-0.000163745,-2.94966e-05,-0.00334545,51.5215,53.7794,-0.303116,27.0432,53.7833,51.5177,-0.303126,52.9899,213,17.2389,12.5135,0.485,3919
-4.50444e-07,1.00111e-07,-2.85797e-06,-0.000171524,-3.9028e-05,-0.00334459,45.3109,47.3288,-0.109083,23.7216,47.334,45.3059,-0.10925,46.4624,213,17.2941,6.89105,0.485,3920
-2.76565e-08,1.06707e-07,-2.85556e-06,-2.86146e-05,-4.35864e-05,-0.00339988,50.5246,50.294,-0.0248739,25.2748,50.5247,50.2939,-0.0248764,50.4346,213,11.0291,6.98911,0.485,3921
5.40691e-08,1.43958e-07,-2.85168e-06,-3.2881e-05,-5.50399e-05,-0.00339096,50.3039,49.9602,-0.084759,25.195,50.3052,49.9589,-0.0847707,50.2177,213,8.20069,6.21714,0.485,3922
1.39109e-07,-1.76992e-08,-2.8527e-06,-5.51093e-05,-2.44451e-05,-0.00340377,46.5071,46.9466,0.110893,23.4181,46.947,46.5068,0.110731,46.6178,213,6.31115,11.1078,0.485,3923
-1.43655e-07,-1.69467e-08,-2.84986e-06,-5.69487e-05,-2.49856e-05,-0.0033573,64.2996,64.9359,0.0724732,32.4326,64.9376,64.2981,0.0722747,64.5479,213,13.8439,11.0967,0.485,3924
5.36837e-10,6.08151e-07,-2.86864e-06,-1.77123e-05,-0.000133256,-0.00336271,52.0418,50.2278,-0.0171003,26.0299,52.0422,50.2278,-0.0175482,51.1767,213,10.05,2.12359,0.485,3925
-2.06027e-10,-4.07999e-07,-2.86735e-06,-1.27856e-05,-6.17375e-05,-0.00340505,52.368,51.6214,-0.241443,26.3065,52.3699,51.6211,-0.243028,52.2425,213,10.05,17.3764,0.485,3926
-4.91424e-08,1.96312e-07,-2.84816e-06,-3.03369e-05,-6.82978e-05,-0.00336744,57.8717,57.1962,-0.0920419,28.9828,57.8735,57.1944,-0.0920806,57.6291,213,11.7753,5.37035,0.485,3927
-1.74571e-07,-3.58137e-07,-2.84791e-06,-6.26925e-05,-7.12283e-05,-0.00337939,46.4103,45.9988,-0.101533,23.2831,46.4643,45.9452,-0.101921,46.3088,213,14.8488,17.216,0.485,3928
1.74665e-07,-3.55967e-07,-2.85511e-06,-6.24437e-05,-7.55195e-05,-0.00336077,50.3853,50.0069,-0.0403692,25.2449,50.4494,49.9429,-0.0404308,50.2385,213,5.25126,17.216,0.485,3929
-1.81162e-07,5.42404e-07,-2.86193e-06,-6.29854e-05,-0.000139612,-0.00333294,46.2899,45.2497,0.357052,22.9805,46.3169,45.2238,0.355948,45.4243,213,14.8439,2.24533,0.485,3930
1.80493e-07,5.58757e-07,-2.84148e-06,-6.29357e-05,-0.000133372,-0.00334942,47.1502,46.2638,-0.17061,23.6828,47.1945,46.2201,-0.171146,46.886,213,5.26149,2.27165,0.485,3931
6.17028e-07,-3.43752e-09,-2.8764e-06,-0.000172013,-2.11024e-05,-0.00335872,45.0192,47.2888,-0.938204,24.117,47.2923,45.0192,-0.941699,47.1386,213,2.01827,10.4801,0.485,3932
-6.14462e-07,-3.20634e-09,-2.86738e-06,-0.000187571,-2.17586e-05,-0.00333605,48.0856,50.7487,-0.472853,25.6122,50.7503,48.0854,-0.474244,49.9454,213,18.0817,10.4801,0.485,3933
-2.03615e-07,6.58445e-08,-2.84423e-06,-6.91831e-05,-3.22942e-05,-0.00336977,57.1217,57.7796,-0.148507,28.9669,57.7853,57.116,-0.148534,57.6021,213,14.8542,7.91739,0.485,3934
2.09143e-07,6.60185e-08,-2.84477e-06,-7.17766e-05,-3.23404e-05,-0.00337694,53.8277,54.4906,-0.330714,27.4116,54.4925,53.8258,-0.330759,54.493,213,5.17538,7.91832,0.485,3935
-4.93278e-08,-1.34492e-07,-2.85152e-06,-3.14794e-05,-5.03594e-05,-0.00337391,58.5886,58.2489,0.00909096,29.2904,58.59,58.2475,0.00909043,58.4104,213,11.7735,14.3585,0.485,3936
4.92895e-08,-1.33816e-07,-2.84949e-06,-3.01583e-05,-4.91868e-05,-0.003399,48.957,48.6729,-0.0273318,24.4939,48.9604,48.6695,-0.0273702,48.843,213,8.33001,14.3621,0.485,3937
6.80043e-07,-1.3166e-07,-2.87162e-06,-0.00019271,-3.69421e-05,-0.00330075,55.8216,58.5509,-0.246006,29.4006,58.5536,55.8203,-0.247464,57.4832,213,1.78318,14.3908,0.485,3938
6.61381e-07,1.96797e-07,-2.86469e-06,-0.000198636,-6.05023e-05,-0.00334055,35.8657,37.5773,-0.0911149,18.8365,37.5816,35.8617,-0.091419,36.8432,213,1.80645,5.07781,0.485,3939
-6.76136e-07,-1.31134e-07,-2.86854e-06,-0.00019773,-3.6248e-05,-0.00329875,53.1878,55.8902,-0.154329,28.0252,55.8951,53.1838,-0.1553,54.7452,213,18.3168,14.3908,0.485,3940
-6.60043e-07,1.95141e-07,-2.86481e-06,-0.000211042,-6.43072e-05,-0.00328626,50.0238,52.58,-0.033061,26.3105,52.5879,50.016,-0.033192,51.3835,213,18.2936,5.07781,0.485,3941
6.48691e-08,-3.16359e-09,-2.85707e-06,-3.42393e-05,-2.42698e-05,-0.0034169,46.0835,46.2248,-0.0165046,23.1207,46.2249,46.0834,-0.0165048,46.1708,213,7.98014,10.4872,0.485,3942
-6.6589e-08,-4.24769e-09,-2.85619e-06,-3.49513e-05,-2.4999e-05,-0.0033937,55.0039,55.1752,0.00474982,27.5854,55.1755,55.0036,0.00473757,55.085,213,12.1644,10.5477,0.485,3943
-6.04872e-07,-3.99681e-07,-2.8823e-06,-0.000231146,-0.000136473,-0.00322538,52.5622,54.2691,-0.0423923,27.1939,54.3446,52.4877,-0.0433119,53.4836,213,18.3048,17.5749,0.485,3944
-6.12584e-07,5.84824e-07,-2.88096e-06,-0.000196414,-0.000211069,-0.0032318,46.7501,46.5577,-0.353333,23.5706,46.7874,46.5209,-0.353759,47.0084,213,18.3048,1.92508,0.485,3945
6.06592e-07,-4.05007e-07,-2.87929e-06,-0.000234758,-0.000114196,-0.00327159,43.3353,44.9941,-0.0886246,22.5636,45.0385,43.291,-0.0887375,44.2794,213,1.79521,17.5749,0.485,3946
6.04884e-07,5.77544e-07,-2.8772e-06,-0.000190559,-0.000209329,-0.00321976,54.7792,54.5642,-0.523393,27.6977,54.8719,54.4716,-0.523521,55.1964,213,1.79521,1.92508,0.485,3947
3.01218e-08,6.7944e-08,-2.8566e-06,-2.88547e-05,-3.23874e-05,-0.00338506,58.1189,58.0604,0.0877991,29.0166,58.1209,58.0584,0.0877709,58.0019,213,9.03678,7.98096,0.485,3948
-3.16953e-07,1.8634e-07,-2.83114e-06,-0.000105413,-6.35048e-05,-0.00334616,49.5738,50.2254,-0.00807571,25.1243,50.2404,49.5588,-0.00809737,49.9112,213,16.234,5.2768,0.485,3949
3.16243e-07,1.86153e-07,-2.82998e-06,-0.00010352,-6.38182e-05,-0.00333602,52.9229,53.5879,0.0253353,26.7895,53.6042,52.9066,0.0253067,53.2335,213,3.86597,5.2768,0.485,3950
3.23045e-07,-1.19056e-07,-2.8361e-06,-0.000106292,-4.32426e-05,-0.00334868,49.7814,50.772,0.117964,25.3298,50.7775,49.776,0.117955,50.1662,213,3.86597,14.2232,0.485,3951
-3.24204e-07,-1.19198e-07,-2.8345e-06,-0.000110545,-4.25602e-05,-0.00334211,52.9891,54.1244,0.0952046,27.0157,54.1266,52.9869,0.0951855,53.4707,213,16.234,14.2232,0.485,3952
7.50532e-07,4.92026e-08,-2.87594e-06,-0.000355453,-2.8123e-05,-0.00322978,46.4126,52.0225,-0.425846,26.2252,52.0236,46.4124,-0.426836,49.8821,213,1.52042,8.36573,0.485,3953
-7.50298e-07,4.93153e-08,-2.85555e-06,-0.000379519,-2.85169e-05,-0.00320692,46.0935,51.966,-0.253463,26.11,51.9663,46.0934,-0.253686,49.5453,213,18.5796,8.36573,0.485,3954
2.40827e-07,-4.63844e-08,-2.8441e-06,-8.00452e-05,-2.9233e-05,-0.00333523,66.9168,67.9818,-0.00369066,33.9937,67.9835,66.9153,-0.00384756,67.4596,213,4.77873,12.2037,0.485,3955
-2.44771e-07,-4.37095e-08,-2.845e-06,-7.85731e-05,-2.84529e-05,-0.00337495,53.7316,54.5687,-0.25679,27.4147,54.5724,53.7281,-0.25705,54.4122,213,15.4044,12.0916,0.485,3956
4.94965e-08,7.58864e-07,-2.87573e-06,-2.6776e-05,-0.000258537,-0.00327928,53.2563,49.441,0.0698046,26.5941,53.2578,49.4396,0.0696832,51.3855,213,8.21497,1.63622,0.485,3957
-5.19613e-08,7.51217e-07,-2.8699e-06,-2.81916e-05,-0.000262942,-0.00326788,53.496,49.6564,0.631839,26.4432,53.5084,49.6539,0.621981,51.0684,213,11.9444,1.62743,0.485,3958
-4.21872e-08,-5.18826e-07,-2.86949e-06,-2.06038e-05,-0.00018789,-0.00328849,61.4012,58.1567,0.414819,30.4964,61.4044,58.1567,0.41165,59.4355,213,11.8024,17.8772,0.485,3959
4.15101e-08,-5.11242e-07,-2.87183e-06,-2.46328e-05,-0.000180172,-0.00333735,48.6008,46.2341,0.343366,24.1324,48.6053,46.2325,0.340476,47.1232,213,8.29761,17.8772,0.485,3960
-1.88005e-07,-1.86414e-07,-2.83687e-06,-6.78023e-05,-6.37135e-05,-0.00336595,49.8517,49.9178,0.00348534,24.9866,49.9766,49.7929,0.00345356,49.8816,213,14.8127,15.3751,0.485,3961
1.8835e-07,-1.88352e-07,-2.83554e-06,-6.70355e-05,-6.94924e-05,-0.00336279,49.8597,49.8199,0.0576047,24.9353,49.9282,49.7514,0.0575877,49.7825,213,5.28761,15.3753,0.485,3962
1.8316e-07,2.88813e-07,-2.83315e-06,-6.46553e-05,-9.57875e-05,-0.00333198,57.0054,56.4489,0.0335343,28.4944,57.0224,56.4319,0.0335157,56.6959,213,5.31946,4.14202,0.485,3963
-1.80215e-07,3.04538e-07,-2.82544e-06,-6.28262e-05,-0.000103094,-0.00334252,53.5156,52.8413,-0.192226,26.8619,53.5315,52.8254,-0.192233,53.3742,213,14.7466,3.99617,0.485,3964
4.60352e-08,2.60372e-07,-2.84094e-06,-3.04334e-05,-8.84712e-05,-0.00335788,58.5875,57.5379,-0.0160287,29.3024,58.5887,57.5367,-0.0160347,58.0859,213,8.37419,4.56958,0.485,3965
-4.21464e-10,-2.97384e-08,-2.85768e-06,-2.88142e-05,-2.59704e-05,-0.00342203,44.8169,44.857,0.00135384,22.4279,44.8572,44.8167,0.00134987,44.8356,213,10.051,11.5178,0.485,3966
2.87942e-10,-9.0328e-08,-2.85507e-06,-2.76221e-05,-3.94481e-05,-0.00339037,55.0696,54.8704,0.0111753,27.5293,55.0697,54.8703,0.011173,54.9591,213,10.0525,13.366,0.485,3967
-9.11109e-08,1.04006e-07,-2.85346e-06,-4.10457e-05,-4.19173e-05,-0.00335276,66.8198,66.809,0.0192935,33.4171,66.8535,66.7753,0.0192931,66.7951,213,12.8593,7.01531,0.485,3968
-2.98112e-07,-4.58054e-07,-2.86076e-06,-8.75544e-05,-0.000107224,-0.00331251,59.1836,58.8543,0.193807,29.6628,59.5184,58.5205,0.192794,58.833,213,16.5298,17.8008,0.485,3969
2.96332e-07,-4.47295e-07,-2.86216e-06,-8.77056e-05,-0.000130579,-0.00332222,52.8296,52.1574,0.136125,26.4693,53.0728,51.9162,0.134169,52.3699,213,3.57022,17.8008,0.485,3970
-3.14899e-07,6.71587e-07,-2.86672e-06,-8.34302e-05,-0.000206704,-0.00326934,55.6289,53.5344,0.291362,27.6889,55.6686,53.4953,0.290736,54.3238,213,16.5298,1.69917,0.485,3971
3.15859e-07,6.67338e-07,-2.86862e-06,-8.28438e-05,-0.000233156,-0.00325846,52.1174,49.5882,0.258537,25.9484,52.1551,49.5507,0.258334,50.6448,213,3.57022,1.69917,0.485,3972
-3.86242e-08,4.66183e-08,-2.8566e-06,-3.09358e-05,-2.84744e-05,-0.0034022,51.6583,51.698,0.0452417,25.8281,51.7014,51.6549,0.0452047,51.633,213,11.3305,8.66833,0.485,3973
3.26864e-08,-2.64314e-07,-2.8439e-06,-2.61236e-05,-9.17457e-05,-0.00334194,60.4256,59.2063,0.46391,29.9812,60.4263,59.2056,0.463861,59.3615,213,8.79179,16.1989,0.485,3974
-3.2928e-08,-2.62358e-07,-2.84681e-06,-2.78945e-05,-8.91225e-05,-0.00337066,50.9755,50.0165,0.0739106,25.4511,50.9761,50.016,0.0738544,50.429,213,11.3088,16.1984,0.485,3975
-4.43219e-08,3.82074e-07,-2.8376e-06,-2.94598e-05,-0.000124127,-0.00331857,63.2099,61.3682,0.214009,31.4983,63.2103,61.368,0.213809,62.0958,213,11.694,3.44705,0.485,3976
1.09396e-07,8.36943e-07,-2.86507e-06,-2.74748e-05,-0.000350273,-0.00323585,52.4772,47.1136,0.168511,26.1552,52.4787,47.1122,0.168331,49.8443,213,6.66755,1.40522,0.485,3977
-1.06447e-07,8.6584e-07,-2.85084e-06,-3.62303e-05,-0.00039967,-0.00320259,48.2873,42.5484,0.142541,24.0752,48.2909,42.5468,0.140555,45.5507,213,13.4877,1.34326,0.485,3978
9.00774e-08,-5.79486e-07,-2.86269e-06,-3.32938e-05,-0.000251932,-0.00327351,52.9445,49.2442,-0.109717,26.5356,52.9615,49.2272,-0.109762,51.3062,213,6.66486,18.0743,0.485,3979
-9.53749e-08,-5.76073e-07,-2.86969e-06,-3.30544e-05,-0.000246108,-0.00329027,49.3977,46.0315,-0.0713499,24.7378,49.4035,46.0264,-0.0721183,47.8765,213,13.4352,18.0743,0.485,3980
1.0999e-07,1.01352e-07,-2.85314e-06,-4.52474e-05,-4.17724e-05,-0.00339903,47.2046,47.2528,-0.00848514,23.6369,47.2652,47.1922,-0.00850403,47.2373,213,6.81125,7.05568,0.485,3981
1.72321e-07,1.93078e-08,-2.84736e-06,-6.36223e-05,-2.43468e-05,-0.00337594,58.2149,58.9184,-0.145029,29.5318,58.9185,58.2148,-0.145041,58.7149,213,5.75219,9.58275,0.485,3982
-1.75946e-07,1.98022e-08,-2.84257e-06,-6.6429e-05,-2.41493e-05,-0.00338768,51.2268,51.8972,-0.102066,25.9998,51.8976,51.2264,-0.102068,51.6673,213,14.3492,9.57896,0.485,3983
1.06923e-07,-6.48183e-08,-2.85436e-06,-4.51687e-05,-3.24637e-05,-0.00336936,61.4959,61.7375,-0.0206876,30.8806,61.7406,61.4929,-0.0207024,61.6378,213,6.90118,12.7241,0.485,3984
-1.08199e-07,-6.41957e-08,-2.85374e-06,-4.49449e-05,-3.27801e-05,-0.00338499,54.6813,54.8846,-0.00134386,27.4447,54.888,54.6779,-0.00135413,54.7846,213,13.2271,12.7117,0.485,3985
8.95785e-07,-5.91428e-08,-2.83853e-06,-0.000392252,-3.23142e-05,-0.00313646,51.9636,58.7788,0.838558,28.9737,58.7824,51.9636,0.834948,54.8568,213,1.2925,12.5469,0.485,3986
9.1916e-07,1.06545e-07,-2.82806e-06,-0.000429592,-4.08349e-05,-0.00315935,37.2205,42.5459,0.909218,20.8263,42.5555,37.2172,0.902932,39.2566,213,1.19679,6.80494,0.485,3987
-8.91741e-07,-5.94314e-08,-2.82728e-06,-0.000388546,-3.51547e-05,-0.00317173,48.8979,55.1285,0.506199,27.3133,55.1307,48.8977,0.504195,51.7921,213,18.8075,12.5469,0.485,3988
-9.16685e-07,1.08014e-07,-2.81748e-06,-0.000436068,-4.33673e-05,-0.00317037,37.0922,42.4098,0.747939,20.8369,42.4164,37.0909,0.742572,39.2828,213,18.9032,6.80494,0.485,3989
3.36443e-08,4.18141e-07,-2.83765e-06,-2.73174e-05,-0.000138159,-0.00334067,50.0293,48.3208,0.413849,24.8082,50.0302,48.3201,0.413702,48.7839,213,8.76622,3.14885,0.485,3990
-7.7325e-07,3.42732e-07,-2.84809e-06,-0.000320212,-9.52942e-05,-0.00317358,58.979,63.6288,-0.00881647,31.8192,63.6296,58.9782,-0.00887155,61.445,213,18.6874,3.44356,0.485,3991
8.06845e-07,-2.41748e-07,-2.84093e-06,-0.000302326,-7.13617e-05,-0.00324559,42.6076,46.1973,-0.187942,23.1947,46.2,42.6064,-0.189438,44.7011,213,1.41135,16.0548,0.485,3992
-8.072e-07,-2.41407e-07,-2.84234e-06,-0.000304931,-7.09977e-05,-0.00324473,42.5685,46.1957,-0.16675,23.1835,46.1987,42.5671,-0.168338,44.6621,213,18.6887,16.0548,0.485,3993
7.81517e-07,3.42599e-07,-2.84403e-06,-0.000315679,-9.887e-05,-0.00320186,52.3435,56.3123,-0.118493,28.216,56.3134,52.3424,-0.118556,54.555,213,1.41256,3.44356,0.485,3994
8.01099e-09,1.62519e-07,-2.85045e-06,-2.70739e-05,-5.98497e-05,-0.00338078,54.8642,54.3113,-0.0741709,27.4692,54.8642,54.3113,-0.0741763,54.664,213,9.74894,5.92084,0.485,3995
-3.8674e-07,5.1014e-08,-2.85378e-06,-0.000113008,-2.85339e-05,-0.00336147,56.4114,57.894,0.155559,28.8835,57.9211,56.3857,0.154154,57.0148,213,16.7637,8.34558,0.485,3996
3.95089e-07,5.09775e-08,-2.84212e-06,-0.000121956,-2.84077e-05,-0.00331202,61.9525,63.7865,1.2374,31.2874,63.8076,61.9361,1.23273,61.6604,213,3.32454,8.34574,0.485,3997
3.80521e-07,-1.99298e-08,-2.83676e-06,-0.000115786,-2.25089e-05,-0.00336648,52.6308,54.2243,-0.577033,27.4035,54.2298,52.6253,-0.577087,54.0225,213,3.47992,11.1444,0.485,3998
-3.73692e-07,-1.99615e-08,-2.84974e-06,-0.000109022,-2.28887e-05,-0.00336536,52.9521,54.4001,-0.35226,27.3815,54.4106,52.9416,-0.352311,54.0434,213,16.6203,11.1444,0.485,3999
1.0258e-07,2.19626e-07,-2.84388e-06,-4.28427e-05,-7.52943e-05,-0.00336276,54.3928,53.8473,0.0528876,27.1727,54.3982,53.8419,0.0528845,54.0693,213,6.86584,5.01467,0.485,4000
-2.73619e-07,1.13639e-07,-2.84001e-06,-9.03191e-05,-4.52149e-05,-0.00332911,63.112,64.0153,0.147963,31.9338,64.0154,63.1119,0.147927,63.4206,213,15.8093,6.66928,0.485,4001
2.8316e-07,1.09607e-07,-2.83681e-06,-9.34822e-05,-4.40726e-05,-0.00336516,49.0554,49.8211,0.0939058,24.864,49.8218,49.0547,0.0938362,49.3489,213,4.23486,6.74231,0.485,4002
1.11859e-07,-1.44955e-07,-2.84769e-06,-4.7376e-05,-5.32519e-05,-0.00338371,50.7094,50.6165,-0.094767,25.4079,50.7209,50.605,-0.0947867,50.7578,213,6.69277,14.6397,0.485,4003
-1.11422e-07,-1.46455e-07,-2.84814e-06,-4.57591e-05,-5.34536e-05,-0.00335016,64.2935,64.1398,-0.0263328,32.1693,64.3123,64.121,-0.0263438,64.2432,213,13.4078,14.6396,0.485,4004
-9.64202e-08,2.80736e-07,-2.83957e-06,-4.22745e-05,-9.67215e-05,-0.00336499,49.7846,48.9436,-0.0141502,24.9003,49.7863,48.942,-0.0142488,49.3838,213,13.127,4.28634,0.485,4005
-1.00773e-06,9.70471e-07,-2.7691e-06,-0.000562688,-0.000548584,-0.00282497,42.1804,42.5041,0.473094,21.2412,42.9316,41.7768,0.449204,41.9169,213,19.2648,0.968771,0.485,4006
-9.74232e-07,-7.43848e-07,-2.79312e-06,-0.000579504,-0.000464543,-0.00289314,37.3953,39.3327,0.112272,19.7288,39.549,37.1999,0.0913603,38.3371,213,19.2648,18.5312,0.485,4007
1.0106e-06,9.72294e-07,-2.79187e-06,-0.000595159,-0.000565962,-0.00282731,36.2777,36.7054,0.349612,18.2689,36.8604,36.1498,0.322539,36.1878,213,0.835166,0.968771,0.485,4008
9.75121e-07,-7.44387e-07,-2.79281e-06,-0.000591853,-0.000464526,-0.00291066,31.9204,33.7734,-0.0609947,16.9987,33.9173,31.7955,-0.0800331,32.9877,213,0.835166,18.5312,0.485,4009
2.33989e-07,-8.98563e-09,-2.83945e-06,-8.42404e-05,-2.40719e-05,-0.00337004,49.5719,50.5001,0.350663,25.0749,50.5005,49.5715,0.350656,49.6919,213,4.92383,10.7643,0.485,4010
-2.38919e-07,-8.75277e-09,-2.83595e-06,-8.33405e-05,-2.45009e-05,-0.00336426,53.8796,54.8712,0.213992,27.33,54.874,53.8768,0.213985,54.1683,213,15.1966,10.7462,0.485,4011
1.3722e-06,1.34604e-06,-2.49516e-06,-0.00107493,-0.0010528,-0.00232641,19.5601,19.9289,0.065289,10.476,20.8951,18.7161,-0.056883,19.9519,213,0.367583,0.484385,0.485,4012
7.85548e-07,1.39237e-06,-2.70249e-06,-0.000379455,-0.00112466,-0.00268194,32.2747,20.7894,-0.405047,16.3791,32.315,20.7871,-0.443124,28.7812,213,1.29031,0.484385,0.485,4013
1.45293e-06,7.51592e-07,-2.67072e-06,-0.00121089,-0.000335878,-0.00264268,22.0967,36.8132,-0.385341,18.6426,36.8611,22.0876,-0.424167,32.521,213,0.367583,1.45939,0.485,4014
-7.83941e-07,1.38131e-06,-2.68523e-06,-0.000356749,-0.0011297,-0.00267801,36.9603,23.9596,-0.441056,18.7435,37.0061,23.9538,-0.481007,32.9598,213,18.8097,0.484385,0.485,4015
-1.35112e-06,1.32794e-06,-2.49886e-06,-0.00105365,-0.00103795,-0.00233441,20.2644,20.5247,0.122439,10.8992,21.7908,19.1285,-0.0076705,20.5967,213,19.7324,0.484385,0.485,4016
-1.44305e-06,7.49864e-07,-2.65574e-06,-0.00119638,-0.0003258,-0.00265434,22.5689,37.2206,-0.338879,18.8249,37.2737,22.5531,-0.376105,32.863,213,19.7324,1.45939,0.485,4017
1.29257e-06,-1.09703e-06,-2.61183e-06,-0.00107124,-0.000987192,-0.00236215,20.2847,21.7014,0.186529,11.2699,22.6021,19.5082,0.0622878,21.1632,213,0.367583,19.0156,0.485,4018
1.44182e-06,-5.81091e-07,-2.65761e-06,-0.00117232,-0.000272861,-0.00268002,26.6127,43.1383,-0.456203,21.8435,43.2007,26.5804,-0.486318,38.1929,213,0.367583,18.0406,0.485,4019
7.21558e-07,-1.12437e-06,-2.77033e-06,-0.000359718,-0.001093,-0.00268166,41.325,27.8866,-0.682875,21.0656,41.416,27.8281,-0.715301,37.2451,213,1.29031,19.0156,0.485,4020
-1.43816e-06,-5.77694e-07,-2.65776e-06,-0.00114936,-0.000279645,-0.00270405,24.0902,38.7518,-0.425456,19.6384,38.8198,24.0538,-0.457071,34.362,213,19.7324,18.0406,0.485,4021
-1.28552e-06,-1.09057e-06,-2.61641e-06,-0.00106147,-0.00098619,-0.00237224,20.4619,21.7272,0.029894,11.4337,22.7711,19.5442,-0.0962624,21.4368,213,19.7324,19.0156,0.485,4022
-7.23676e-07,-1.11343e-06,-2.77117e-06,-0.000367907,-0.00104334,-0.00271698,37.3497,25.9607,-0.558349,19.0113,37.433,25.9087,-0.589665,33.769,213,18.8097,19.0156,0.485,4023
4.22228e-07,1.11522e-06,-2.76187e-06,-0.000153058,-0.000869577,-0.00292175,39.3071,28.4993,-0.301316,19.8157,39.3195,28.4975,-0.311884,35.4806,213,2.65784,0.849583,0.485,4024
3.22356e-07,1.14639e-06,-2.74408e-06,-8.546e-05,-0.00092521,-0.00288569,46.0261,31.9006,0.263083,22.9202,46.0648,31.9006,0.22438,40.6531,213,3.58056,0.849583,0.485,4025
6.04153e-07,1.03205e-06,-2.81343e-06,-0.000248571,-0.000777465,-0.00287432,50.0955,39.7185,0.182505,24.9725,50.1149,39.7117,0.169843,45.6415,213,1.77033,0.962542,0.485,4026
4.30369e-07,6.28004e-07,-2.85761e-06,-0.000160303,-0.00022784,-0.00324982,41.8461,40.9344,-0.204496,21.0728,41.9397,40.8421,-0.205793,41.6076,213,2.68271,1.81212,0.485,4027
7.56903e-07,7.31328e-07,-2.87551e-06,-0.000400282,-0.000397644,-0.00302146,47.0073,47.0738,-0.693101,24.0513,47.4092,46.6723,-0.6935,47.7385,213,1.31519,1.44693,0.485,4028
2.39711e-07,1.19182e-06,-2.75121e-06,-8.53143e-05,-0.000842375,-0.00291624,46.9291,34.1712,0.643778,23.191,46.9839,34.1583,0.601859,41.4839,213,4.50329,0.849583,0.485,4029
1.26524e-07,1.31043e-06,-2.73043e-06,-3.40319e-05,-0.00101652,-0.00289397,46.1727,29.6658,-0.448038,23.3408,46.2052,29.6616,-0.476353,40.9948,213,6.05196,0.702609,0.485,4030
1.00808e-07,1.30689e-06,-2.7372e-06,-3.74547e-05,-0.0010521,-0.00287657,45.93,28.872,-0.143248,23.0661,45.9682,28.8547,-0.16413,40.3928,213,6.97468,0.702609,0.485,4031
2.4183e-07,6.09591e-07,-2.86671e-06,-8.00156e-05,-0.000195767,-0.00330192,52.2101,50.4488,-0.501683,26.356,52.2103,50.4486,-0.501748,51.8537,213,4.41585,1.98541,0.485,4032
1.72829e-07,9.77886e-07,-2.82446e-06,-7.23359e-05,-0.000725749,-0.00305153,40.0927,30.9139,-0.151119,20.1246,40.0956,30.9136,-0.153658,36.5341,213,5.34892,1.13583,0.485,4033
1.39335e-07,6.71492e-07,-2.86115e-06,-4.64449e-05,-0.000234571,-0.0033013,52.7834,49.7165,-0.298346,26.5867,52.8741,49.6268,-0.299322,51.6264,213,5.96452,1.83843,0.485,4034
6.49659e-08,1.22456e-06,-2.76208e-06,-3.77322e-05,-0.000969756,-0.00291184,46.7109,31.0378,-0.00462836,23.3824,46.7447,31.0195,-0.0201019,41.217,213,7.74839,0.818111,0.485,4035
3.97276e-08,1.23064e-06,-2.75833e-06,-2.37203e-05,-0.000925528,-0.00294127,47.3841,32.2251,-0.146871,23.7864,47.4094,32.2163,-0.163426,42.086,213,8.67112,0.818111,0.485,4036
7.58323e-08,7.94148e-07,-2.87047e-06,-3.87267e-05,-0.00029086,-0.00326648,52.5587,48.4098,-0.160003,26.3601,52.5599,48.4089,-0.160296,50.7721,213,7.44126,1.52072,0.485,4037
5.58815e-09,1.05374e-06,-2.80994e-06,-2.03665e-05,-0.00079416,-0.00301418,48.6559,35.6447,-0.0591145,24.3712,48.6771,35.6298,-0.0653825,43.7047,213,9.58864,1.06179,0.485,4038
-5.77687e-09,1.05191e-06,-2.8146e-06,-2.25351e-05,-0.000798599,-0.00298883,54.296,39.7749,0.198657,27.0568,54.3098,39.7635,0.196229,48.5049,213,10.5114,1.06179,0.485,4039
2.45515e-08,6.74449e-07,-2.87422e-06,-2.86592e-05,-0.000199408,-0.00331722,53.6662,50.8826,-0.0510174,26.8662,53.6803,50.8694,-0.0519795,52.3835,213,9.13248,1.8799,0.485,4040
-4.02848e-08,1.23277e-06,-2.76159e-06,-2.78994e-05,-0.000932908,-0.00291008,53.0071,36.0177,0.480083,26.3083,53.0528,36.016,0.436105,46.501,213,11.4586,0.813717,0.485,4041
-6.74688e-08,1.22975e-06,-2.76047e-06,-3.39002e-05,-0.000977856,-0.00291067,46.7393,30.8677,-0.00531505,23.3936,46.7635,30.8618,-0.0236169,41.2056,213,12.3813,0.813717,0.485,4042
-2.5849e-08,6.79075e-07,-2.87069e-06,-2.8952e-05,-0.000210412,-0.0033451,39.2243,37.0641,0.263704,19.4845,39.2309,37.0593,0.261925,37.9298,213,10.9972,1.87551,0.485,4043
-9.67605e-08,1.35979e-06,-2.72007e-06,-4.15962e-05,-0.00108062,-0.00287399,40.3315,24.8814,-0.029961,20.2145,40.3675,24.877,-0.0615238,35.3298,213,13.1529,0.671629,0.485,4044
-1.29598e-07,1.33373e-06,-2.72905e-06,-3.71945e-05,-0.0010332,-0.00290249,45.777,29.0366,-0.767311,23.2892,45.7953,29.0342,-0.783167,40.8629,213,14.0757,0.671629,0.485,4045
-7.66447e-08,7.97308e-07,-2.86318e-06,-3.55248e-05,-0.000318796,-0.00323458,52.5148,47.7609,0.146149,26.1918,52.5239,47.7578,0.140201,50.1707,213,12.7161,1.48535,0.485,4046
-2.39701e-07,1.19136e-06,-2.75227e-06,-8.83912e-05,-0.00080959,-0.0029761,54.4437,40.3835,0.0466134,27.2231,54.4882,40.3434,0.0421332,48.9318,213,15.5967,0.849583,0.485,4047
-3.23414e-07,1.12521e-06,-2.75075e-06,-8.50383e-05,-0.000944092,-0.00290149,45.7831,31.3362,0.102408,22.8486,45.7932,31.3326,0.0959517,40.4541,213,16.5194,0.849583,0.485,4048
-1.7369e-07,1.00929e-06,-2.81516e-06,-7.02983e-05,-0.000742556,-0.00300764,40.2424,30.7874,0.274111,19.9949,40.2543,30.785,0.264571,36.1963,213,14.7537,1.12267,0.485,4049
-2.40196e-07,6.08164e-07,-2.86726e-06,-7.90483e-05,-0.000207,-0.0032641,52.0607,49.8921,-0.439467,26.2526,52.0649,49.8888,-0.440353,51.4517,213,15.6868,1.97225,0.485,4050
-1.39514e-07,6.69783e-07,-2.8709e-06,-5.18687e-05,-0.000273039,-0.00328052,46.3106,43.104,-0.138093,23.2616,46.3832,43.0333,-0.140018,44.942,213,14.1658,1.7943,0.485,4051
-4.19536e-07,1.11997e-06,-2.76953e-06,-0.000143243,-0.000868746,-0.00291321,44.7333,32.5357,-0.327334,22.5402,44.7444,32.5334,-0.336103,40.3842,213,17.4422,0.849583,0.485,4052
-4.30954e-07,6.2884e-07,-2.85258e-06,-0.000164764,-0.000228953,-0.00322936,49.7554,48.6759,-0.313839,25.0904,49.8658,48.5667,-0.314965,49.544,213,17.4173,1.81212,0.485,4053
-6.04537e-07,1.02676e-06,-2.81802e-06,-0.000254001,-0.000760233,-0.00289151,43.2071,34.7012,0.385022,21.4303,43.2316,34.6908,0.370977,39.2927,213,18.3297,0.962542,0.485,4054
-7.62637e-07,7.37117e-07,-2.88349e-06,-0.000392758,-0.000389847,-0.00302832,47.3714,47.3355,-0.716662,24.2031,47.6887,47.0191,-0.717539,48.0749,213,18.7848,1.44693,0.485,4055
1.24143e-06,-3.18579e-07,-2.71216e-06,-0.000951631,-0.00011914,-0.00290447,26.0319,37.599,0.0406228,18.7953,37.6152,26.0318,0.0245504,33.3437,213,0.655674,16.8024,0.485,4056
1.2528e-06,-2.31305e-07,-2.71357e-06,-0.000947782,-7.51137e-05,-0.00294421,22.9283,33.5806,0.0610845,16.7838,33.6065,22.9245,0.0389754,29.7038,213,0.655674,15.8274,0.485,4057
1.07684e-06,-4.26514e-07,-2.77507e-06,-0.00081697,-0.000176636,-0.00290506,33.8765,44.639,0.285754,22.1873,44.6495,33.8769,0.274848,40.089,213,0.847604,17.5625,0.485,4058
7.01446e-07,-3.0566e-07,-2.85854e-06,-0.000275343,-0.000108265,-0.00323381,47.958,50.7678,-0.363436,25.6093,50.8536,47.8738,-0.365038,49.7957,213,1.60328,16.8149,0.485,4059
7.52258e-07,-5.26887e-07,-2.86253e-06,-0.000426106,-0.000293307,-0.00311629,31.216,32.8563,-0.0424416,16.4564,32.8699,31.2029,-0.0428626,32.1117,213,1.31519,18.0531,0.485,4060
1.13721e-06,-1.65271e-07,-2.76168e-06,-0.000882411,-5.26678e-05,-0.00293113,37.0512,52.5932,0.14389,26.2457,52.6259,37.0277,0.134635,46.6891,213,0.84159,14.9954,0.485,4061
1.15718e-06,-1.26781e-07,-2.76498e-06,-0.000876719,-4.10399e-05,-0.0029463,33.4474,47.5013,0.115401,23.7098,47.523,33.4377,0.103399,42.1793,213,0.84159,14.0204,0.485,4062
7.30229e-07,-1.77507e-07,-2.85763e-06,-0.00024834,-6.59939e-05,-0.00324039,57.0768,60.6519,-0.174225,30.419,60.6634,57.0657,-0.17458,59.1213,213,1.59726,15.2228,0.485,4063
1.36561e-06,-8.04546e-08,-2.7064e-06,-0.00103884,-3.38217e-05,-0.00285618,29.3558,46.2539,0.0750532,23.1193,46.2872,29.349,0.0485216,40.5181,213,0.596249,13.0984,0.485,4064
1.37661e-06,-5.34063e-08,-2.71014e-06,-0.000985216,-3.02095e-05,-0.00288077,31.1364,47.2036,0.828586,23.2412,47.2578,31.1354,0.775389,40.8796,213,0.596249,12.1234,0.485,4065
7.75942e-07,-9.40911e-08,-2.85616e-06,-0.000290995,-4.28141e-05,-0.00321956,54.2417,58.8985,0.615963,29.1512,58.9151,54.2282,0.612798,56.1059,213,1.53784,13.4688,0.485,4066
1.10157e-06,-1.92568e-08,-2.78713e-06,-0.000802306,-2.7669e-05,-0.00296116,31.6259,42.4991,3.71286,19.5243,42.6326,31.6212,3.58402,34.8721,213,0.959135,11.09,0.485,4067
1.11121e-06,5.81447e-09,-2.78049e-06,-0.000819736,-2.3806e-05,-0.00292717,36.711,50.0861,3.31994,23.4527,50.1559,36.7106,3.2505,41.8358,213,0.959135,10.115,0.485,4068
7.26611e-07,-2.8028e-08,-2.87035e-06,-0.000287392,-2.65654e-05,-0.00323803,48.2845,52.6708,-0.51064,26.6007,52.6906,48.2648,-0.51074,51.1323,213,1.65538,11.5135,0.485,4069
1.32581e-06,3.34126e-08,-2.70856e-06,-0.000974504,-2.70232e-05,-0.00277856,37.255,55.0472,5.15993,25.2394,55.3431,37.2548,4.86427,44.2969,213,0.710212,9.05786,0.485,4070
1.29315e-06,6.25654e-08,-2.72599e-06,-0.000957995,-3.21344e-05,-0.00291652,30.5463,46.1301,-1.61747,23.8793,46.1407,30.5362,-1.618,42.1799,213,0.710212,8.08286,0.485,4071
6.69193e-07,2.16874e-08,-2.88421e-06,-0.000257174,-2.46863e-05,-0.00333193,35.9985,38.7823,-0.175498,19.4837,38.7871,35.9984,-0.18024,37.6506,213,1.76935,9.42289,0.485,4072
1.41486e-06,9.08053e-08,-2.69124e-06,-0.00104726,-3.87285e-05,-0.00285661,24.8946,38.9834,0.717086,19.1881,39.0384,24.8944,0.662253,33.6153,213,0.548396,7.30247,0.485,4073
1.39203e-06,1.26944e-07,-2.69348e-06,-0.00106488,-4.56283e-05,-0.0028306,28.6109,45.5092,-0.38251,22.9551,45.5187,28.6103,-0.391435,40.2165,213,0.548396,6.32747,0.485,4074
8.30347e-07,7.53708e-08,-2.85525e-06,-0.000387034,-3.61851e-05,-0.00319744,39.1771,44.203,1.61516,21.3348,44.2481,39.1687,1.57844,40.3703,213,1.35861,7.58533,0.485,4075
1.125e-06,1.83145e-07,-2.76769e-06,-0.000860894,-6.28968e-05,-0.00297511,28.2373,39.4132,0.0502206,19.6988,39.4331,28.2321,0.0355019,35.1616,213,0.853224,5.46391,0.485,4076
1.11067e-06,2.41841e-07,-2.75827e-06,-0.000864731,-7.01386e-05,-0.00296876,28.2662,39.396,0.372508,19.5285,39.4179,28.2559,0.36088,34.8438,213,0.853224,4.48891,0.485,4077
7.73317e-07,1.46981e-07,-2.84936e-06,-0.00030116,-5.55609e-05,-0.00326233,35.1711,38.112,0.171861,18.978,38.1277,35.1556,0.171684,36.5607,213,1.50162,5.94138,0.485,4078
1.24276e-06,3.21103e-07,-2.70329e-06,-0.000952778,-9.28151e-05,-0.0028866,34.3235,50.4214,-0.541869,25.4893,50.4293,34.3231,-0.549345,45.1349,213,0.656279,3.67178,0.485,4079
1.24405e-06,4.40936e-07,-2.70463e-06,-0.000945459,-0.000161528,-0.00282855,35.5299,50.8811,0.0688887,25.417,50.8917,35.5305,0.0576273,45.1575,213,0.656279,2.69678,0.485,4080
7.0936e-07,2.59246e-07,-2.8604e-06,-0.000256999,-9.02949e-05,-0.00327197,43.051,45.5732,-0.0135717,22.794,45.5744,43.0498,-0.013589,44.3796,213,1.6095,4.26069,0.485,4081
6.87569e-07,4.3625e-07,-2.85505e-06,-0.000261849,-0.000151686,-0.00321643,48.0007,49.859,-0.202604,25.1008,49.998,47.8626,-0.203522,49.1686,213,1.60388,2.68432,0.485,4082
1.04957e-06,5.80569e-07,-2.79117e-06,-0.000826332,-0.000227824,-0.00291367,27.7106,36.1016,-0.0209949,18.0753,36.1183,27.7053,-0.03238,32.7645,213,0.847604,1.93754,0.485,4083
-1.24822e-06,4.3817e-07,-2.70729e-06,-0.000958759,-0.000158246,-0.0028123,35.182,50.8679,0.113286,25.3891,50.8795,35.1824,0.101314,45.0306,213,19.4437,2.69678,0.485,4084
-1.24312e-06,3.22175e-07,-2.70432e-06,-0.000962624,-9.15767e-05,-0.0028802,34.0661,50.355,-0.545841,25.4566,50.3624,34.0637,-0.550883,45.0332,213,19.4437,3.67178,0.485,4085
-1.04383e-06,5.79679e-07,-2.79945e-06,-0.000815659,-0.000238961,-0.00292017,24.3363,31.3974,0.027977,15.7091,31.4264,24.3272,0.00809417,28.5388,213,19.2524,1.93754,0.485,4086
-6.85944e-07,4.36651e-07,-2.85941e-06,-0.000261917,-0.000155361,-0.00321983,47.946,49.7461,-0.236675,25.0503,49.8629,47.8302,-0.237669,49.1158,213,18.4961,2.68432,0.485,4087
-1.10799e-06,2.40219e-07,-2.75538e-06,-0.000859061,-7.66763e-05,-0.00296524,28.2246,39.2679,0.238728,19.5392,39.2967,28.2164,0.218207,34.8841,213,19.2468,4.48891,0.485,4088
-1.12935e-06,1.81977e-07,-2.75922e-06,-0.000858431,-5.97338e-05,-0.00294527,33.7084,47.14,0.0347765,23.5731,47.1632,33.7031,0.016898,42.0637,213,19.2468,5.46391,0.485,4089
-7.1013e-07,2.59402e-07,-2.86196e-06,-0.000259977,-9.11529e-05,-0.00322581,54.5058,57.6589,0.297194,28.6818,57.66,54.5056,0.296319,55.8533,213,18.4905,4.26069,0.485,4090
-1.39237e-06,1.31984e-07,-2.68514e-06,-0.00104638,-4.83998e-05,-0.00287468,25.7241,40.4564,-0.0830454,20.2837,40.4706,25.7238,-0.0968845,35.5661,213,19.5516,6.32747,0.485,4091
-1.40375e-06,9.10975e-08,-2.69319e-06,-0.00101606,-4.0647e-05,-0.00290867,25.121,38.7709,-0.0252941,19.4288,38.8016,25.1211,-0.0560598,34.1391,213,19.5516,7.30247,0.485,4092
-7.74225e-07,1.47684e-07,-2.8431e-06,-0.000295333,-5.39521e-05,-0.00323187,48.1802,52.2395,0.13894,26.0615,52.261,48.1597,0.13793,50.1982,213,18.5984,5.94138,0.485,4093
-1.28951e-06,6.21939e-08,-2.719e-06,-0.000942349,-3.22119e-05,-0.00293109,31.1747,46.4802,-1.18556,23.8413,46.4965,31.159,-1.18614,42.1609,213,19.3898,8.08286,0.485,4094
-1.33122e-06,3.27511e-08,-2.699e-06,-0.00096507,-2.73145e-05,-0.00284917,36.4783,54.0969,3.15389,25.6601,54.2859,36.4775,2.96565,45.1329,213,19.3898,9.05786,0.485,4095
-8.27806e-07,7.58053e-08,-2.83955e-06,-0.000401662,-3.68548e-05,-0.00314678,46.4286,52.5636,1.71008,25.4794,52.6204,46.4203,1.66162,48.159,213,18.7414,7.58533,0.485,4096
-1.11538e-06,5.77543e-09,-2.76164e-06,-0.000814105,-2.37251e-05,-0.0029684,35.9263,49.2204,1.53885,23.9078,49.2875,35.9262,1.47186,42.7315,213,19.1409,10.115,0.485,4097
-1.09884e-06,-1.87912e-08,-2.772e-06,-0.000794851,-2.72876e-05,-0.00295825,36.9837,49.8918,2.68377,23.7581,50.0511,36.9732,2.53494,42.5136,213,19.1409,11.09,0.485,4098
-6.69896e-07,2.17057e-08,-2.86545e-06,-0.00027599,-2.45113e-05,-0.00327379,41.1672,44.595,0.13417,22.2314,44.5959,41.1672,0.133174,42.8514,213,18.3307,9.42289,0.485,4099
-1.3642e-06,-5.20591e-08,-2.71228e-06,-0.000961494,-3.26698e-05,-0.00289964,31.5886,47.2069,0.55817,23.3706,47.2531,31.5886,0.511933,41.206,213,19.5037,12.1234,0.485,4100
-1.36157e-06,-8.35083e-08,-2.69839e-06,-0.00101796,-3.65014e-05,-0.00288686,29.765,46.276,-0.0956355,23.2107,46.3009,29.765,-0.120519,40.7525,213,19.5037,13.0984,0.485,4101
-7.22931e-07,-2.77678e-08,-2.85721e-06,-0.000289916,-2.66853e-05,-0.00323389,48.3877,52.8144,-0.184868,26.5088,52.8326,48.3696,-0.185028,50.933,213,18.4446,11.5135,0.485,4102
-1.16295e-06,-1.27422e-07,-2.75721e-06,-0.000879477,-3.9945e-05,-0.00295748,29.5647,42.0477,0.134129,20.9737,42.0685,29.5568,0.121171,37.3,213,19.2584,14.0204,0.485,4103
-1.1378e-06,-1.64627e-07,-2.76184e-06,-0.000886397,-5.21352e-05,-0.00292662,36.9642,52.5867,0.175493,26.2264,52.6187,36.9418,0.165933,46.6343,213,19.2584,14.9954,0.485,4104
-7.76678e-07,-9.52791e-08,-2.85044e-06,-0.0002929,-4.25835e-05,-0.00321926,54.2008,58.8244,0.432747,29.2082,58.8432,54.188,0.426805,56.2335,213,18.5622,13.4688,0.485,4105
-1.25495e-06,-2.31105e-07,-2.71516e-06,-0.000950482,-7.51549e-05,-0.00294279,22.8777,33.5627,0.0606996,16.7754,33.5892,22.8734,0.0385013,29.6809,213,19.4443,15.8274,0.485,4106
-1.24433e-06,-3.17116e-07,-2.71174e-06,-0.00095301,-0.000117785,-0.00290483,26.0134,37.6179,0.0431993,18.8036,37.6342,26.0132,0.0270864,33.3513,213,19.4443,16.8024,0.485,4107
-7.29658e-07,-1.76466e-07,-2.86007e-06,-0.000250114,-6.61966e-05,-0.00324028,57.0017,60.6082,-0.210224,30.416,60.6215,56.9888,-0.210631,59.0996,213,18.5027,15.2228,0.485,4108
-7.01349e-07,-3.0296e-07,-2.85952e-06,-0.000279088,-0.000105187,-0.00323363,47.8904,50.8149,-0.361217,25.6297,50.8966,47.8103,-0.362824,49.7881,213,18.4967,16.8149,0.485,4109
-1.07774e-06,-4.24127e-07,-2.77781e-06,-0.000817584,-0.000176784,-0.00291026,33.8428,44.6151,0.251381,22.1928,44.626,33.8428,0.240431,40.0966,213,19.2524,17.5625,0.485,4110
-7.49024e-07,-5.26816e-07,-2.86827e-06,-0.000419624,-0.000307522,-0.00304622,42.8223,44.7075,0.175692,22.2739,44.7202,42.8128,0.172429,43.6254,213,18.7848,18.0531,0.485,4111
-3.8517e-07,-8.37176e-07,-2.81672e-06,-0.000153326,-0.000780168,-0.00295601,45.244,34.7056,-0.336129,22.8019,45.2575,34.7024,-0.346422,41.3494,213,17.4422,18.6504,0.485,4112
-2.83454e-07,-8.29167e-07,-2.80696e-06,-7.99593e-05,-0.000871127,-0.00294022,46.5563,33.2514,0.121096,23.2242,46.563,33.2511,0.114654,41.4288,213,16.5194,18.6504,0.485,4113
-5.71981e-07,-7.79598e-07,-2.83951e-06,-0.000249953,-0.000709134,-0.00293033,43.6427,35.9247,0.158352,21.7636,43.675,35.903,0.147747,40.2086,213,18.3297,18.5375,0.485,4114
-4.18289e-07,-4.28216e-07,-2.86322e-06,-0.000167706,-0.000151944,-0.00324483,58.5253,58.7609,-0.265692,29.7184,59.1707,58.116,-0.266161,58.9166,213,17.4173,17.6879,0.485,4115
-2.05401e-07,-8.8897e-07,-2.8087e-06,-8.12285e-05,-0.000737362,-0.00299437,60.292,46.2312,-0.378216,30.366,60.3528,46.1713,-0.37916,55.0293,213,15.5967,18.6504,0.485,4116
-9.75523e-08,-9.83057e-07,-2.81185e-06,-3.13465e-05,-0.00090426,-0.00295784,47.1963,32.9833,-0.572111,23.8991,47.2111,32.9834,-0.587011,42.5092,213,14.0494,18.7871,0.485,4117
-8.14513e-08,-9.78148e-07,-2.80932e-06,-3.58535e-05,-0.000961346,-0.00291851,41.8075,28.1727,0.759033,20.554,41.838,28.1714,0.729891,36.2608,213,13.1267,18.7871,0.485,4118
-2.30312e-07,-4.07147e-07,-2.85338e-06,-7.96032e-05,-0.000121754,-0.00331299,52.9387,52.0019,0.0728372,26.4362,52.9432,51.9996,0.0706854,52.4071,213,15.6893,17.5084,0.485,4119
-1.50252e-07,-7.06806e-07,-2.84501e-06,-6.79486e-05,-0.000652995,-0.00306178,40.9078,32.6887,0.22183,20.3501,40.915,32.6886,0.214716,37.2743,213,14.7562,18.358,0.485,4120
-1.29389e-07,-4.45285e-07,-2.8632e-06,-4.6367e-05,-0.000165761,-0.00336438,39.0203,37.6117,-0.0500049,19.5986,39.1466,37.486,-0.0506345,38.3939,213,14.142,17.6451,0.485,4121
-4.9901e-08,-9.242e-07,-2.81271e-06,-2.88245e-05,-0.000914075,-0.00296503,39.9298,27.5249,0.350246,19.831,39.9792,27.5086,0.317161,35.1281,213,12.3103,18.6886,0.485,4122
-3.43946e-08,-9.20514e-07,-2.81595e-06,-1.93897e-05,-0.000845669,-0.00300027,42.9231,30.6578,0.488493,21.2444,42.9526,30.6529,0.463882,37.8679,213,11.3876,18.6886,0.485,4123
-6.2983e-08,-5.4288e-07,-2.86935e-06,-3.35395e-05,-0.00020749,-0.00327167,62.1263,58.6239,0.0901193,31.0232,62.1314,58.6238,0.0850784,60.369,213,12.6188,17.9757,0.485,4124
-1.76151e-09,-7.59395e-07,-2.8366e-06,-1.64426e-05,-0.000717854,-0.00306338,49.2309,37.4376,-0.435303,24.8469,49.2553,37.4164,-0.43851,44.959,213,10.5114,18.4382,0.485,4125
2.00462e-09,-7.57546e-07,-2.84221e-06,-1.34119e-05,-0.000725399,-0.00305977,49.4078,37.4332,-0.114384,24.7755,49.4324,37.4128,-0.118584,44.7682,213,9.58864,18.4382,0.485,4126
-2.19536e-08,-4.54154e-07,-2.86898e-06,-2.61909e-05,-0.000122595,-0.00330259,69.1677,67.1011,0.147599,34.5225,69.1915,67.0784,0.14651,68.0131,213,10.9262,17.6268,0.485,4127
3.18309e-08,-9.2057e-07,-2.81746e-06,-2.38667e-05,-0.000848523,-0.00295509,53.9303,38.5565,0.443252,26.7708,53.9576,38.5565,0.415965,47.742,213,8.71244,18.6886,0.485,4128
5.23458e-08,-9.21581e-07,-2.81546e-06,-2.79406e-05,-0.000915182,-0.00297327,39.9456,27.4925,0.360194,19.8334,39.989,27.4872,0.322142,35.1262,213,7.78971,18.6886,0.485,4129
2.05542e-08,-4.57312e-07,-2.86887e-06,-2.60706e-05,-0.000122515,-0.00339789,39.6464,38.5314,-0.101407,19.8791,39.6565,38.5216,-0.101726,39.2031,213,9.1738,17.6268,0.485,4130
7.76501e-08,-9.96488e-07,-2.79963e-06,-3.41301e-05,-0.000973515,-0.00287984,47.4255,31.6858,1.18644,23.1618,47.4683,31.6847,1.14467,40.7903,213,6.97334,18.7872,0.485,4131
1.0031e-07,-9.72426e-07,-2.80889e-06,-3.69168e-05,-0.000882569,-0.00298375,41.8402,29.4982,-0.328195,21.0981,41.8542,29.4981,-0.342086,37.5742,213,6.05061,18.7872,0.485,4132
6.35945e-08,-5.34852e-07,-2.87012e-06,-3.0812e-05,-0.000206563,-0.00331615,53.2803,50.2856,-0.444689,26.8632,53.2818,50.2842,-0.444708,52.2921,213,7.48123,17.9758,0.485,4133
2.05375e-07,-8.97514e-07,-2.80327e-06,-7.6907e-05,-0.000754438,-0.00299519,60.173,45.6535,-0.513613,30.366,60.2177,45.6094,-0.514217,54.9052,213,4.50329,18.6504,0.485,4134
2.80227e-07,-8.40719e-07,-2.80507e-06,-7.85561e-05,-0.000880848,-0.00295173,46.4195,32.9332,-0.0348548,23.2332,46.4295,32.9253,-0.036932,41.4005,213,3.58056,18.6504,0.485,4135
1.51962e-07,-7.06813e-07,-2.83959e-06,-6.51993e-05,-0.000651478,-0.00304953,41.1631,32.9254,0.577812,20.3076,41.1785,32.9244,0.563357,37.1817,213,5.34381,18.358,0.485,4136
2.29726e-07,-3.98536e-07,-2.85672e-06,-7.92551e-05,-0.000129339,-0.00331686,46.8453,46.0196,0.131127,23.3644,46.8581,46.0085,0.129416,46.3097,213,4.41074,17.5084,0.485,4137
1.28446e-07,-4.38413e-07,-2.8659e-06,-5.03881e-05,-0.000162143,-0.00329623,62.1038,59.8414,0.121723,31.0948,62.3097,59.6372,0.120042,60.8974,213,5.95806,17.6452,0.485,4138
3.8951e-07,-8.51586e-07,-2.81239e-06,-0.000163798,-0.000775655,-0.00292571,52.4722,40.5202,-0.0917176,26.2875,52.4779,40.5199,-0.0970984,47.7329,213,2.65784,18.6504,0.485,4139
4.16393e-07,-4.29892e-07,-2.86545e-06,-0.00016923,-0.000130659,-0.00327453,50.4884,50.9203,-0.109409,25.6396,51.1689,50.2407,-0.110316,50.8215,213,2.68271,17.6879,0.485,4140
5.72451e-07,-7.64957e-07,-2.8422e-06,-0.000247598,-0.00072938,-0.00291763,43.523,35.4172,0.12963,21.7204,43.5617,35.3873,0.120871,39.9853,213,1.77033,18.5375,0.485,4141
1.44732e-08,4.00685e-08,-2.85718e-06,-2.9179e-05,-2.93014e-05,-0.00339528,55.116,55.1139,0.00403182,27.5567,55.1173,55.1126,0.00403037,55.1109,213,9.56607,8.90322,0.485,4142
4.72238e-08,3.00871e-08,-2.85709e-06,-3.15947e-05,-2.82605e-05,-0.00339416,55.068,55.1264,0.0194761,27.5539,55.1271,55.0673,0.0194355,55.0778,213,8.50846,9.23405,0.485,4143
3.03905e-08,5.33891e-09,-2.85751e-06,-3.14045e-05,-2.58653e-05,-0.00339695,55.0612,55.1539,-0.0488536,27.6014,55.154,55.0612,-0.0488882,55.1565,213,9.03775,10.1563,0.485,4144
3.09251e-08,-1.63275e-08,-2.85763e-06,-3.14104e-05,-2.51267e-05,-0.00343293,40.1615,40.2383,-0.043201,20.1408,40.2385,40.1613,-0.043203,40.2432,213,9.01557,11.0025,0.485,4145
-9.89452e-10,-7.93814e-09,-2.85767e-06,-2.87941e-05,-2.61233e-05,-0.0033741,64.1486,64.2019,0.0839643,32.059,64.2019,64.1486,0.0839375,64.0913,213,10.0732,10.6717,0.485,4146
-3.17782e-08,-1.69526e-08,-2.85744e-06,-3.11405e-05,-2.53706e-05,-0.00341714,46.1651,46.2474,0.0252709,23.1113,46.2479,46.1647,0.0251849,46.1812,213,11.1077,11.0328,0.485,4147
-3.27004e-08,5.16051e-09,-2.85721e-06,-3.15593e-05,-2.63694e-05,-0.00337481,63.9955,64.0973,-0.0509825,32.0743,64.0974,63.9955,-0.0511334,64.0977,213,11.1299,10.1866,0.485,4148
-5.26131e-08,2.04978e-08,-2.85646e-06,-3.28442e-05,-2.69438e-05,-0.00341502,46.1269,46.2089,0.0420162,23.0836,46.2091,46.1267,0.0419963,46.126,213,11.7474,9.60803,0.485,4149
-1.94685e-08,3.0476e-08,-2.85718e-06,-3.04191e-05,-2.78158e-05,-0.00339732,55.0398,55.0839,-0.107138,27.5957,55.0841,55.0397,-0.107239,55.1692,213,10.7129,9.24691,0.485,4150
-3.41658e-09,5.74211e-08,-2.85685e-06,-2.99674e-05,-3.03017e-05,-0.00337304,64.0188,64.0121,-0.0205365,32.02,64.0195,64.0115,-0.0205667,64.036,213,10.1836,8.32464,0.485,4151
-2.38905e-07,-1.1195e-07,-2.84389e-06,-8.75617e-05,-4.23135e-05,-0.00337404,47.3069,47.9787,-0.000665965,23.9899,47.9791,47.3065,-0.000667852,47.647,213,15.3855,14.0163,0.485,4152
-2.78571e-07,-7.82505e-08,-2.84428e-06,-9.6942e-05,-3.55717e-05,-0.0033347,61.999,63.199,0.0209665,31.5891,63.1991,61.9989,0.020958,62.5867,213,15.8192,13.1574,0.485,4153
-2.07879e-07,-7.1212e-08,-2.84887e-06,-7.09152e-05,-3.51971e-05,-0.00339195,45.2351,45.737,0.00560858,22.8666,45.7388,45.2333,0.00560839,45.4825,213,14.9707,12.9505,0.485,4154
-1.82406e-07,-1.41117e-07,-2.84445e-06,-6.58311e-05,-5.2979e-05,-0.0033635,53.9676,54.1846,-0.00663089,27.1021,54.1976,53.9546,-0.00664267,54.0832,213,14.6749,14.5923,0.485,4155
-2.48853e-07,-1.49454e-07,-2.83679e-06,-9.02168e-05,-5.44127e-05,-0.00335047,53.3326,53.9347,-0.0106641,26.9786,53.9465,53.3208,-0.010702,53.6471,213,15.5234,14.7991,0.485,4156
-1.66884e-07,-5.31939e-08,-2.85054e-06,-6.15805e-05,-3.08638e-05,-0.0033762,54.3166,54.8324,0.0849456,27.3752,54.8353,54.3138,0.0848947,54.4915,213,14.3157,12.4016,0.485,4157
-1.39206e-07,-8.28983e-08,-2.85157e-06,-5.36991e-05,-3.76159e-05,-0.00337786,54.4058,54.6764,-0.0188087,27.3491,54.6795,54.4027,-0.0188166,54.5604,213,13.8821,13.2606,0.485,4158
-1.41413e-07,-1.2401e-07,-2.84879e-06,-5.4794e-05,-4.81356e-05,-0.00334964,63.1287,63.2586,0.0341909,31.6209,63.2759,63.1114,0.0341854,63.1596,213,13.9724,14.2245,0.485,4159
-1.46085e-07,-1.65764e-07,-2.84391e-06,-5.68565e-05,-5.95427e-05,-0.00336594,54.1335,54.0883,-0.0215684,27.0986,54.1756,54.0462,-0.0215817,54.1326,213,14.1102,15.0073,0.485,4160
-1.10069e-07,-1.00498e-07,-2.85187e-06,-4.54847e-05,-4.28314e-05,-0.00340121,45.7103,45.7481,-0.0149485,22.8901,45.7653,45.6931,-0.014956,45.7442,213,13.3174,13.6757,0.485,4161
1.93719e-07,1.04329e-07,-2.84567e-06,-6.84818e-05,-4.40081e-05,-0.00334132,62.866,63.3469,0.235965,31.5586,63.3529,62.8602,0.235758,62.8722,213,5.34528,6.9174,0.485,4162
1.53852e-07,8.24764e-08,-2.85032e-06,-5.92097e-05,-3.75672e-05,-0.00337732,54.2397,54.6042,-0.0692068,27.3386,54.608,54.2359,-0.0692163,54.4921,213,5.99331,7.487,0.485,4163
1.41302e-07,1.25987e-07,-2.84959e-06,-5.54268e-05,-4.8982e-05,-0.00339228,45.4804,45.5716,0.035258,22.7741,45.5834,45.4687,0.0352316,45.4909,213,6.16322,6.48608,0.485,4164
2.26076e-07,1.31136e-07,-2.84177e-06,-7.95443e-05,-5.04785e-05,-0.00336247,53.5173,54.0064,-0.245015,27.1286,54.012,53.5119,-0.245208,54.0089,213,4.87502,6.3294,0.485,4165
2.43248e-07,8.62014e-08,-2.84084e-06,-8.15424e-05,-3.82485e-05,-0.00338837,44.8732,45.4814,-0.210784,22.8467,45.4826,44.872,-0.210829,45.3912,213,4.70512,7.33032,0.485,4166
1.80891e-07,2.12383e-07,-2.84133e-06,-6.53692e-05,-7.60956e-05,-0.00337231,45.0712,44.9202,0.0333152,22.5305,45.0943,44.8971,0.0332488,44.9628,213,5.41732,5.02925,0.485,4167
2.42201e-07,2.32397e-07,-2.8345e-06,-8.6127e-05,-8.17581e-05,-0.00333747,53.2124,53.2941,0.0253261,26.6746,53.3744,53.1321,0.0252946,53.2284,213,4.59271,4.70941,0.485,4168
2.38433e-07,1.70649e-07,-2.83888e-06,-8.53367e-05,-5.92373e-05,-0.0033498,53.4268,53.8654,0.0146864,26.931,53.8766,53.4156,0.0146381,53.633,213,4.69058,5.59664,0.485,4169
2.99407e-07,1.44879e-07,-2.83396e-06,-0.000101442,-5.3194e-05,-0.0033645,44.4534,45.1299,0.000997414,22.5661,45.1332,44.4501,0.000974204,44.7946,213,4.05041,6.00955,0.485,4170
1.36523e-07,1.84656e-07,-2.8462e-06,-5.38558e-05,-6.5941e-05,-0.00334203,62.9416,62.7043,-0.0322268,31.4971,62.9619,62.684,-0.0322295,62.8556,213,6.19051,5.46557,0.485,4171
1.38693e-07,2.51881e-07,-2.83969e-06,-5.3759e-05,-8.70245e-05,-0.00333588,60.2693,59.6417,0.0463446,30.1152,60.2766,59.6345,0.0462766,59.9118,213,6.09265,4.57835,0.485,4172
1.06424e-07,1.51602e-07,-2.85013e-06,-4.40613e-05,-5.7869e-05,-0.00339318,45.6595,45.4655,0.0378399,22.8145,45.6667,45.4583,0.0377704,45.5251,213,6.83854,6.03517,0.485,4173
2.07472e-07,-7.27057e-08,-2.84731e-06,-7.32094e-05,-3.52013e-05,-0.0033475,62.7003,63.4454,0.0119921,31.7184,63.4487,62.6971,0.0119078,63.0643,213,5.17133,13.007,0.485,4174
2.78743e-07,-7.93758e-08,-2.84137e-06,-9.56258e-05,-3.6343e-05,-0.00335298,53.3977,54.3946,0.0782467,27.1586,54.3954,53.3969,0.0782421,53.8249,213,4.32235,13.2134,0.485,4175
2.40499e-07,-1.11106e-07,-2.84328e-06,-8.7352e-05,-4.18152e-05,-0.00335849,53.5124,54.2787,-0.0150567,27.1483,54.2814,53.5099,-0.0151885,53.9149,213,4.71495,14.0168,0.485,4176
2.47757e-07,-1.49413e-07,-2.83537e-06,-8.85825e-05,-5.64496e-05,-0.00337254,44.6954,45.1466,-0.0142803,22.5866,45.1588,44.6832,-0.0142929,44.9372,213,4.57679,14.7993,0.485,4177
1.83035e-07,-1.40169e-07,-2.8434e-06,-6.58132e-05,-5.47336e-05,-0.00333897,62.793,63.0115,0.151235,31.4397,63.0306,62.7739,0.151217,62.7514,213,5.42577,14.5929,0.485,4178
1.39008e-07,-8.29453e-08,-2.85164e-06,-5.44499e-05,-3.69196e-05,-0.00340183,45.5175,45.7632,-0.105796,22.9361,45.7664,45.5143,-0.105804,45.7467,213,6.23255,13.2673,0.485,4179
1.6438e-07,-5.50613e-08,-2.851e-06,-6.25315e-05,-3.12181e-05,-0.00335124,63.1934,63.8064,0.272155,31.768,63.8081,63.1917,0.27212,63.2301,213,5.83996,12.4639,0.485,4180
1.4682e-07,-1.65967e-07,-2.8444e-06,-5.70308e-05,-6.21269e-05,-0.00338447,45.3508,45.2805,0.034715,22.6695,45.3737,45.2576,0.0347102,45.2811,213,5.99019,15.0075,0.485,4181
1.42053e-07,-1.2302e-07,-2.84855e-06,-5.50855e-05,-4.75384e-05,-0.00335061,63.0834,63.231,-0.0474985,31.6458,63.244,63.0705,-0.0475371,63.2049,213,6.12835,14.225,0.485,4182
1.09583e-07,-9.99782e-08,-2.85164e-06,-4.67337e-05,-4.19955e-05,-0.00337565,54.66,54.74,0.202845,27.2747,54.7522,54.6479,0.202752,54.4974,213,6.79698,13.6819,0.485,4183
-9.43047e-08,1.79764e-07,-2.84805e-06,-4.2766e-05,-6.43545e-05,-0.00339477,45.51,45.2078,-0.214685,22.8645,45.514,45.2042,-0.21505,45.5749,213,13.0132,5.57249,0.485,4184
-6.83787e-08,1.44099e-07,-2.85231e-06,-3.56934e-05,-5.4803e-05,-0.00334118,69.5779,69.1688,0.0839861,34.7492,69.5824,69.1644,0.083922,69.2904,213,12.3173,6.19283,0.485,4185
-1.2095e-07,1.30998e-07,-2.85034e-06,-4.8767e-05,-5.05296e-05,-0.00337335,54.4635,54.4347,0.0642792,27.2132,54.4907,54.4076,0.0642594,54.3849,213,13.5551,6.39497,0.485,4186
-1.24295e-07,2.15859e-07,-2.84397e-06,-4.9632e-05,-7.70127e-05,-0.00337593,45.535,45.1495,0.298384,22.6196,45.5376,45.147,0.298329,45.0452,213,13.689,5.03048,0.485,4187
-7.06335e-08,2.34968e-07,-2.84353e-06,-3.63034e-05,-8.12299e-05,-0.00333978,63.4044,62.5246,0.152843,31.6268,63.4064,62.5226,0.152842,62.8163,213,12.4512,4.82835,0.485,4188
-1.396e-07,8.32132e-08,-2.85014e-06,-5.50008e-05,-3.76677e-05,-0.00337726,54.3908,54.6823,0.0164073,27.3362,54.6887,54.3844,0.0163605,54.5208,213,13.8567,7.46635,0.485,4189
-1.78622e-07,1.07622e-07,-2.84698e-06,-6.25376e-05,-4.53483e-05,-0.00336615,54.229,54.5221,0.215715,27.1573,54.5301,54.2212,0.215473,54.1609,213,14.5526,6.84601,0.485,4190
-2.35118e-07,8.79141e-08,-2.84265e-06,-7.76408e-05,-3.89123e-05,-0.0033859,45.0171,45.5619,-0.0825148,22.8231,45.5636,45.0155,-0.0826003,45.3746,213,15.3317,7.29333,0.485,4191
-2.08296e-07,1.37289e-07,-2.84437e-06,-7.3896e-05,-5.2009e-05,-0.0033435,62.3632,62.7925,-0.270958,31.5348,62.7985,62.3574,-0.271124,62.8502,213,15.0301,6.22195,0.485,4192
-2.23362e-07,1.75461e-07,-2.84114e-06,-8.19007e-05,-6.05533e-05,-0.0033748,44.7841,45.0824,-0.0516078,22.5708,45.0898,44.7768,-0.051707,44.9858,213,15.2425,5.52571,0.485,4193
-2.393e-07,2.39215e-07,-2.83148e-06,-8.57429e-05,-8.43821e-05,-0.00333186,53.3163,53.3396,0.241485,26.6024,53.4463,53.2097,0.241446,53.0869,213,15.4903,4.63649,0.485,4194
-1.68384e-07,2.24524e-07,-2.84056e-06,-5.96861e-05,-8.07318e-05,-0.00335361,53.8143,53.46,-0.144277,26.9862,53.828,53.4465,-0.144448,53.7827,213,14.4988,4.8854,0.485,4195
-2.93968e-07,1.47463e-07,-2.83659e-06,-0.000100724,-5.32016e-05,-0.00332463,61.6982,62.6249,-0.00435623,31.315,62.6257,61.6974,-0.00435898,62.1711,213,16.0216,5.97304,0.485,4196
-1.34227e-07,2.9421e-07,-2.83543e-06,-5.23897e-05,-0.000100365,-0.0033501,53.825,53.0172,-0.150569,26.9905,53.8299,53.013,-0.151226,53.5773,213,13.9368,4.14126,0.485,4197
1.68355e-08,-2.15558e-07,-2.84319e-06,-2.61086e-05,-7.6946e-05,-0.00337057,54.7609,53.906,-0.0325985,27.3968,54.7609,53.906,-0.0326125,54.3711,213,9.4209,15.63,0.485,4198
1.55324e-08,-3.28191e-07,-2.85058e-06,-2.50376e-05,-0.000120563,-0.00333246,63.2576,61.392,-0.0162484,31.6372,63.258,61.3916,-0.0162726,62.362,213,9.4209,16.7877,0.485,4199
6.67669e-10,-2.67567e-07,-2.84607e-06,-2.42694e-05,-0.000100269,-0.00338949,45.6684,44.6007,-0.164742,22.9167,45.6685,44.6007,-0.164838,45.3089,213,10.05,16.2187,0.485,4200
-1.52844e-08,-3.2731e-07,-2.85178e-06,-2.63993e-05,-0.000118014,-0.00335399,54.4175,52.8773,0.00834474,27.2051,54.4186,52.8762,0.00833972,53.6557,213,10.6794,16.7874,0.485,4201
-1.57137e-08,-2.152e-07,-2.84545e-06,-2.7348e-05,-7.59788e-05,-0.00334853,63.657,62.7041,0.0244084,31.8163,63.6571,62.704,0.0244028,63.1615,213,10.6794,15.6297,0.485,4202
-2.30722e-08,-1.54382e-07,-2.85005e-06,-2.85523e-05,-5.644e-05,-0.00335925,63.8183,63.2713,0.0232648,31.8979,63.819,63.2706,0.0232266,63.5234,213,10.9118,14.7098,0.485,4203
-2.37885e-08,-1.11116e-07,-2.85352e-06,-2.92894e-05,-4.50982e-05,-0.00340875,46.0395,45.818,-0.0153744,23.0276,46.0398,45.8177,-0.0153901,45.9446,213,10.913,13.8622,0.485,4204
2.82162e-10,-1.2814e-07,-2.85165e-06,-2.65485e-05,-5.04442e-05,-0.00338456,55.0068,54.6049,0.0186883,27.4941,55.0068,54.6049,0.0186871,54.7883,213,10.0512,14.2135,0.485,4205
-4.0878e-08,-1.8927e-07,-2.84837e-06,-2.97033e-05,-6.92609e-05,-0.00339755,45.8107,45.2536,-0.10523,22.9584,45.8114,45.2531,-0.105442,45.6403,213,11.5411,15.2785,0.485,4206
2.43987e-08,-1.11358e-07,-2.85272e-06,-2.90545e-05,-4.46945e-05,-0.00340771,46.0779,45.8582,0.0430295,23.0177,46.0785,45.8576,0.0430294,45.9254,213,9.19123,13.864,0.485,4207
2.36935e-08,-1.54251e-07,-2.84793e-06,-2.80224e-05,-5.59166e-05,-0.00338023,54.9564,54.4863,0.0867134,27.4353,54.9573,54.4854,0.0867127,54.6362,213,9.19,14.7115,0.485,4208
4.07188e-08,-1.89092e-07,-2.8452e-06,-2.81181e-05,-7.0622e-05,-0.00337208,54.8866,54.1731,0.207319,27.3403,54.8879,54.1718,0.207307,54.3261,213,8.5609,15.2805,0.485,4209
-2.12465e-08,3.30454e-07,-2.83545e-06,-2.73626e-05,-0.00011084,-0.0033515,54.4949,53.0913,0.0841129,27.2055,54.495,53.0913,0.0840442,53.7228,213,10.8714,3.87183,0.485,4210
-2.12677e-08,4.80598e-07,-2.8429e-06,-2.79543e-05,-0.000171297,-0.00331844,62.0542,59.243,-1.16486,31.6118,62.0565,59.2429,-1.16707,61.8648,213,10.872,2.78532,0.485,4211
6.95479e-10,4.15468e-07,-2.83517e-06,-2.53801e-05,-0.000148236,-0.00334427,54.0042,51.9381,-0.332766,27.1685,54.0042,51.9381,-0.332781,53.334,213,10.0494,3.2101,0.485,4212
1.68146e-08,5.05039e-07,-2.84478e-06,-2.63113e-05,-0.000178985,-0.00333221,53.5764,51.018,-0.604927,27.0918,53.5778,51.0174,-0.605728,52.9498,213,9.40811,2.63622,0.485,4213
1.656e-08,3.47014e-07,-2.83127e-06,-2.55923e-05,-0.000115579,-0.00334918,54.5476,53.034,0.177163,27.1854,54.5478,53.034,0.176988,53.6299,213,9.40752,3.72273,0.485,4214
-2.30032e-08,2.38387e-07,-2.84349e-06,-2.80946e-05,-8.04431e-05,-0.00336766,54.7008,53.8208,0.0078079,27.3469,54.7015,53.8201,0.00779772,54.2584,213,10.9121,4.83349,0.485,4215
-4.64117e-08,2.7394e-07,-2.84082e-06,-2.98813e-05,-9.65044e-05,-0.00336413,54.3813,53.2609,-0.251517,27.317,54.3822,53.2603,-0.251775,54.0817,213,11.7346,4.4087,0.485,4216
4.09285e-09,2.17843e-07,-2.84453e-06,-2.56932e-05,-7.61481e-05,-0.00339136,45.9501,45.2409,0.0982442,22.9259,45.9501,45.2409,0.098244,45.5014,213,9.89888,5.10873,0.485,4217
-1.94927e-08,1.79441e-07,-2.85048e-06,-2.84334e-05,-6.47211e-05,-0.00335577,63.6956,62.9848,-0.0593563,31.8777,63.696,62.9844,-0.0593691,63.4026,213,10.7621,5.6456,0.485,4218
3.93444e-08,3.31677e-07,-2.83785e-06,-2.88445e-05,-0.000110777,-0.00337681,45.6305,44.4787,0.0954079,22.7676,45.6307,44.4786,0.0953834,44.9703,213,8.5702,3.85921,0.485,4219
2.19365e-08,2.73898e-07,-2.83723e-06,-2.7103e-05,-9.14013e-05,-0.00336924,54.5568,53.4757,-0.135432,27.3462,54.557,53.4756,-0.135509,54.1599,213,9.21151,4.4331,0.485,4220
2.68326e-08,2.07346e-07,-2.84525e-06,-2.86303e-05,-7.3526e-05,-0.00334095,63.946,63.0659,0.608277,31.6694,63.9468,63.0654,0.60798,62.9027,213,9.06156,5.24521,0.485,4221
3.52688e-07,3.21263e-08,-2.83205e-06,-0.000109685,-2.66093e-05,-0.00334959,61.0184,62.6301,-1.35538,31.9976,62.6372,61.014,-1.35801,63.1992,213,3.73054,9.04787,0.485,4222
4.97941e-07,2.1772e-08,-2.85659e-06,-0.000156954,-2.54123e-05,-0.00329329,53.6193,55.8314,3.34628,26.297,55.8869,53.6173,3.29278,51.4968,213,2.6714,9.4129,0.485,4223
4.36355e-07,4.42062e-09,-2.84517e-06,-0.000142034,-2.41097e-05,-0.00338857,51.0631,53.0477,-2.343,27.7076,53.06,51.063,-2.35518,54.4442,213,3.0774,10.115,0.485,4224
4.80291e-07,-1.19343e-08,-2.85547e-06,-0.000158048,-2.25706e-05,-0.00336994,51.5159,53.7942,-0.712861,27.255,53.797,51.5132,-0.712984,53.4047,213,2.7491,10.8122,0.485,4225
3.48508e-07,-3.38469e-09,-2.82872e-06,-0.000105026,-2.3798e-05,-0.00335837,53.0943,54.4746,-0.218794,27.3469,54.475,53.0939,-0.218807,54.0165,213,3.80823,10.4472,0.485,4226
2.34108e-07,1.68446e-08,-2.83719e-06,-8.96556e-05,-2.34556e-05,-0.00333142,62.5128,63.8084,0.362154,31.7236,63.8092,62.5121,0.361999,62.8087,213,4.94437,9.66637,0.485,4227
1.90854e-07,4.11178e-08,-2.84521e-06,-6.79677e-05,-2.83184e-05,-0.00338559,53.9755,54.639,-0.313194,27.4764,54.6396,53.975,-0.31328,54.6236,213,5.46379,8.75053,0.485,4228
2.55899e-07,3.80133e-08,-2.83467e-06,-9.00598e-05,-2.79646e-05,-0.00335052,53.647,54.6904,0.143486,27.276,54.6955,53.642,0.143392,54.0331,213,4.65596,8.83416,0.485,4229
2.88895e-07,5.82195e-08,-2.83568e-06,-9.8534e-05,-3.03313e-05,-0.00333956,61.7626,63.0971,-0.443815,31.7739,63.1038,61.756,-0.443935,62.8847,213,4.24996,8.13203,0.485,4230
2.72392e-07,2.98385e-09,-2.83206e-06,-9.95914e-05,-2.38756e-05,-0.00333406,53.6187,54.9022,0.510875,27.1974,54.9043,53.6179,0.509538,53.7631,213,4.53019,10.2572,0.485,4231
2.01642e-07,5.11873e-09,-2.84309e-06,-7.42979e-05,-2.39548e-05,-0.00340209,45.164,45.8663,-0.163521,23.0152,45.8666,45.164,-0.163793,45.6831,213,5.33801,10.1735,0.485,4232
3.00994e-07,-1.43625e-08,-2.83414e-06,-0.00010332,-2.3326e-05,-0.00335165,53.2637,54.6085,-0.0193175,27.3149,54.6102,53.2621,-0.0194978,53.9683,213,4.20188,10.9544,0.485,4233
-4.29957e-07,4.52307e-09,-2.85728e-06,-0.000139604,-2.42419e-05,-0.00338524,43.8146,45.4343,-0.0697921,22.7526,45.4353,43.8139,-0.0700307,44.7167,213,17.0226,10.115,0.485,4234
-4.90464e-07,2.18244e-08,-2.86369e-06,-0.000158597,-2.51988e-05,-0.00335116,52.3033,54.5505,0.892065,26.8446,54.5671,52.3008,0.877904,52.5927,213,17.4227,9.41282,0.485,4235
-3.52423e-07,3.22605e-08,-2.83963e-06,-0.00010095,-2.65488e-05,-0.00332464,61.9724,63.4311,0.0284206,31.7065,63.4412,61.9624,0.0282576,62.6867,213,16.3636,9.04779,0.485,4236
-3.46311e-07,-3.54203e-09,-2.83801e-06,-9.80842e-05,-2.39579e-05,-0.00337166,44.8214,45.8418,0.107151,22.8689,45.8448,44.8186,0.106925,45.2335,213,16.2919,10.4472,0.485,4237
-4.73711e-07,-1.16987e-08,-2.86458e-06,-0.000159812,-2.2537e-05,-0.00333208,60.0058,62.6946,-0.468142,31.584,62.6997,60.0007,-0.468194,61.8626,213,17.351,10.8122,0.485,4238
-2.55646e-07,3.80562e-08,-2.83355e-06,-8.80832e-05,-2.80071e-05,-0.00333646,62.4012,63.5718,0.131333,31.726,63.5833,62.3897,0.131329,62.8637,213,15.4088,8.8337,0.485,4239
-1.9105e-07,4.12056e-08,-2.84169e-06,-6.83362e-05,-2.79776e-05,-0.00338889,53.9117,54.587,-0.42479,27.5073,54.5897,53.9091,-0.424954,54.6776,213,14.6017,8.74818,0.485,4240
-2.39437e-07,1.69953e-08,-2.83259e-06,-9.02349e-05,-2.33685e-05,-0.00335521,53.7577,54.8823,0.297648,27.2932,54.884,53.7562,0.297531,54.0314,213,15.1563,9.66448,0.485,4241
-2.83241e-07,5.8394e-08,-2.8389e-06,-9.29603e-05,-3.04062e-05,-0.00336814,53.3796,54.429,-0.188626,27.3156,54.4425,53.3661,-0.188628,54.101,213,15.809,8.13149,0.485,4242
-2.06968e-07,5.60336e-09,-2.83776e-06,-7.58885e-05,-2.40118e-05,-0.00337487,53.8729,54.7474,-0.179147,27.4635,54.7476,53.8729,-0.179368,54.4949,213,14.7729,10.1626,0.485,4243
-2.77931e-07,2.96422e-09,-2.82966e-06,-9.72835e-05,-2.42739e-05,-0.00337037,44.8517,45.8676,0.172542,22.8492,45.8707,44.8487,0.172415,45.196,213,15.58,10.2481,0.485,4244
-3.01028e-07,-1.46736e-08,-2.83754e-06,-9.77254e-05,-2.37458e-05,-0.00334754,61.8788,63.3269,-0.394351,31.8639,63.3332,61.8727,-0.394545,63.0102,213,15.9085,10.9453,0.485,4245
-2.65038e-07,-2.06899e-07,-2.82725e-06,-9.40055e-05,-7.1296e-05,-0.00333522,53.1108,53.4957,0.0270608,26.7535,53.534,53.0725,0.0270459,53.2777,213,15.8091,15.7295,0.485,4246
-1.82096e-07,-2.57591e-07,-2.8328e-06,-6.44825e-05,-9.3399e-05,-0.00334414,53.6905,53.2009,0.0570948,26.8303,53.7177,53.1737,0.0570602,53.3907,213,14.8307,16.2955,0.485,4247
-2.55099e-07,-2.88047e-07,-2.82861e-06,-9.14001e-05,-0.000106145,-0.00331939,52.8722,52.6242,0.0277787,26.4529,52.9336,52.5629,0.0277199,52.7215,213,15.8271,16.65,0.485,4248
-3.35456e-07,-3.17949e-07,-2.83118e-06,-0.000110262,-0.000131921,-0.00331294,43.7294,43.4236,0.0701696,21.8824,43.8348,43.3184,0.0700223,43.5088,213,16.6676,16.9424,0.485,4249
-5.00844e-07,-1.72418e-07,-2.8447e-06,-0.000184674,-5.96661e-05,-0.00332357,42.649,44.4075,0.030581,22.1924,44.4151,42.6415,0.03039,43.5251,213,17.5612,15.2374,0.485,4250
-4.63796e-07,-1.21675e-07,-2.83783e-06,-0.000170299,-4.62652e-05,-0.00330914,51.521,53.6068,0.301793,26.6581,53.6161,51.5136,0.299914,52.2966,213,17.2754,14.307,0.485,4251
-3.45611e-07,-1.67295e-07,-2.82951e-06,-0.00011445,-6.02037e-05,-0.0033318,52.7578,53.6713,0.177379,26.7557,53.6886,52.7406,0.177257,53.0437,213,16.5198,15.1536,0.485,4252
-5.31636e-07,-2.3e-07,-2.8442e-06,-0.000233525,-7.59185e-05,-0.00325893,49.6283,52.2779,0.259466,26.0097,52.2784,49.6281,0.259106,50.7461,213,17.7471,16.0694,0.485,4253
-4.68531e-07,-2.9909e-07,-2.84374e-06,-0.000186477,-0.000116309,-0.00327729,44.5401,45.5871,0.0498599,22.7913,45.6324,44.4948,0.0498388,45.0246,213,17.5552,16.8295,0.485,4254
2.55982e-07,-2.87339e-07,-2.83006e-06,-9.18875e-05,-9.89363e-05,-0.00332468,52.9171,52.7986,0.017367,26.5047,53.0267,52.6891,0.0172701,52.8414,213,4.27287,16.65,0.485,4255
1.8252e-07,-2.62393e-07,-2.83381e-06,-6.44183e-05,-9.12209e-05,-0.00334313,53.6754,53.225,-0.000594666,26.8588,53.7169,53.1837,-0.000738472,53.453,213,5.26944,16.2957,0.485,4256
2.65039e-07,-2.0815e-07,-2.8263e-06,-9.33532e-05,-7.38553e-05,-0.00333849,53.0934,53.421,0.00854518,26.7315,53.4715,53.0429,0.00852814,53.25,213,4.29105,15.7297,0.485,4257
3.37071e-07,-3.14498e-07,-2.83355e-06,-0.000109545,-0.000127199,-0.00332292,43.7606,43.5117,0.0297295,21.9102,43.85,43.4224,0.0296159,43.6082,213,3.43235,16.9424,0.485,4258
3.45326e-07,-1.66343e-07,-2.82912e-06,-0.000114475,-5.97377e-05,-0.00333031,52.7495,53.6662,0.137521,26.7719,53.6811,52.7348,0.137329,53.0769,213,3.58023,15.1536,0.485,4259
4.63277e-07,-1.22498e-07,-2.83966e-06,-0.00017237,-4.6555e-05,-0.00330409,51.3915,53.5062,0.161612,26.6757,53.5114,51.3879,0.159957,52.322,213,2.82458,14.307,0.485,4260
5.01541e-07,-1.72394e-07,-2.84491e-06,-0.000186272,-5.94356e-05,-0.00329839,50.8972,53.0302,0.103731,26.4678,53.0392,50.8884,0.103521,51.8937,213,2.53883,15.2374,0.485,4261
5.32173e-07,-2.30196e-07,-2.84471e-06,-0.000233432,-7.61645e-05,-0.00325842,49.6088,52.2524,0.221665,26.0156,52.2527,49.6088,0.221382,50.761,213,2.35292,16.0694,0.485,4262
4.69973e-07,-3.00807e-07,-2.84554e-06,-0.000187004,-0.00011861,-0.00326369,50.336,51.4837,0.0380006,25.7452,51.5285,50.2912,0.0379976,50.8831,213,2.54485,16.8295,0.485,4263
2.59264e-07,3.18814e-07,-2.82414e-06,-9.13512e-05,-0.000104431,-0.00330157,61.4713,61.2209,0.0251021,30.7569,61.5388,61.1535,0.0250105,61.322,213,4.30697,3.779,0.485,4264
1.81239e-07,3.9828e-07,-2.82029e-06,-6.13445e-05,-0.000144597,-0.00331792,53.3372,51.9404,0.0982119,26.6227,53.3435,51.9341,0.0981795,52.5548,213,5.29047,3.20684,0.485,4265
2.5473e-07,4.39903e-07,-2.82154e-06,-9.00008e-05,-0.000157246,-0.00329757,52.4956,51.3648,0.0898462,26.2126,52.515,51.3456,0.0897229,51.8504,213,4.27799,2.84382,0.485,4266
3.38546e-07,4.76667e-07,-2.82357e-06,-0.000108238,-0.000182406,-0.00325069,60.2408,58.7945,0.161756,30.0524,60.2664,58.7692,0.161481,59.3705,213,3.43235,2.55757,0.485,4267
4.88091e-07,2.61312e-07,-2.83987e-06,-0.000179978,-9.04421e-05,-0.00328239,50.7569,52.2626,0.0435694,26.121,52.2852,50.7345,0.0433206,51.4841,213,2.55047,4.2469,0.485,4268
4.50815e-07,1.89381e-07,-2.83497e-06,-0.000168842,-6.55486e-05,-0.0033127,45.3484,46.8824,0.0960214,23.3971,46.89,45.341,0.0958333,46.0392,213,2.83621,5.17731,0.485,4269
3.38478e-07,2.5731e-07,-2.82777e-06,-0.000110714,-9.09246e-05,-0.00330052,61.0003,61.3906,-0.0227157,30.7351,61.4474,60.9435,-0.022735,61.2198,213,3.58023,4.34639,0.485,4270
5.16586e-07,3.4498e-07,-2.83226e-06,-0.000222797,-0.000109158,-0.00325441,49.4848,51.3959,0.011236,25.6971,51.4051,49.4758,0.0109886,50.4572,213,2.35352,3.42977,0.485,4271
4.63694e-07,4.47169e-07,-2.82177e-06,-0.00017563,-0.000166993,-0.00322727,58.3301,58.4856,0.0134938,29.3442,58.7016,58.1143,0.0132743,58.3969,213,2.54485,2.67053,0.485,4272
-2.56046e-07,4.41127e-07,-2.82317e-06,-8.92459e-05,-0.000150418,-0.00329861,52.6855,51.6568,0.304859,26.1954,52.6955,51.6469,0.304696,51.8745,213,15.8247,2.83066,0.485,4273
-1.80032e-07,4.08475e-07,-2.82494e-06,-6.25882e-05,-0.000136498,-0.00334645,44.7116,43.6724,0.0693544,22.3262,44.7212,43.6632,0.0689173,44.1328,213,14.7952,3.12075,0.485,4274
-2.57055e-07,3.27717e-07,-2.8187e-06,-9.00138e-05,-0.000112261,-0.00331996,52.8456,52.4749,0.00646273,26.4407,52.8878,52.4328,0.0063132,52.6555,213,15.7761,3.70608,0.485,4275
-3.3852e-07,4.77144e-07,-2.8222e-06,-0.000107715,-0.000184177,-0.00327435,51.6747,50.3902,-0.168517,25.9375,51.7064,50.3585,-0.168559,51.2143,213,16.6676,2.55757,0.485,4276
-3.37787e-07,2.56933e-07,-2.82839e-06,-0.000110978,-9.10397e-05,-0.00332038,52.4724,52.8069,-0.0352249,26.4493,52.8634,52.4159,-0.0352487,52.6763,213,16.5198,4.34639,0.485,4277
-4.50682e-07,1.88902e-07,-2.83597e-06,-0.000168233,-6.51429e-05,-0.00330269,51.2982,53.0319,0.0849685,26.4809,53.0467,51.2835,0.0848484,52.1026,213,17.2638,5.17731,0.485,4278
-4.866e-07,2.61347e-07,-2.83931e-06,-0.000180967,-9.12122e-05,-0.00328373,50.7116,52.221,0.0176396,26.1119,52.2412,50.6917,0.0174048,51.4665,213,17.5495,4.2469,0.485,4279
-5.12698e-07,3.44409e-07,-2.83187e-06,-0.000218554,-0.000107407,-0.00325598,49.6279,51.497,0.0490015,25.7308,51.5104,49.6147,0.0487972,50.5404,213,17.7465,3.42977,0.485,4280
-4.63767e-07,4.48658e-07,-2.82243e-06,-0.000177164,-0.000168738,-0.00324412,50.1661,50.3111,0.0746286,25.1803,50.4348,50.0428,0.0742589,50.1657,213,17.5552,2.67053,0.485,4281
1.04871e-07,7.02576e-08,-2.85454e-06,-4.41531e-05,-3.53764e-05,-0.00334988,69.4344,69.623,-0.0766232,34.8518,69.6271,69.4304,-0.076635,69.6055,213,6.95226,7.861,0.485,4282
1.4754e-07,5.50421e-08,-2.85134e-06,-5.82169e-05,-3.05265e-05,-0.00340015,45.5707,45.9591,0.0650825,22.9477,45.9605,45.5694,0.065041,45.7011,213,6.13432,8.29232,0.485,4283
1.32829e-07,3.15121e-08,-2.85216e-06,-5.3864e-05,-2.65755e-05,-0.00334741,69.2813,69.8661,0.0473336,34.9097,69.8667,69.2807,0.0472913,69.5283,213,6.42273,9.12454,0.485,4284
8.10973e-08,2.03044e-08,-2.85637e-06,-3.9163e-05,-2.65886e-05,-0.0033893,54.9616,55.1731,0.152142,27.5106,55.1733,54.9615,0.152066,54.9156,213,7.5367,9.57674,0.485,4285
6.12478e-08,5.6253e-08,-2.85658e-06,-3.5373e-05,-3.05745e-05,-0.00337174,63.798,63.8919,-0.131444,32.0133,63.895,63.7951,-0.131651,63.9768,213,8.06503,8.32364,0.485,4286
1.10707e-07,8.31469e-09,-2.85446e-06,-4.83919e-05,-2.46862e-05,-0.0033874,54.6758,55.0745,0.0231714,27.5258,55.0746,54.6758,0.0230636,54.8532,213,6.86617,10.0349,0.485,4287
6.55993e-08,8.40452e-08,-2.85553e-06,-3.64152e-05,-3.77273e-05,-0.00340953,45.934,45.9167,-0.0304217,22.986,45.9415,45.9093,-0.0304707,45.9559,213,7.92401,7.51832,0.485,4288
-1.4649e-07,5.48712e-08,-2.8491e-06,-5.76699e-05,-3.00791e-05,-0.00335941,63.1612,63.7002,-0.0930371,31.8988,63.7046,63.1569,-0.0930518,63.5255,213,13.9305,8.29186,0.485,4289
-9.54577e-08,7.13016e-08,-2.85394e-06,-4.26807e-05,-3.557e-05,-0.00338685,54.64,54.7613,-0.139661,27.4541,54.7684,54.6331,-0.139845,54.8407,213,12.933,7.84082,0.485,4290
-1.34826e-07,3.20167e-08,-2.849e-06,-5.55635e-05,-2.58915e-05,-0.00338165,54.4953,54.9945,0.0480283,27.4737,54.9954,54.4944,0.0479896,54.6987,213,13.678,9.12264,0.485,4291
-6.64338e-08,4.59075e-08,-2.8558e-06,-3.67157e-05,-2.80126e-05,-0.00341275,46.0128,46.1358,-0.00220059,23.07,46.1378,46.0108,-0.0022069,46.0766,213,12.1686,8.66733,0.485,4292
-8.26671e-08,2.02056e-08,-2.85492e-06,-3.99968e-05,-2.63477e-05,-0.00338676,54.977,55.2099,0.227983,27.4911,55.2101,54.9769,0.227861,54.866,213,12.5855,9.60702,0.485,4293
-1.13235e-07,8.41119e-09,-2.85197e-06,-5.02748e-05,-2.4715e-05,-0.00338498,54.6466,55.0764,0.0599868,27.5084,55.0766,54.6466,0.0597884,54.8031,213,13.2568,10.0633,0.485,4294
-6.27209e-08,7.24988e-08,-2.8557e-06,-3.56888e-05,-3.57537e-05,-0.00336326,63.9292,63.9287,0.242898,31.8552,63.9528,63.9058,0.242273,63.687,213,12.0949,7.84182,0.485,4295
-1.26775e-07,-3.10016e-07,-2.84424e-06,-5.17908e-05,-0.000108304,-0.00332007,62.5223,61.4085,-0.127994,31.3322,62.5363,61.3945,-0.128042,62.1013,213,13.9459,16.747,0.485,4296
-1.32235e-07,-2.22882e-07,-2.84063e-06,-5.32572e-05,-7.82541e-05,-0.00338111,45.2934,44.941,-0.00559283,22.6558,45.306,44.9284,-0.00560953,45.124,213,13.9279,15.8265,0.485,4297
-9.15891e-08,-3.78574e-07,-2.85183e-06,-4.09443e-05,-0.00017558,-0.00331122,53.6534,51.3711,0.203191,26.7312,53.6642,51.3615,0.201947,52.3489,213,13.2391,17.1761,0.485,4298
-6.87138e-08,-1.90438e-07,-2.84753e-06,-3.54851e-05,-6.94685e-05,-0.00337377,54.5322,53.9607,-0.138092,27.3373,54.5362,53.957,-0.138332,54.3872,213,12.4083,15.3183,0.485,4299
-5.81402e-08,-2.64246e-07,-2.84689e-06,-3.23859e-05,-8.91572e-05,-0.00337555,48.2152,47.3752,0.0462717,24.0856,48.2174,47.373,0.0462697,47.7545,213,12.1759,16.2382,0.485,4300
-1.00096e-07,-1.98016e-07,-2.84525e-06,-4.2608e-05,-7.13531e-05,-0.00335298,60.6821,60.1421,-0.0617803,30.3763,60.6908,60.1334,-0.0617921,60.4758,213,13.2254,15.4588,0.485,4301
-7.76434e-08,-1.40617e-07,-2.8502e-06,-3.83982e-05,-5.16755e-05,-0.00335887,63.4975,63.2366,-0.124522,31.8138,63.5031,63.2311,-0.124585,63.4921,213,12.5906,14.4991,0.485,4302
-3.8575e-08,-3.61653e-07,-2.85318e-06,-2.55861e-05,-0.000151832,-0.00333201,54.1349,52.0014,-0.0163985,27.0764,54.1357,52.0014,-0.0171716,53.1179,213,11.5556,17.0378,0.485,4303
-6.27161e-08,-3.6622e-07,-2.85192e-06,-3.01533e-05,-0.000154496,-0.00333361,53.8827,51.7916,-0.226759,27.0572,53.8874,51.787,-0.226895,53.0953,213,12.4227,17.0776,0.485,4304
-1.32849e-07,3.76927e-07,-2.82834e-06,-5.10856e-05,-0.000129571,-0.00332218,62.0819,60.5438,-0.606707,31.3509,62.0906,60.5396,-0.611205,61.9409,213,13.9574,3.41985,0.485,4305
-1.33215e-07,5.05219e-07,-2.84358e-06,-5.1608e-05,-0.000170924,-0.00325581,63.0514,60.699,2.12318,30.4756,63.0675,60.6897,2.11641,59.7977,213,14.0061,2.54443,0.485,4306
-1.01522e-07,6.27999e-07,-2.84438e-06,-4.07387e-05,-0.000272472,-0.00329213,51.977,48.08,-1.40459,26.702,51.9906,48.0751,-1.41329,51.5578,213,13.328,2.09339,0.485,4307
-7.19587e-08,5.88931e-07,-2.84855e-06,-3.51243e-05,-0.000230778,-0.00329165,53.1986,49.902,-0.0166495,26.6095,53.2011,49.9008,-0.0179471,51.648,213,12.5564,2.23548,0.485,4308
-4.82574e-08,5.27198e-07,-2.84627e-06,-2.89463e-05,-0.000203272,-0.00329893,53.8926,50.961,0.552672,26.6728,53.8955,50.9608,0.549944,51.9404,213,11.8192,2.53724,0.485,4309
-6.82805e-08,4.1972e-07,-2.83906e-06,-3.52287e-05,-0.000142236,-0.00329915,63.0799,60.9809,0.661939,31.2095,63.081,60.9798,0.661921,61.3955,213,12.4311,3.14528,0.485,4310
-9.60555e-08,3.60854e-07,-2.83784e-06,-4.09424e-05,-0.000125598,-0.00335381,45.449,44.2591,0.451717,22.5012,45.452,44.2583,0.449561,44.4176,213,13.1477,3.56493,0.485,4311
-6.80362e-08,3.28781e-07,-2.83928e-06,-3.58456e-05,-0.000112778,-0.00334563,54.3115,53.0176,0.182012,27.0661,54.3136,53.016,0.181514,53.4951,213,12.4105,3.86669,0.485,4312
1.32476e-07,-2.25209e-07,-2.84114e-06,-5.31712e-05,-8.37705e-05,-0.00335167,54.1083,53.5938,0.155403,26.979,54.1134,53.5887,0.155385,53.6976,213,6.17242,15.8269,0.485,4313
1.27549e-07,-3.13239e-07,-2.846e-06,-5.10529e-05,-0.000102822,-0.0033503,53.7575,52.8907,-0.310315,27.0385,53.7666,52.8816,-0.310321,53.6399,213,6.15425,16.7472,0.485,4314
9.21745e-08,-3.8346e-07,-2.85207e-06,-3.93757e-05,-0.000177868,-0.00332909,44.9277,42.994,0.106541,22.4174,44.9388,42.9855,0.103906,43.8909,213,6.86105,17.1764,0.485,4315
5.77164e-08,-2.65632e-07,-2.84594e-06,-3.28601e-05,-9.24901e-05,-0.0033576,54.5365,53.5337,0.127883,27.2057,54.5393,53.531,0.127775,53.9145,213,7.92452,16.2387,0.485,4316
6.81011e-08,-1.89466e-07,-2.84601e-06,-3.55245e-05,-7.10796e-05,-0.00335052,63.4114,62.7154,-0.0765154,31.7467,63.4168,62.7101,-0.0766068,63.143,213,7.69362,15.3203,0.485,4317
7.69864e-08,-1.3924e-07,-2.84884e-06,-3.8651e-05,-5.0829e-05,-0.00339608,48.2855,48.1032,-0.110052,24.2007,48.2912,48.0976,-0.110196,48.3049,213,7.51139,14.5009,0.485,4318
1.00342e-07,-1.96572e-07,-2.84548e-06,-4.35999e-05,-7.34164e-05,-0.00336838,54.2553,53.7539,-0.206298,27.2324,54.2583,53.7512,-0.206512,54.213,213,6.87501,15.4591,0.485,4319
6.29976e-08,-3.66767e-07,-2.85346e-06,-3.32819e-05,-0.000148756,-0.00332888,54.1489,52.2015,0.351079,26.9057,54.1575,52.1978,0.34619,52.8587,213,7.67742,17.0778,0.485,4320
3.78297e-08,-3.63047e-07,-2.85325e-06,-2.57329e-05,-0.000147352,-0.00333552,54.2421,52.2006,0.13369,27.0551,54.2431,52.2004,0.13292,53.1183,213,8.5447,17.0381,0.485,4321
1.28674e-07,4.81388e-07,-2.83813e-06,-5.06316e-05,-0.000168846,-0.00333088,47.1693,45.4289,-0.0058151,23.5879,47.1698,45.4284,-0.00589464,46.3296,213,6.20229,2.69494,0.485,4322
1.2991e-07,3.49135e-07,-2.83251e-06,-5.08087e-05,-0.000115338,-0.00334178,53.7674,52.6822,-0.0893046,26.9306,53.7718,52.6778,-0.0893148,53.3225,213,6.23128,3.63012,0.485,4323
9.6598e-08,5.80366e-07,-2.84947e-06,-4.05609e-05,-0.000248061,-0.00327857,52.9059,49.4164,-0.0284664,26.4683,52.9082,49.4142,-0.0285136,51.279,213,6.90532,2.26172,0.485,4324
6.73128e-08,5.55854e-07,-2.85253e-06,-3.36698e-05,-0.000226151,-0.00328978,53.297,50.0629,0.0216815,26.6385,53.2985,50.0617,0.0214269,51.7346,213,7.67903,2.37722,0.485,4325
5.8255e-08,4.18846e-07,-2.84153e-06,-3.35173e-05,-0.000136708,-0.00333038,54.164,52.438,0.174397,26.9952,54.1645,52.4377,0.17416,53.148,213,7.95466,3.13353,0.485,4326
4.19774e-08,5.54737e-07,-2.85184e-06,-2.79307e-05,-0.000224704,-0.00328415,53.6432,50.3341,0.38111,26.6323,53.6444,50.3341,0.379923,51.6889,213,8.49059,2.39253,0.485,4327
9.48788e-08,3.04811e-07,-2.83833e-06,-4.1225e-05,-0.000103767,-0.00336863,45.4518,44.574,0.166787,22.6435,45.4537,44.5721,0.166769,44.8526,213,7.00447,4.06644,0.485,4328
6.54064e-08,3.31627e-07,-2.83978e-06,-3.54246e-05,-0.000111224,-0.00332995,63.0037,61.5189,-0.0855603,31.5453,63.005,61.5176,-0.0855836,62.3602,213,7.75864,3.8439,0.485,4329
7.19377e-08,2.39443e-07,-2.84279e-06,-3.68877e-05,-8.16869e-05,-0.00336726,54.3988,53.6456,-0.122116,27.2616,54.4011,53.6433,-0.122129,54.1483,213,7.62002,4.79212,0.485,4330
4.56637e-08,-9.15073e-08,-2.85434e-06,-3.05519e-05,-4.02985e-05,-0.00340915,46.0827,45.9456,0.0518337,23.0161,46.0841,45.9442,0.0518255,45.9625,213,8.49077,13.4101,0.485,4331
2.00999e-08,-7.31439e-08,-2.85606e-06,-2.90127e-05,-3.58834e-05,-0.00337026,64,63.8658,-0.00176372,32.0009,64,63.8658,-0.00178004,63.9348,213,9.352,12.9121,0.485,4332
7.0995e-08,-6.12945e-08,-2.85593e-06,-3.79419e-05,-3.18019e-05,-0.00336791,63.7785,63.8991,0.00207476,31.9499,63.9018,63.7758,0.00205272,63.8369,213,7.77636,12.5912,0.485,4333
7.51683e-08,-9.5497e-08,-2.8532e-06,-3.76969e-05,-4.06568e-05,-0.00338399,54.8097,54.7599,0.0230166,27.4018,54.8265,54.7431,0.0230152,54.7618,213,7.61559,13.5431,0.485,4334
2.02191e-08,-4.30521e-08,-2.85738e-06,-2.97035e-05,-2.91729e-05,-0.00337345,64.0458,64.0565,-0.00502515,32.0308,64.0566,64.0457,-0.00503346,64.0562,213,9.35127,11.988,0.485,4335
5.2629e-08,-2.83622e-08,-2.85742e-06,-3.29764e-05,-2.74287e-05,-0.00339515,55.0106,55.1032,-0.0460736,27.5754,55.1047,55.0091,-0.0461002,55.1031,213,8.31584,11.4727,0.485,4336
8.48112e-08,-3.15078e-08,-2.85653e-06,-3.98537e-05,-2.7936e-05,-0.00336916,63.75,63.9839,-0.0180448,32.0013,63.9845,63.7494,-0.018048,63.8853,213,7.44066,11.6056,0.485,4337
-8.83125e-11,-5.68871e-08,-2.85694e-06,-2.84982e-05,-3.27842e-05,-0.00339452,55.0787,55.0067,-0.0427071,27.5609,55.0791,55.0063,-0.0427097,55.0854,213,10.0517,12.4419,0.485,4338
-1.99939e-08,-7.25576e-08,-2.8561e-06,-2.91172e-05,-3.58579e-05,-0.00336928,64.0285,63.8964,0.0580508,31.9859,64.0299,63.8951,0.0579794,63.9046,213,10.7555,12.902,0.485,4339
-4.55099e-08,-9.08196e-08,-2.85474e-06,-3.11137e-05,-4.08984e-05,-0.00338773,54.9767,54.8123,0.0255903,27.4762,54.9781,54.811,0.0255729,54.8691,213,11.6161,13.3983,0.485,4340
-7.61024e-08,-9.56464e-08,-2.8537e-06,-3.84693e-05,-4.17172e-05,-0.00336152,63.6902,63.6265,0.0562818,31.8223,63.7009,63.6158,0.0562788,63.6021,213,12.5003,13.5351,0.485,4341
-7.16471e-08,-6.03431e-08,-2.85571e-06,-3.80507e-05,-3.19932e-05,-0.00339043,54.8314,54.9327,-0.0625031,27.499,54.9355,54.8286,-0.0625042,54.9446,213,12.3429,12.5749,0.485,4342
-5.37659e-08,-2.85274e-08,-2.85698e-06,-3.32107e-05,-2.73365e-05,-0.0033744,63.8989,64.0142,-0.123621,32.0701,64.0161,63.8975,-0.124058,64.0809,213,11.8115,11.4929,0.485,4343
-2.06893e-08,-4.23138e-08,-2.85737e-06,-2.94931e-05,-2.90022e-05,-0.00343145,40.1959,40.202,0.00189554,20.1014,40.2047,40.1932,0.00188418,40.1971,213,10.7548,11.978,0.485,4344
-8.6891e-08,-3.18551e-08,-2.85532e-06,-4.05705e-05,-2.81143e-05,-0.00339127,54.7786,54.9881,-0.106196,27.5476,54.9889,54.7778,-0.106231,54.9899,213,12.6957,11.6297,0.485,4345
5.32381e-07,-2.79699e-08,-2.8629e-06,-0.000192149,-2.55912e-05,-0.00343701,55.3523,58.6085,-7.56487,33.2197,58.7417,55.3521,-7.6978,64.8112,213,2.43966,11.4968,0.485,4346
6.28316e-07,-5.74705e-08,-2.85374e-06,-0.000283767,-3.07309e-05,-0.00324499,49.3946,53.6516,1.52387,26.0798,53.6686,49.3924,1.50906,50.1584,213,2.07677,12.5302,0.485,4347
4.08198e-07,-3.66637e-08,-2.84697e-06,-0.000133074,-2.60779e-05,-0.00341087,38.2823,39.5877,-0.0286987,19.8092,39.5898,38.2802,-0.0287056,38.9802,213,3.17048,11.829,0.485,4348
5.62537e-07,-8.6064e-08,-2.84771e-06,-0.000212281,-3.69848e-05,-0.00334318,42.0087,44.4517,-0.427295,22.44,44.4526,42.0078,-0.427349,43.7089,213,2.32211,13.4522,0.485,4349
3.85495e-07,-8.43446e-08,-2.8389e-06,-0.000129125,-3.58803e-05,-0.00334514,52.4306,54.0018,-0.137688,27.0698,54.0018,52.4306,-0.137697,53.3713,213,3.36351,13.3684,0.485,4350
3.30302e-07,-5.10556e-08,-2.84204e-06,-0.000108965,-2.96469e-05,-0.00333989,61.6128,63.1662,-0.146239,31.6566,63.1667,61.6126,-0.146525,62.5506,213,3.81989,12.3586,0.485,4351
3.02905e-07,-3.1939e-08,-2.83895e-06,-9.898e-05,-2.56655e-05,-0.00335303,61.4892,62.928,-1.02666,31.981,62.9348,61.483,-1.02724,63.2486,213,4.12933,11.674,0.485,4352
3.81722e-07,1.38254e-07,-2.83466e-06,-0.000130274,-5.06332e-05,-0.00333615,52.3419,53.6812,-0.0135549,26.8481,53.6825,52.3406,-0.0135917,53.0379,213,3.33592,6.08393,0.485,4353
5.56277e-07,1.40068e-07,-2.85033e-06,-0.000211331,-5.3152e-05,-0.0032737,58.2115,61.2922,-0.416675,30.8546,61.2923,58.2114,-0.416764,60.2278,213,2.30616,5.98443,0.485,4354
6.45536e-07,1.02075e-07,-2.85021e-06,-0.000289,-3.96797e-05,-0.0032311,56.2384,61.1244,0.00460677,30.5613,61.126,56.2378,0.00353392,58.8309,213,2.00133,6.848,0.485,4355
3.59623e-07,1.04758e-07,-2.83923e-06,-0.000120231,-4.19684e-05,-0.00332383,61.2322,62.7633,0.00499134,31.3792,62.7634,61.2321,0.00499012,62.0069,213,3.52036,6.81668,0.485,4356
5.93221e-07,7.27542e-08,-2.8628e-06,-0.000239174,-3.42602e-05,-0.00330328,56.8444,60.8593,-1.78765,31.3343,60.871,56.8428,-1.79767,60.7548,213,2.16315,7.62839,0.485,4357
5.3566e-07,4.97238e-08,-2.86474e-06,-0.000197034,-2.87526e-05,-0.00339956,48.3677,51.1979,-4.76971,28.0867,51.3006,48.3681,-4.87282,54.7661,213,2.42248,8.35573,0.485,4358
4.18233e-07,7.33431e-08,-2.85092e-06,-0.000143298,-3.37972e-05,-0.00335901,52.0855,53.9269,-0.150542,27.0413,53.932,52.0804,-0.150546,53.1809,213,3.0652,7.61839,0.485,4359
3.31334e-07,7.7182e-08,-2.84019e-06,-0.000107937,-3.58283e-05,-0.0033508,53.3062,54.5161,0.492982,27.0148,54.5222,53.3006,0.492537,53.4293,213,3.7797,7.54402,0.485,4360
-6.26218e-07,-5.74391e-08,-2.85452e-06,-0.000284403,-3.13707e-05,-0.00326218,49.0065,53.2617,0.816893,26.2357,53.2779,49.0007,0.80651,50.4689,213,18.0232,12.5302,0.485,4361
-5.24958e-07,-2.77201e-08,-2.8684e-06,-0.000198658,-2.57925e-05,-0.00338582,48.72,51.6224,-4.07265,27.9368,51.7117,48.72,-4.16191,54.4394,213,17.6603,11.4968,0.485,4362
-3.99151e-07,-3.69587e-08,-2.85933e-06,-0.000130328,-2.68608e-05,-0.00337353,44.0635,45.5294,0.106864,22.7124,45.5315,44.0616,0.106662,44.708,213,16.9296,11.8289,0.485,4363
-3.84555e-07,-8.54186e-08,-2.84041e-06,-0.000134172,-3.51447e-05,-0.0033361,52.3464,54.0143,-0.067025,27.0413,54.0157,52.345,-0.0670274,53.267,213,16.7365,13.3683,0.485,4364
-5.65675e-07,-8.56039e-08,-2.84594e-06,-0.000211928,-3.64953e-05,-0.00331767,50.0786,53.0288,-0.599123,26.8148,53.0303,50.0774,-0.599403,52.2159,213,17.7779,13.4521,0.485,4365
-3.28332e-07,-5.0463e-08,-2.84764e-06,-0.000108319,-2.98306e-05,-0.00332729,61.927,63.4644,0.428209,31.5197,63.4664,61.9261,0.427023,62.2836,213,16.3217,12.3025,0.485,4366
-3.03236e-07,-3.12451e-08,-2.84298e-06,-9.46933e-05,-2.55989e-05,-0.00338108,52.9255,54.0833,-1.06868,27.583,54.0965,52.9131,-1.06953,54.584,213,16.0123,11.618,0.485,4367
-5.6075e-07,1.40185e-07,-2.85053e-06,-0.000212369,-5.23672e-05,-0.00329762,50.048,52.741,-0.361862,26.5515,52.7411,50.048,-0.361933,51.809,213,17.7938,5.98443,0.485,4368
-3.80758e-07,1.39133e-07,-2.83763e-06,-0.000133632,-5.03149e-05,-0.00335189,43.7828,44.9636,0.0202799,22.4718,44.9637,43.7828,0.0201832,44.3649,213,16.7641,6.08393,0.485,4369
-6.42457e-07,1.02617e-07,-2.85106e-06,-0.000289655,-4.03214e-05,-0.00325173,48.3557,52.5475,-0.0311026,26.2902,52.5486,48.3553,-0.0318597,50.6143,213,18.0987,6.848,0.485,4370
-3.5156e-07,1.07265e-07,-2.84398e-06,-0.000120185,-4.27578e-05,-0.00334571,52.695,53.9941,0.034592,26.9802,53.9949,52.6942,0.0345918,53.3219,213,16.5517,6.78016,0.485,4371
-5.85195e-07,7.27204e-08,-2.86437e-06,-0.000247144,-3.46148e-05,-0.00329639,49.0056,52.5769,-0.974153,26.7844,52.5873,49.0027,-0.981596,51.8695,213,17.9369,7.62839,0.485,4372
-4.0826e-07,7.36169e-08,-2.8611e-06,-0.000138398,-3.44843e-05,-0.0033817,43.6727,45.1306,-0.251588,22.6924,45.1331,43.6702,-0.25161,44.6712,213,17.0289,7.61832,0.485,4373
-5.23841e-07,4.95277e-08,-2.86947e-06,-0.000200197,-2.87505e-05,-0.00334149,49.4106,52.294,-2.59868,27.5135,52.3611,49.4106,-2.66585,53.6127,213,17.6717,8.35565,0.485,4374
-3.21182e-07,7.89965e-08,-2.84609e-06,-0.000101254,-3.66847e-05,-0.00332675,62.0425,63.3096,0.385423,31.4674,63.3194,62.0335,0.384652,62.3017,213,16.2865,7.50743,0.485,4375
-5.63635e-08,1.05629e-07,-2.85508e-06,-3.46566e-05,-4.23644e-05,-0.00338596,54.8515,54.7219,-0.017409,27.4354,54.8535,54.7199,-0.0174117,54.8042,213,11.9442,7.00221,0.485,4376
-3.85843e-08,1.46473e-07,-2.85327e-06,-2.96527e-05,-5.60384e-05,-0.00339627,48.5099,48.1191,0.0101812,24.2501,48.5104,48.1186,0.0101722,48.3055,213,11.4022,6.17973,0.485,4377
-9.43799e-09,1.32534e-07,-2.85386e-06,-2.78417e-05,-5.1917e-05,-0.00340611,46.033,45.6947,0.00735243,23.0128,46.033,45.6947,0.00735189,45.8574,213,10.389,6.45497,0.485,4378
8.66175e-10,8.59635e-08,-2.85615e-06,-2.88599e-05,-3.81755e-05,-0.00336874,64.0051,63.8222,0.0439313,31.9808,64.0054,63.822,0.0438693,63.87,213,10.0329,7.48503,0.485,4379
-3.30043e-08,7.35458e-08,-2.85635e-06,-2.96223e-05,-3.57313e-05,-0.00340817,48.6364,48.5469,-0.0464665,24.3421,48.6377,48.5456,-0.0464666,48.6382,213,11.1798,7.82872,0.485,4380
1.87627e-08,1.08375e-07,-2.85459e-06,-2.83962e-05,-4.58753e-05,-0.00338647,55.0118,54.718,0.0433535,27.4844,55.0121,54.7178,0.0433207,54.8222,213,9.39286,6.9509,0.485,4381
7.99735e-08,1.21325e-07,-2.85315e-06,-3.91216e-05,-4.81711e-05,-0.00337905,54.7242,54.571,0.0547714,27.3374,54.7295,54.5657,0.0547586,54.593,213,7.50597,6.63641,0.485,4382
4.17903e-08,1.01223e-07,-2.85487e-06,-3.07162e-05,-4.34702e-05,-0.00340769,46.0466,45.8669,0.033727,23.0069,46.0475,45.866,0.0337227,45.9233,213,8.61874,7.09905,0.485,4383
3.01746e-08,1.53488e-07,-2.8505e-06,-2.95878e-05,-5.73371e-05,-0.00338112,54.7953,54.3278,-0.12342,27.4596,54.7958,54.3273,-0.123442,54.6865,213,8.97481,6.06899,0.485,4384
5.01027e-08,1.95701e-07,-2.84689e-06,-3.14168e-05,-7.04639e-05,-0.00336591,54.9092,54.2525,0.406688,27.252,54.9105,54.2513,0.406589,54.1773,213,8.28744,5.39336,0.485,4385
7.69175e-08,1.79222e-07,-2.84869e-06,-3.818e-05,-6.52322e-05,-0.00337264,54.5055,54.0496,-0.126988,27.3176,54.5082,54.0469,-0.127054,54.4061,213,7.53327,5.61591,0.485,4386
9.76615e-08,-1.04107e-08,-2.85577e-06,-4.47363e-05,-2.41778e-05,-0.00342616,39.9402,40.1911,-0.00562806,20.0984,40.1912,39.9401,-0.00563183,40.0719,213,7.14565,10.7975,0.485,4387
1.5558e-07,8.47834e-10,-2.84985e-06,-5.93067e-05,-2.42287e-05,-0.00338278,54.4101,54.9999,0.0397474,27.4801,54.9999,54.4101,0.0397407,54.6676,213,6.03167,10.3453,0.485,4388
1.22028e-07,-3.95129e-08,-2.85441e-06,-5.04344e-05,-2.87663e-05,-0.00338712,54.5296,54.8942,-0.0894374,27.4924,54.8955,54.5283,-0.0894412,54.8023,213,6.60617,11.916,0.485,4389
1.85451e-07,-3.14666e-08,-2.84896e-06,-6.78844e-05,-2.65527e-05,-0.00337596,54.1851,54.8802,0.0674155,27.4067,54.8808,54.1845,0.0674146,54.4686,213,5.54494,11.6557,0.485,4390
1.81649e-07,-1.33895e-08,-2.8476e-06,-6.80745e-05,-2.41353e-05,-0.0033727,54.3032,55.0417,0.265687,27.3881,55.0419,54.303,0.265682,54.4105,213,5.61749,10.9361,0.485,4391
2.37588e-07,-2.68756e-08,-2.84178e-06,-8.20574e-05,-2.59933e-05,-0.00337016,53.6409,54.5837,-0.294773,27.44,54.5849,53.6399,-0.29501,54.4136,213,4.85128,11.484,0.485,4392
-1.60108e-07,1.64596e-09,-2.84568e-06,-6.17468e-05,-2.43116e-05,-0.00337694,54.4116,55.0426,0.168888,27.4369,55.0427,54.4116,0.168842,54.561,213,14.0966,10.3378,0.485,4393
-1.0076e-07,-1.04329e-08,-2.85384e-06,-4.62791e-05,-2.46523e-05,-0.00338599,54.7783,55.142,0.116418,27.5131,55.1426,54.7777,0.116383,54.8447,213,13.0042,10.8222,0.485,4394
-1.24731e-07,-3.89624e-08,-2.85271e-06,-5.09162e-05,-2.89414e-05,-0.00336796,60.9038,61.3164,0.0258969,30.6464,61.3188,60.9014,0.0258916,61.0853,213,13.5355,11.9042,0.485,4395
-1.90353e-07,-2.98504e-08,-2.84701e-06,-6.79037e-05,-2.64918e-05,-0.00338059,54.0278,54.7243,-0.236637,27.4817,54.7266,54.0257,-0.236763,54.6162,213,14.6242,11.5941,0.485,4396
-2.41879e-07,-2.57319e-08,-2.84052e-06,-8.10252e-05,-2.58497e-05,-0.00339607,44.9697,45.7445,-0.223447,22.9859,45.7482,44.9663,-0.223733,45.586,213,15.3005,11.4189,0.485,4397
-1.86667e-07,-1.27572e-08,-2.84371e-06,-6.92451e-05,-2.4619e-05,-0.00334837,63.1281,64.002,0.402868,31.8005,64.0039,63.1262,0.40286,63.1668,213,14.5203,10.9214,0.485,4398
-2.32012e-06,4.46576e-08,-2.41834e-06,-0.00148783,-3.24551e-05,-0.00254907,31.3751,75.9807,-1.15038,38.5707,75.9907,31.3655,-1.15073,67.0802,213,20.2,8.775,0.49375,4399
-2.16213e-06,9.77571e-07,-2.26899e-06,-0.00189396,-0.000660449,-0.00198156,3.59266,41.3981,0.907809,20.5045,41.6312,3.64521,0.622137,39.5842,213,20.2,0.975,0.49375,4400
-2.24821e-06,4.40223e-07,-2.34779e-06,-0.00164577,-0.000154342,-0.00238205,22.8275,68.5378,0.261321,34.1902,68.592,22.823,0.211641,60.3405,213,20.2,2.925,0.49375,4401
-2.31841e-06,2.37836e-07,-2.38671e-06,-0.00161259,-8.71063e-05,-0.00243801,25.3049,72.0592,0.00699356,36.0533,72.0864,25.305,-0.0202523,63.361,213,20.2,4.875,0.49375,4402
-2.29934e-06,1.18149e-07,-2.44127e-06,-0.00167327,-4.06128e-05,-0.00239989,24.2319,74.2709,1.96205,36.2276,74.346,24.228,1.89087,64.2671,213,20.2,6.825,0.49375,4403
-2.32031e-06,-1.26659e-08,-2.42209e-06,-0.00147887,-3.08068e-05,-0.00253924,32.3213,76.7027,-0.17777,38.4849,76.7525,32.311,-0.21725,66.9234,213,20.2,10.725,0.49375,4404
-2.3027e-06,-7.44407e-08,-2.4435e-06,-0.00165647,-2.96558e-05,-0.00244931,24.0348,73.8948,-0.264552,37.084,73.9014,24.0301,-0.266516,65.4918,213,20.2,12.675,0.49375,4405
-2.35167e-06,-1.66198e-07,-2.36641e-06,-0.00161978,-7.04938e-05,-0.0024472,25.092,72.5759,-0.267344,36.4484,72.6021,25.0933,-0.294775,64.0921,213,20.2,14.625,0.49375,4406
-2.29249e-06,-3.39567e-07,-2.36077e-06,-0.00172474,-0.00012581,-0.00233461,20.3084,69.3136,1.61655,33.8981,69.3655,20.3038,1.56931,60.6397,213,20.2,16.575,0.49375,4407
-2.14e-06,-7.93184e-07,-2.34028e-06,-0.001903,-0.000621674,-0.00199541,3.83734,43.1084,1.00489,21.3082,43.335,3.89721,0.71847,41.1194,213,20.2,18.525,0.49375,4408
-2.06746e-06,1.37146e-06,-2.14416e-06,-0.00185589,-0.000960344,-0.00184444,0.660721,28.1081,1.01175,14.7224,28.3006,2.62422,-1.14423,27.7531,213,20.2,0.4875,0.489375,4409
-2.07574e-06,1.37504e-06,-2.16036e-06,-0.00186624,-0.000965354,-0.00184373,-0.138128,27.4729,0.551741,14.6677,27.6341,1.95384,-1.70139,27.6894,213,20.2,0.4875,0.498125,4410
-2.19804e-06,7.2955e-07,-2.35538e-06,-0.00193179,-0.000358728,-0.00216185,5.18036,53.3928,-1.87065,27.7825,53.4169,5.43377,-2.14812,52.1887,213,20.2,1.4625,0.498125,4411
-2.01907e-06,-1.17188e-06,-2.30695e-06,-0.0018846,-0.000929772,-0.00185363,-0.460186,28.8042,0.489223,15.4655,28.9764,1.81152,-1.95466,29.2305,213,20.2,19.0125,0.498125,4412
-2.01141e-06,-1.1699e-06,-2.29066e-06,-0.00187452,-0.000925704,-0.00185237,0.355303,29.4353,1.03426,15.4901,29.6326,2.54001,-1.34771,29.231,213,20.2,19.0125,0.489375,4413
-2.19284e-06,-5.64592e-07,-2.38132e-06,-0.00193078,-0.000315884,-0.00217724,6.14687,55.6414,-1.40696,28.7039,55.6866,6.41597,-1.72127,53.8028,213,20.2,18.0375,0.498125,4414
-2.1897e-06,7.29049e-07,-2.33637e-06,-0.00192212,-0.000357354,-0.00216,5.90049,53.8587,-1.39021,27.8462,53.965,6.13135,-1.72736,52.2085,213,20.2,1.4625,0.489375,4415
-2.18495e-06,-5.64593e-07,-2.36213e-06,-0.00192147,-0.000315799,-0.0021885,6.3709,55.5828,-1.81315,28.8417,55.6494,6.52515,-2.03403,53.9158,213,20.2,18.0375,0.489375,4416
-2.22324e-06,5.2482e-07,-2.36808e-06,-0.00164113,-0.000192833,-0.00237163,22.1993,66.5878,-0.189623,33.4084,66.6062,22.2019,-0.210542,58.9005,213,20.2,2.4375,0.498125,4417
-2.25459e-06,3.74474e-07,-2.36376e-06,-0.00165459,-0.00011556,-0.00240267,22.8638,70.0332,-0.0640675,35.0757,70.0736,22.837,-0.0777377,61.958,213,20.2,3.4125,0.498125,4418
-2.16695e-06,6.28498e-07,-2.38295e-06,-0.00166902,-0.000186949,-0.00236713,20.7692,66.1927,-0.627212,33.4228,66.2101,20.7602,-0.635572,59.1262,213,20.2,1.95,0.49375,4419
-2.21663e-06,5.24998e-07,-2.3473e-06,-0.00163636,-0.000193363,-0.00237355,22.4216,66.6478,-0.172177,33.4832,66.7191,22.4254,-0.247262,58.9935,213,20.2,2.4375,0.489375,4420
-2.29276e-06,2.81578e-07,-2.38912e-06,-0.0016189,-9.19748e-05,-0.00243309,24.9057,71.7042,-0.0482831,35.8968,71.7309,24.8932,-0.0625607,63.1303,213,20.2,4.3875,0.498125,4421
-2.31814e-06,1.96704e-07,-2.40944e-06,-0.00160905,-8.21058e-05,-0.00244025,25.6207,72.4197,0.145516,36.1534,72.4427,25.6074,0.135808,63.5241,213,20.2,5.3625,0.498125,4422
-2.24828e-06,3.74398e-07,-2.34272e-06,-0.00165038,-0.00011556,-0.00240424,23.0794,70.1198,-0.0254853,35.1472,70.2077,23.0528,-0.0867576,62.0497,213,20.2,3.4125,0.489375,4423
-2.22996e-06,3.27557e-07,-2.37405e-06,-0.00162752,-9.04499e-05,-0.00242887,24.5472,71.6566,-0.0131671,35.8604,71.6829,24.5456,-0.037914,63.1275,213,20.2,3.9,0.49375,4424
-2.28691e-06,2.81418e-07,-2.36782e-06,-0.00161576,-9.20756e-05,-0.00243427,25.0631,71.7622,-0.0231953,35.9574,71.8333,25.0503,-0.0815134,63.2139,213,20.2,4.3875,0.489375,4425
-2.30202e-06,1.38091e-07,-2.44025e-06,-0.00170128,-4.06083e-05,-0.00241039,22.1082,73.0056,0.374765,36.3399,73.0298,22.1086,0.350111,64.6094,213,20.2,6.3375,0.498125,4426
-2.28372e-06,9.83406e-08,-2.46027e-06,-0.00164791,-4.08697e-05,-0.00245206,24.1195,73.3733,-0.526756,36.9696,73.4039,24.0975,-0.535318,65.2108,213,20.2,7.3125,0.498125,4427
-2.31256e-06,1.96449e-07,-2.38809e-06,-0.001606,-8.22257e-05,-0.00244137,25.7738,72.4755,0.170595,36.2078,72.5374,25.7607,0.121798,63.5981,213,20.2,5.3625,0.489375,4428
-2.28097e-06,1.57725e-07,-2.41464e-06,-0.00164305,-6.02672e-05,-0.00244312,24.0843,72.5947,-0.436911,36.5435,72.6286,24.0719,-0.458458,64.4252,213,20.2,5.85,0.49375,4429
-2.29631e-06,1.37797e-07,-2.41906e-06,-0.00169741,-4.05939e-05,-0.00241134,22.323,73.1023,0.441831,36.4163,73.1881,22.3236,0.355438,64.7085,213,20.2,6.3375,0.489375,4430
-2.29143e-06,6.09159e-08,-2.44432e-06,-0.00147785,-3.48284e-05,-0.00254048,32.2136,76.4404,-0.354624,38.4121,76.4676,32.1884,-0.356649,66.79,213,20.2,8.2875,0.498125,4431
-2.33947e-06,2.93516e-08,-2.42075e-06,-0.00149848,-2.99077e-05,-0.00253782,31.1524,76.1623,-0.70193,38.4333,76.1643,31.1508,-0.702303,66.8928,213,20.2,9.2625,0.498125,4432
-2.24486e-06,7.86415e-08,-2.45431e-06,-0.00152066,-3.73327e-05,-0.00252669,29.865,75.3273,-0.968562,38.1546,75.3378,29.8575,-0.971518,66.4906,213,20.2,7.8,0.49375,4433
-2.28702e-06,6.12047e-08,-2.42213e-06,-0.00147582,-3.48745e-05,-0.00254161,32.3039,76.4671,-0.361222,38.4384,76.5041,32.2784,-0.372679,66.8283,213,20.2,8.2875,0.489375,4434
-2.27849e-06,9.83989e-08,-2.43871e-06,-0.00164424,-4.02152e-05,-0.00245324,24.3353,73.4968,-0.459338,37.0446,73.5739,24.3141,-0.515229,65.3155,213,20.2,7.3125,0.489375,4435
-2.33983e-06,1.91961e-09,-2.42235e-06,-0.00149056,-2.85906e-05,-0.00253291,31.8598,76.6675,-0.0867086,38.3923,76.6836,31.858,-0.100995,66.8079,213,20.2,10.2375,0.498125,4436
-2.292e-06,-2.80426e-08,-2.45067e-06,-0.00146969,-3.28533e-05,-0.002526,33.2727,77.3098,0.897779,38.2494,77.3661,33.2469,0.867343,66.5094,213,20.2,11.2125,0.498125,4437
-2.3348e-06,2.94809e-08,-2.39855e-06,-0.00149743,-3.02237e-05,-0.00253841,31.189,76.1572,-0.715621,38.4594,76.1809,31.1877,-0.737945,66.9333,213,20.2,9.2625,0.489375,4438
-2.34061e-06,1.53399e-08,-2.40716e-06,-0.00150115,-2.67768e-05,-0.00252083,31.6442,76.8317,0.392002,38.255,76.8669,31.6442,0.356803,66.625,213,20.2,9.75,0.49375,4439
-2.33481e-06,1.7705e-09,-2.40016e-06,-0.00148853,-2.88509e-05,-0.0025334,31.9641,76.7015,-0.0599387,38.4463,76.768,31.9624,-0.124685,66.894,213,20.2,10.2375,0.489375,4440
-2.28273e-06,-5.98216e-08,-2.47111e-06,-0.00163051,-3.09912e-05,-0.00247406,24.8266,73.8497,-1.02747,37.4498,73.8712,24.806,-1.02839,65.8967,213,20.2,12.1875,0.498125,4441
-2.3146e-06,-8.89652e-08,-2.42437e-06,-0.00168456,-2.87336e-05,-0.00244412,22.4519,73.2009,-0.827663,37.0151,73.2017,22.452,-0.828579,65.5667,213,20.2,13.1625,0.498125,4442
-2.28649e-06,-2.83407e-08,-2.42863e-06,-0.00146574,-3.29421e-05,-0.00252726,33.4793,77.3927,0.945073,38.3454,77.5275,33.453,0.83664,66.6628,213,20.2,11.2125,0.489375,4443
-2.24454e-06,-4.47438e-08,-2.46395e-06,-0.00150805,-3.3357e-05,-0.00250778,31.418,76.6156,0.777478,38.0096,76.7106,31.4091,0.691416,66.2371,213,20.2,11.7,0.49375,4444
-2.27755e-06,-5.97516e-08,-2.4494e-06,-0.00162721,-2.99548e-05,-0.00247593,25.0087,73.9626,-1.00347,37.5263,74.0165,24.9874,-1.03609,66.0075,213,20.2,12.1875,0.489375,4445
-2.35173e-06,-1.33162e-07,-2.37451e-06,-0.00161547,-6.48428e-05,-0.00244796,25.5268,73.0517,0.0120301,36.5371,73.0742,25.5162,6.28789e-05,64.2366,213,20.2,14.1375,0.498125,4446
-2.31959e-06,-2.01743e-07,-2.38925e-06,-0.0016275,-7.58411e-05,-0.00243754,24.7439,72.3004,-0.0826371,36.2157,72.3386,24.7158,-0.0928102,63.7562,213,20.2,15.1125,0.498125,4447
-2.30909e-06,-8.84148e-08,-2.40297e-06,-0.00168121,-2.88595e-05,-0.00244552,22.6145,73.2568,-0.810858,37.0587,73.2816,22.6148,-0.835907,65.6143,213,20.2,13.1625,0.489375,4448
-2.30795e-06,-1.02514e-07,-2.37078e-06,-0.00163989,-4.65525e-05,-0.00244743,24.5943,73.4282,-0.155801,36.8357,73.4807,24.5767,-0.190712,64.9327,213,20.2,13.65,0.49375,4449
-2.34563e-06,-1.33028e-07,-2.3531e-06,-0.00161165,-6.57912e-05,-0.00244914,25.6994,73.0782,0.0315892,36.5816,73.1418,25.6888,-0.0213823,64.2871,213,20.2,14.1375,0.489375,4450
-2.2936e-06,-2.84019e-07,-2.38196e-06,-0.00171486,-0.000102308,-0.00237038,20.533,69.9556,0.442062,34.8057,70.0313,20.4795,0.419918,62.0625,213,20.2,16.0875,0.498125,4451
-2.25276e-06,-4.06599e-07,-2.37833e-06,-0.00173791,-0.00014908,-0.00235616,17.9987,66.6945,-0.949753,33.8394,66.7111,18.0001,-0.967777,60.4689,213,20.2,17.0625,0.498125,4452
-2.31362e-06,-2.01894e-07,-2.36792e-06,-0.00162375,-7.54588e-05,-0.00243929,24.9371,72.3903,-0.058203,36.2869,72.4669,24.9092,-0.106863,63.8533,213,20.2,15.1125,0.489375,4453
-2.24381e-06,-2.39954e-07,-2.40033e-06,-0.00164787,-8.08259e-05,-0.00242716,23.6275,71.6554,-0.256792,35.9818,71.682,23.6258,-0.281641,63.4812,213,20.2,15.6,0.49375,4454
-2.28733e-06,-2.83975e-07,-2.36114e-06,-0.00171105,-0.000102059,-0.00237178,20.7368,70.0503,0.486031,34.8787,70.1737,20.6832,0.416269,62.1537,213,20.2,16.0875,0.489375,4455
-2.2464e-06,-4.06668e-07,-2.35761e-06,-0.00173374,-0.000149617,-0.00235758,18.1989,66.7505,-0.920974,33.8936,66.8066,18.2024,-0.980588,60.5205,213,20.2,17.0625,0.489375,4456
-2.16207e-06,-4.85172e-07,-2.39318e-06,-0.00165364,-0.000144088,-0.00239874,22.1159,68.3817,-0.720514,34.5643,68.3987,22.1082,-0.729861,61.0047,213,20.2,17.55,0.49375,4457
-1.07406e-07,-1.99617e-06,-2.60333e-06,-2.63086e-05,-0.00178826,-0.00232822,73.7557,19.754,3.20488,35.3539,73.8339,19.7545,3.12612,64.0339,213,13.7409,19.5,0.49375,4458
4.75743e-08,-1.96989e-06,-2.63508e-06,-2.3344e-05,-0.00165665,-0.00241303,75.4821,25.4234,2.24124,36.7563,75.6235,25.4123,2.11094,65.07,213,8.20455,19.5,0.49375,4459
9.1268e-07,-1.87336e-06,-2.47424e-06,-0.000680774,-0.00186074,-0.00198008,41.2473,5.08266,1.4252,20.2123,41.5423,5.09502,1.11782,38.5899,213,0.822727,19.5,0.49375,4460
1.09611e-07,-1.97275e-06,-2.6205e-06,-2.80079e-05,-0.00175807,-0.0023454,74.0751,21.0507,3.04977,35.595,74.1574,21.0509,2.9673,64.0911,213,6.35909,19.5,0.49375,4461
1.97697e-07,-1.88019e-06,-2.64689e-06,-8.08929e-05,-0.00157449,-0.00247222,72.5818,26.8049,-0.709398,36.6922,72.6362,26.7894,-0.748248,64.2087,213,4.51364,19.5,0.49375,4462
-9.06949e-07,-1.86728e-06,-2.49042e-06,-0.000681106,-0.00185212,-0.00198379,41.3878,5.49752,1.46225,20.2224,41.655,5.48243,1.21018,38.4869,213,19.2773,19.5,0.49375,4463
-3.81785e-07,-1.89128e-06,-2.61784e-06,-0.000155056,-0.00167254,-0.00237557,67.8256,21.3166,-0.230354,34.0858,67.9051,21.2732,-0.266526,60.3567,213,17.4318,19.5,0.49375,4464
-1.98346e-07,-1.86596e-06,-2.64908e-06,-7.90448e-05,-0.00158374,-0.00247145,72.4204,26.3034,-0.903982,36.7067,72.4695,26.2943,-0.94398,64.2791,213,15.5864,19.5,0.49375,4465
-4.60774e-08,-1.9863e-06,-2.6289e-06,-2.32248e-05,-0.00166394,-0.00240648,75.4653,25.1794,2.42159,36.6281,75.5765,25.1696,2.32025,64.9208,213,11.8955,19.5,0.49375,4466
-3.32814e-10,-1.96523e-06,-2.65038e-06,-3.57079e-05,-0.00149787,-0.00253771,75.8174,31.004,-0.865936,38.367,75.8429,31.0037,-0.89116,66.7681,213,10.05,19.5,0.49375,4467
3.78943e-07,-1.86042e-06,-2.62307e-06,-0.000157529,-0.00160347,-0.00242075,68.4533,24.1369,-0.911702,34.7343,68.5208,24.1055,-0.947796,60.9355,213,2.66818,19.5,0.49375,4468
1.29517e-06,-1.81832e-06,-2.34477e-06,-0.000983441,-0.00183542,-0.00184814,27.1922,1.08005,0.690395,14.6565,27.4621,3.35143,-1.85091,27.0891,213,0.361364,19.5,0.489375,4469
1.29906e-06,-1.82454e-06,-2.36096e-06,-0.000988721,-0.00184502,-0.00183244,27.0571,0.812581,1.19807,14.0397,27.3397,2.46768,-0.739636,26.621,213,0.361364,19.5,0.498125,4470
6.69443e-07,-1.87296e-06,-2.57838e-06,-0.000376041,-0.00188481,-0.00217566,53.3835,7.14149,-1.77251,27.7878,53.431,7.46605,-2.14454,51.4479,213,1.28409,19.5,0.498125,4471
-1.28928e-06,-1.81321e-06,-2.37078e-06,-0.000981519,-0.00183673,-0.00183973,27.5476,1.33647,1.24443,14.4273,27.9029,3.17733,-0.951704,27.0277,213,19.7386,19.5,0.489375,4472
-1.29283e-06,-1.81897e-06,-2.387e-06,-0.000986154,-0.00184547,-0.00184445,26.8106,0.473525,0.504872,14.3867,27.116,2.33029,-1.65731,27.0013,213,19.7386,19.5,0.498125,4473
-6.62862e-07,-1.85392e-06,-2.59154e-06,-0.000379162,-0.00186653,-0.00218346,53.5297,7.94369,-1.76986,27.8387,53.5696,8.24178,-2.10787,51.2919,213,18.8159,19.5,0.498125,4474
6.68558e-07,-1.86704e-06,-2.55916e-06,-0.000374876,-0.00187642,-0.00218432,53.4486,7.4282,-2.00857,27.8907,53.5173,7.615,-2.26408,51.5567,213,1.28409,19.5,0.489375,4475
-6.62007e-07,-1.84834e-06,-2.57225e-06,-0.000377901,-0.00185894,-0.00219509,53.4772,8.08531,-2.21726,27.9998,53.5426,8.25954,-2.45691,51.4847,213,18.8159,19.5,0.489375,4476
-3.18436e-07,-1.92785e-06,-2.62079e-06,-0.000119048,-0.00170925,-0.0023592,69.4439,20.7061,0.78607,34.3581,69.482,20.6882,0.765832,61.2359,213,16.9705,19.5,0.498125,4477
-4.61432e-07,-1.84046e-06,-2.64263e-06,-0.000190879,-0.00163867,-0.00238738,66.2751,21.9022,-1.045,33.7172,66.3762,21.8143,-1.05823,59.3983,213,17.8932,19.5,0.498125,4478
-5.57593e-07,-1.7678e-06,-2.65334e-06,-0.000202257,-0.00153992,-0.00243591,67.203,26.2053,-1.25555,34.2581,67.2525,26.164,-1.26366,59.7285,213,18.3545,19.5,0.49375,4479
-4.61567e-07,-1.83657e-06,-2.62164e-06,-0.000190219,-0.00163554,-0.0024075,65.7588,21.4616,-2.19812,34.0608,65.884,21.376,-2.23764,59.9129,213,17.8932,19.5,0.489375,4480
-1.61949e-07,-1.85282e-06,-2.66821e-06,-7.91537e-05,-0.00150476,-0.00251316,73.6386,29.9456,-0.960566,37.316,73.6554,29.9448,-0.976559,64.9488,213,15.125,19.5,0.498125,4481
-2.35044e-07,-1.89826e-06,-2.64389e-06,-7.92529e-05,-0.00166577,-0.0024188,71.4417,22.817,-0.262507,35.8866,71.4896,22.7904,-0.283728,63.4643,213,16.0477,19.5,0.498125,4482
-3.18443e-07,-1.92374e-06,-2.60009e-06,-0.000119961,-0.00170602,-0.00237918,68.8353,20.2244,-0.407179,34.6822,68.9055,20.206,-0.458959,61.6851,213,16.9705,19.5,0.489375,4483
-2.71492e-07,-1.94241e-06,-2.60996e-06,-8.17125e-05,-0.00174384,-0.00237827,70.0516,19.1093,-0.334938,35.2274,70.0888,19.1032,-0.366044,63.0177,213,16.5091,19.5,0.49375,4484
-2.34716e-07,-1.8943e-06,-2.62274e-06,-7.92269e-05,-0.00166252,-0.00243245,71.1017,22.5759,-1.02163,36.1297,71.1828,22.5498,-1.0766,63.8154,213,16.0477,19.5,0.489375,4485
-9.37376e-08,-1.99332e-06,-2.61717e-06,-3.26184e-05,-0.00179682,-0.00235515,72.1886,18.1181,1.0058,35.6375,72.2441,18.0993,0.969138,64.4408,213,13.2795,19.5,0.498125,4486
-1.17931e-07,-1.95168e-06,-2.63101e-06,-1.9732e-05,-0.0017819,-0.00241529,71.521,17.5128,-1.89983,36.7543,71.5871,17.4683,-1.92142,65.986,213,14.2023,19.5,0.498125,4487
-1.18061e-07,-1.94754e-06,-2.60968e-06,-1.95348e-05,-0.00177813,-0.00241657,71.6153,17.7166,-1.85072,36.8082,71.7108,17.6758,-1.90547,66.04,213,14.2023,19.5,0.489375,4488
-1.25488e-07,-1.85171e-06,-2.65782e-06,-5.97351e-05,-0.00147544,-0.00254196,74.8887,31.499,-1.18843,38.0558,74.9106,31.4897,-1.20104,66.1326,213,14.6636,19.5,0.49375,4489
-1.61827e-07,-1.84922e-06,-2.64629e-06,-7.87082e-05,-0.00150119,-0.00250168,74.1612,30.564,-0.0999924,37.2174,74.2481,30.5638,-0.186677,64.786,213,15.125,19.5,0.489375,4490
-3.77949e-08,-1.95189e-06,-2.6534e-06,-1.27813e-05,-0.00164596,-0.00245456,75.1392,25.0843,0.301663,37.4907,75.2491,25.0084,0.267693,66.1756,213,11.4341,19.5,0.498125,4491
-5.93044e-08,-1.98315e-06,-2.63552e-06,-3.36385e-05,-0.00168461,-0.00240547,74.1578,23.5576,1.46414,36.3892,74.2028,23.5523,1.42445,64.6212,213,12.3568,19.5,0.498125,4492
-9.38074e-08,-1.98886e-06,-2.59642e-06,-3.2995e-05,-0.00179376,-0.00235561,72.2499,18.2845,1.06444,35.6935,72.3591,18.2677,0.972076,64.5024,213,13.2795,19.5,0.489375,4493
-7.71585e-08,-1.9347e-06,-2.63073e-06,-4.23213e-05,-0.00172789,-0.00242087,71.6776,20.017,-1.22216,36.4634,71.691,20.0171,-1.23569,64.9622,213,12.8182,19.5,0.49375,4494
-5.91032e-08,-1.97912e-06,-2.61433e-06,-3.37478e-05,-0.00168221,-0.00240587,74.2164,23.693,1.51382,36.4636,74.3309,23.6886,1.40371,64.7288,213,12.3568,19.5,0.489375,4495
1.58538e-08,-1.95002e-06,-2.66089e-06,-3.44045e-05,-0.00150418,-0.00251392,76.4748,31.428,0.480754,38.0298,76.5203,31.4025,0.460751,66.2497,213,9.58864,19.5,0.498125,4496
-1.70728e-08,-1.94144e-06,-2.66682e-06,-3.69656e-05,-0.00149401,-0.00253847,75.8394,31.1829,-0.828706,38.3657,75.8901,31.1447,-0.84121,66.7568,213,10.5114,19.5,0.498125,4497
-3.7809e-08,-1.94777e-06,-2.63191e-06,-1.25452e-05,-0.0016412,-0.00245593,75.2659,25.3497,0.379293,37.5763,75.4366,25.2743,0.28397,66.2898,213,11.4341,19.5,0.489375,4498
-3.44128e-08,-1.87208e-06,-2.66618e-06,-2.70034e-05,-0.00152289,-0.00252002,76.1294,30.2825,-0.278587,38.2278,76.1533,30.2823,-0.302269,66.6521,213,10.9727,19.5,0.49375,4499
-1.71081e-08,-1.93802e-06,-2.64478e-06,-3.69168e-05,-0.00149116,-0.00251849,76.5928,32.022,0.535572,38.1207,76.7039,31.984,0.462504,66.356,213,10.5114,19.5,0.489375,4500
5.97612e-08,-1.97769e-06,-2.64028e-06,-2.92021e-05,-0.00167844,-0.00241227,74.4188,23.8717,1.38052,36.5615,74.4611,23.8717,1.33819,64.8614,213,7.74318,19.5,0.498125,4501
3.81299e-08,-1.9431e-06,-2.65406e-06,-1.7528e-05,-0.00163787,-0.00245513,75.085,25.4237,0.375401,37.4197,75.1717,25.3801,0.332265,65.9831,213,8.66591,19.5,0.498125,4502
3.81947e-08,-1.93871e-06,-2.63258e-06,-1.74058e-05,-0.00163208,-0.00245659,75.235,25.747,0.476984,37.5154,75.3929,25.7041,0.362071,66.1091,213,8.66591,19.5,0.489375,4503
3.14736e-08,-1.88909e-06,-2.65436e-06,-2.69225e-05,-0.0015342,-0.0025128,76.0002,29.804,-0.188827,38.1184,76.0245,29.8032,-0.212333,66.5184,213,9.12727,19.5,0.49375,4504
1.58597e-08,-1.94646e-06,-2.6389e-06,-3.44989e-05,-0.00150125,-0.0025367,75.8164,30.8622,-0.873007,38.3969,75.8815,30.8365,-0.912346,66.8368,213,9.58864,19.5,0.489375,4505
1.20093e-07,-1.92767e-06,-2.64518e-06,-1.7994e-05,-0.00175215,-0.0024292,72.1517,19.002,-1.74871,36.9837,72.2079,18.9566,-1.75951,66.091,213,5.89773,19.5,0.498125,4506
9.43195e-08,-1.98574e-06,-2.62846e-06,-3.78066e-05,-0.00176594,-0.00236774,72.4599,19.4948,1.05026,35.7319,72.4885,19.4917,1.02477,64.2524,213,6.82045,19.5,0.498125,4507
5.9604e-08,-1.97372e-06,-2.61904e-06,-2.91085e-05,-0.00167619,-0.00241259,74.4883,24.0073,1.4376,36.6411,74.604,24.0074,1.32182,64.9804,213,7.74318,19.5,0.489375,4508
7.4473e-08,-1.9587e-06,-2.62705e-06,-3.8203e-05,-0.00172133,-0.00242594,71.9884,20.4027,-1.1927,36.6023,72,20.403,-1.20458,65.1462,213,7.28182,19.5,0.49375,4509
9.44057e-08,-1.98152e-06,-2.6076e-06,-3.83946e-05,-0.00176302,-0.00236796,72.5117,19.6542,1.11356,35.7856,72.5993,19.652,1.02814,64.3145,213,6.82045,19.5,0.489375,4510
2.35941e-07,-1.91248e-06,-2.64036e-06,-8.40813e-05,-0.00165008,-0.00242214,71.5407,23.5447,-0.117891,35.8655,71.5905,23.5175,-0.140502,63.3089,213,4.05227,19.5,0.498125,4511
1.61192e-07,-1.85929e-06,-2.66792e-06,-7.78868e-05,-0.00150201,-0.00251486,73.7534,30.1057,-0.936831,37.364,73.776,30.0983,-0.951986,65.0236,213,4.975,19.5,0.498125,4512
1.20231e-07,-1.92375e-06,-2.62375e-06,-1.75353e-05,-0.00174868,-0.00243034,72.2577,19.2003,-1.69172,37.0452,72.3496,19.1575,-1.74087,66.1647,213,5.89773,19.5,0.489375,4513
1.25972e-07,-1.84283e-06,-2.65992e-06,-5.46276e-05,-0.0014643,-0.00254977,75.3227,32.1181,-1.15045,38.2505,75.3368,32.1177,-1.16422,66.4379,213,5.43636,19.5,0.49375,4514
1.60991e-07,-1.85579e-06,-2.64595e-06,-7.74991e-05,-0.00149848,-0.00250592,74.1877,30.6363,-0.240577,37.3011,74.2774,30.6308,-0.32477,64.9183,213,4.975,19.5,0.489375,4515
4.62046e-07,-1.83291e-06,-2.64085e-06,-0.000203162,-0.00154665,-0.00241519,67.6051,26.4287,-0.190953,33.9278,67.6451,26.4083,-0.21047,59.2174,213,2.20682,19.5,0.498125,4516
3.16705e-07,-1.90166e-06,-2.62532e-06,-0.000111879,-0.00166318,-0.00239831,70.1279,22.5823,0.0516483,35.0817,70.1945,22.5362,0.0311234,62.0512,213,3.12955,19.5,0.498125,4517
2.35666e-07,-1.90851e-06,-2.61918e-06,-8.42825e-05,-0.00164668,-0.00243528,71.208,23.3225,-0.84729,36.0958,71.2891,23.2966,-0.902457,63.6416,213,4.05227,19.5,0.489375,4518
2.75406e-07,-1.94891e-06,-2.60559e-06,-7.71668e-05,-0.00172115,-0.0023843,70.8877,20.5015,0.176847,35.3889,70.9214,20.5011,0.143568,63.1116,213,3.59091,19.5,0.49375,4519
3.16729e-07,-1.89755e-06,-2.60435e-06,-0.00011248,-0.00165981,-0.00241101,69.7833,22.3596,-0.663803,35.2988,69.8814,22.3139,-0.71618,62.3581,213,3.12955,19.5,0.489375,4520
5.66163e-07,-1.8115e-06,-2.63647e-06,-0.000198117,-0.00156888,-0.00241896,67.071,25.0587,-0.99526,34.0529,67.1029,25.0344,-1.00287,59.5235,213,1.74545,19.5,0.49375,4521
4.62112e-07,-1.82902e-06,-2.6197e-06,-0.000202635,-0.00154359,-0.00242882,67.2914,26.1927,-0.938509,34.1744,67.3609,26.1725,-0.987883,59.6059,213,2.20682,19.5,0.489375,4522
-1.38309e-07,2.23734e-06,-2.28883e-06,-4.27816e-05,-0.00170246,-0.00257091,7.93278,2.97851,0.386135,4.68175,8.8413,2.97833,-0.522205,8.19462,213,13.7409,0,0.45,4523
1.37504e-07,2.25218e-06,-2.28154e-06,-4.27957e-05,-0.00172663,-0.00254829,7.92781,2.90145,0.448733,4.62587,8.81415,2.90144,-0.437599,8.11493,213,6.35909,0,0.45,4524
5.73853e-08,2.24803e-06,-2.28557e-06,-3.22125e-05,-0.00162109,-0.00265852,7.97809,3.23519,0.138378,4.73407,8.79195,3.2359,-0.676193,8.24075,213,8.20455,0,0.45,4525
4.54343e-07,2.11917e-06,-2.29339e-06,-0.000164649,-0.00158713,-0.0025688,7.55495,3.30874,0.378369,4.64787,8.61426,3.30927,-0.681471,8.07712,213,2.66818,0,0.45,4526
9.87953e-07,2.06003e-06,-2.17788e-06,-0.000672707,-0.00177464,-0.00223601,4.88778,1.59842,0.221213,3.36943,5.89612,1.65404,-0.842739,5.9009,213,0.822727,0,0.45,4527
2.47927e-07,2.14181e-06,-2.30516e-06,-8.66491e-05,-0.00153521,-0.00270894,7.75538,3.43132,-0.0723562,4.52719,8.36896,3.43081,-0.685428,7.85209,213,4.51364,0,0.45,4528
-9.73496e-07,2.04731e-06,-2.20066e-06,-0.000656637,-0.00177457,-0.00223765,4.98173,1.64461,0.262279,3.44369,6.03388,1.70823,-0.853498,6.0295,213,19.2773,0,0.45,4529
-5.86901e-08,2.24044e-06,-2.28485e-06,-3.16747e-05,-0.00161584,-0.00264852,8.02976,3.30091,0.218288,4.73057,8.85437,3.30137,-0.606779,8.23476,213,11.8955,0,0.45,4530
-2.4917e-07,2.08102e-06,-2.32115e-06,-9.14014e-05,-0.00136848,-0.00278123,8.02566,4.21349,-0.00367397,4.57902,8.58984,4.21384,-0.568205,7.9337,213,15.5864,0,0.45,4531
6.97243e-10,2.2367e-06,-2.28901e-06,-4.00745e-05,-0.00147766,-0.00273461,8.14324,3.85193,0.0998621,4.77945,8.90101,3.8519,-0.657883,8.28264,213,10.05,0,0.45,4532
-4.58275e-07,2.14726e-06,-2.27905e-06,-0.000161545,-0.00163501,-0.00257479,7.40321,3.00482,0.199481,4.48495,8.28749,3.00244,-0.682413,7.80926,213,17.4318,0,0.45,4533
1.33798e-06,1.95154e-06,-1.96458e-06,-0.000925071,-0.00170871,-0.00209998,3.97458,1.63537,0.467381,3.24389,5.26232,2.04048,-1.22547,5.61863,213,0.361364,0,0.4325,4534
1.3891e-06,2.03652e-06,-2.03625e-06,-0.000996298,-0.00179517,-0.00204047,3.45058,1.06589,0.33364,2.77621,4.49052,1.42149,-1.0619,4.81744,213,0.361364,0,0.4675,4535
7.51203e-07,2.10138e-06,-2.33943e-06,-0.000388993,-0.00182391,-0.00243405,5.85013,1.5668,-0.254528,3.74384,6.53834,1.57339,-0.949334,6.59849,213,1.28409,0,0.4675,4536
-1.36569e-06,2.0184e-06,-2.11053e-06,-0.000975385,-0.00179321,-0.00207421,3.47856,1.03729,0.198499,2.89898,4.54236,1.4276,-1.25561,5.02582,213,19.7386,0,0.4675,4537
-1.31864e-06,1.93751e-06,-2.03849e-06,-0.000908498,-0.00170618,-0.00205774,4.21861,1.83748,0.788032,3.4395,5.76526,2.1926,-1.11374,5.95887,213,19.7386,0,0.4325,4538
-7.40915e-07,2.08462e-06,-2.33563e-06,-0.000379114,-0.00182579,-0.00241799,5.95594,1.6375,-0.130246,3.84239,6.75377,1.64043,-0.931014,6.77549,213,18.8159,0,0.4675,4539
7.38363e-07,2.01483e-06,-2.2542e-06,-0.000377101,-0.00173383,-0.00240576,6.29878,2.24885,0.243093,4.13428,7.40252,2.25426,-0.866051,7.23222,213,1.28409,0,0.4325,4540
-7.29079e-07,1.9977e-06,-2.25084e-06,-0.00036849,-0.00174114,-0.00243713,6.22911,2.13165,0.054051,4.09973,7.235,2.14427,-0.964464,7.16977,213,18.8159,0,0.4325,4541
5.39589e-07,2.10892e-06,-2.36444e-06,-0.00019669,-0.00161104,-0.0025728,7.26916,3.04721,0.17628,4.4787,8.20034,3.04936,-0.757058,7.78641,213,2.20682,0,0.4675,4542
3.86153e-07,2.19242e-06,-2.32691e-06,-0.000134454,-0.00161933,-0.00261848,7.48117,3.04869,0.0661732,4.53282,8.30572,3.05022,-0.759911,7.88426,213,3.12955,0,0.4675,4543
6.34931e-07,1.99295e-06,-2.35765e-06,-0.00021249,-0.00148205,-0.00264225,7.36073,3.57099,0.107725,4.48455,8.2141,3.58033,-0.754991,7.7689,213,1.74545,0,0.45,4544
5.35496e-07,2.01974e-06,-2.27415e-06,-0.000193645,-0.00152534,-0.00262327,7.39964,3.42442,0.147015,4.62062,8.3942,3.42391,-0.847042,8.01079,213,2.20682,0,0.4325,4545
2.89124e-07,2.18877e-06,-2.34193e-06,-9.01338e-05,-0.00159296,-0.00270356,7.56785,3.08182,-0.233411,4.4494,8.11695,3.08117,-0.781857,7.72887,213,4.05227,0,0.4675,4546
2.08893e-07,2.16917e-06,-2.3613e-06,-8.4117e-05,-0.00149813,-0.00269875,7.92088,3.69994,0.116,4.55251,8.57103,3.69977,-0.533983,7.89162,213,4.975,0,0.4675,4547
3.85067e-07,2.10919e-06,-2.23382e-06,-0.000131602,-0.00157566,-0.0026056,7.67806,3.36743,0.292986,4.87324,8.85878,3.36739,-0.887698,8.4633,213,3.12955,0,0.4325,4548
3.31763e-07,2.16715e-06,-2.27988e-06,-9.77315e-05,-0.00161918,-0.00272802,7.3603,2.81866,-0.491312,4.6285,8.06319,2.81827,-1.19382,8.04047,213,3.59091,0,0.45,4549
2.88709e-07,2.1157e-06,-2.24614e-06,-9.09928e-05,-0.0015552,-0.00272304,7.62052,3.24977,-0.236346,4.67182,8.36432,3.24893,-0.979308,8.10397,213,4.05227,0,0.4325,4550
1.55529e-07,2.25305e-06,-2.33935e-06,-3.6927e-05,-0.00176387,-0.00256475,7.7936,2.63854,0.247871,4.73081,8.75352,2.63461,-0.708113,8.31075,213,5.89773,0,0.4675,4551
1.17411e-07,2.29094e-06,-2.32802e-06,-4.52178e-05,-0.00177453,-0.00253265,7.81054,2.64842,0.385362,4.58917,8.6884,2.64587,-0.489949,8.08046,213,6.82045,0,0.4675,4552
1.70999e-07,2.11239e-06,-2.32096e-06,-6.73113e-05,-0.00147368,-0.00266658,8.20395,4.00583,0.444944,5.1177,9.44215,4.00583,-0.793257,8.86985,213,5.43636,0,0.45,4553
1.55914e-07,2.15899e-06,-2.24874e-06,-3.66941e-05,-0.0016788,-0.00262257,7.88146,2.97965,0.162419,4.83272,8.85756,2.97386,-0.80789,8.43624,213,5.89773,0,0.4325,4554
2.08562e-07,2.08427e-06,-2.26697e-06,-8.27427e-05,-0.00146358,-0.00269889,8.03849,3.91657,0.229103,4.90488,9.03942,3.91509,-0.770348,8.49834,213,4.975,0,0.4325,4555
7.48165e-08,2.28275e-06,-2.33514e-06,-4.1115e-05,-0.00167927,-0.00260568,7.90633,3.01632,0.250904,4.7236,8.80257,3.01562,-0.644636,8.25034,213,7.74318,0,0.4675,4556
4.53385e-08,2.26255e-06,-2.33433e-06,-2.2564e-05,-0.00164491,-0.00265635,7.9688,3.12598,0.106752,4.76612,8.80539,3.12299,-0.726845,8.30585,213,8.66591,0,0.4675,4557
1.16943e-07,2.19887e-06,-2.23887e-06,-4.62721e-05,-0.00168328,-0.00258571,7.92517,3.03858,0.344747,4.7509,8.88778,3.03475,-0.614027,8.30228,213,6.82045,0,0.4325,4558
9.56666e-08,2.19109e-06,-2.29953e-06,-5.00506e-05,-0.00167886,-0.00259687,7.88057,3.01845,0.278133,4.84603,8.92525,3.01871,-0.766803,8.46029,213,7.28182,0,0.45,4559
7.39413e-08,2.19057e-06,-2.24393e-06,-4.16562e-05,-0.00159015,-0.00265878,8.01725,3.39488,0.20495,4.81835,8.93022,3.39335,-0.706487,8.37651,213,7.74318,0,0.4325,4560
1.91561e-08,2.25718e-06,-2.33798e-06,-3.99337e-05,-0.0015129,-0.00269105,8.1705,3.77358,0.256734,4.84753,9.06227,3.77135,-0.6328,8.40787,213,9.58864,0,0.4675,4561
-1.76007e-08,2.26496e-06,-2.33741e-06,-3.96757e-05,-0.00152187,-0.00268654,8.15796,3.7335,0.256877,4.83402,9.04211,3.73215,-0.625925,8.38628,213,10.5114,0,0.4675,4562
4.47117e-08,2.17377e-06,-2.24103e-06,-2.09315e-05,-0.00156335,-0.00270067,8.09695,3.49272,0.0977219,4.84994,8.94952,3.48823,-0.750352,8.42255,213,8.66591,0,0.4325,4563
3.76147e-08,2.15336e-06,-2.29586e-06,-3.07508e-05,-0.0015072,-0.00269948,8.21838,3.81106,0.252028,4.93017,9.16538,3.81103,-0.694947,8.54983,213,9.12727,0,0.45,4564
1.91406e-08,2.16744e-06,-2.24362e-06,-4.00312e-05,-0.00143203,-0.00275232,8.23207,4.07685,0.135682,4.84343,9.02896,4.07355,-0.657907,8.38982,213,9.58864,0,0.4325,4565
-4.60594e-08,2.25996e-06,-2.33455e-06,-2.60006e-05,-0.00164563,-0.00264717,7.97448,3.13977,0.150097,4.74453,8.80756,3.13828,-0.681497,8.26963,213,11.4341,0,0.4675,4566
-7.49374e-08,2.28432e-06,-2.33112e-06,-3.65473e-05,-0.00166193,-0.00264484,7.86523,3.01333,0.0792744,4.58694,8.55901,3.01371,-0.61488,8.00241,213,12.3568,0,0.4675,4567
-3.57831e-08,2.1694e-06,-2.29487e-06,-3.22651e-05,-0.00152209,-0.00269032,8.19088,3.74366,0.256376,4.8956,9.11934,3.74345,-0.671871,8.49303,213,10.9727,0,0.45,4568
-4.53646e-08,2.17082e-06,-2.24167e-06,-2.43092e-05,-0.00156214,-0.0026882,8.11958,3.52905,0.167679,4.82364,8.96856,3.52646,-0.678709,8.37764,213,11.4341,0,0.4325,4569
-1.76921e-08,2.17574e-06,-2.24318e-06,-3.93383e-05,-0.00144277,-0.00274632,8.22127,4.0319,0.140713,4.8335,9.01557,4.02975,-0.651435,8.37326,213,10.5114,0,0.4325,4570
-1.17232e-07,2.28841e-06,-2.33149e-06,-4.88219e-05,-0.00173751,-0.00259785,7.69897,2.65811,0.0899222,4.55052,8.44531,2.65743,-0.655738,7.97828,213,13.2795,0,0.4675,4571
-1.55892e-07,2.24028e-06,-2.34247e-06,-3.37811e-05,-0.00174512,-0.00259793,7.7672,2.65871,0.113037,4.68968,8.63112,2.65608,-0.748249,8.22384,213,14.2023,0,0.4675,4572
-9.27444e-08,2.2153e-06,-2.28891e-06,-4.63899e-05,-0.00162983,-0.00263116,7.94984,3.22315,0.234096,4.89797,8.98975,3.22354,-0.806199,8.52785,213,12.8182,0,0.45,4573
-1.16659e-07,2.19556e-06,-2.24108e-06,-4.99585e-05,-0.00164037,-0.00254922,8.15433,3.40683,0.693847,5.01145,9.4357,3.40651,-0.5872,8.73955,213,13.2795,0,0.4325,4574
-7.39807e-08,2.19184e-06,-2.23908e-06,-3.75052e-05,-0.0015685,-0.00262074,8.23209,3.66196,0.520928,5.09335,9.46971,3.66226,-0.716989,8.85079,213,12.3568,0,0.4325,4575
-2.08253e-07,2.14527e-06,-2.36414e-06,-8.71309e-05,-0.00139053,-0.00273732,8.12125,4.23049,0.210225,4.76466,8.93082,4.22966,-0.598511,8.25288,213,15.125,0,0.4675,4576
-2.91771e-07,2.17861e-06,-2.34793e-06,-8.98039e-05,-0.0016147,-0.00256232,7.94888,3.39696,0.568222,4.76226,9.02353,3.39151,-0.500978,8.2942,213,16.0477,0,0.4675,4577
-1.56082e-07,2.14873e-06,-2.25094e-06,-3.37555e-05,-0.00165499,-0.00265233,7.88067,3.04115,0.0640363,4.84051,8.81441,3.03804,-0.866598,8.43607,213,14.2023,0,0.4325,4578
-1.69043e-07,2.12083e-06,-2.30961e-06,-6.1235e-05,-0.00146174,-0.00271613,8.12206,3.94143,0.196999,4.97743,9.13696,3.94143,-0.817896,8.62391,213,14.6636,0,0.45,4579
-2.07909e-07,2.05712e-06,-2.2685e-06,-8.57225e-05,-0.00129293,-0.00276645,8.34713,4.74353,0.344972,4.82981,9.17591,4.74344,-0.483711,8.3749,213,15.125,0,0.4325,4580
-3.89991e-07,2.22972e-06,-2.31259e-06,-0.000136774,-0.00169998,-0.00257975,7.33394,2.66765,0.0414854,4.41841,8.1059,2.66808,-0.730911,7.7205,213,16.9705,0,0.4675,4581
-5.3926e-07,2.11605e-06,-2.3527e-06,-0.000186485,-0.00164236,-0.00260174,7.14087,2.79498,-0.0688556,4.28009,7.81937,2.78844,-0.740812,7.45126,213,17.8932,0,0.4675,4582
-2.8967e-07,2.09022e-06,-2.25423e-06,-8.85955e-05,-0.00151524,-0.002892,7.22614,2.96751,-1.14224,4.63624,7.67967,2.96456,-1.59281,8.03059,213,16.0477,0,0.4325,4583
-3.31124e-07,2.18794e-06,-2.27277e-06,-0.000100246,-0.00166434,-0.00259792,7.61422,2.94527,0.158466,4.82059,8.70741,2.94432,-0.933774,8.40254,213,16.5091,0,0.45,4584
-3.88503e-07,2.13674e-06,-2.22251e-06,-0.000138775,-0.00160422,-0.00255914,7.69069,3.31623,0.465718,4.92928,9.00728,3.31663,-0.851271,8.57164,213,16.9705,0,0.4325,4585
-6.27729e-07,1.96431e-06,-2.35249e-06,-0.000206453,-0.00149438,-0.00263185,7.39178,3.54722,0.151779,4.5423,8.3133,3.54878,-0.771303,7.87063,213,18.3545,0,0.45,4586
-5.3627e-07,2.02844e-06,-2.26197e-06,-0.000181861,-0.0015579,-0.002585,7.4903,3.38271,0.316739,4.78108,8.68816,3.37558,-0.873996,8.29811,213,17.8932,0,0.4325,4587
2.19285e-06,-3.37103e-07,-2.26208e-06,-0.00162847,-0.000126963,-0.00257329,3.15953,7.64164,0.339186,4.68959,8.67887,3.16178,-0.700303,8.16465,213,-0.1,16.575,0.45,4588
2.05641e-06,-7.8263e-07,-2.2217e-06,-0.00182293,-0.00059383,-0.00224609,1.51932,5.18828,0.256174,3.5272,6.21992,1.57833,-0.834475,6.2101,213,-0.1,18.525,0.45,4589
2.26532e-06,1.15653e-07,-2.26337e-06,-0.00169748,-3.27302e-05,-0.00281225,2.27561,7.24502,-1.05205,4.7129,7.80857,2.27725,-1.61724,8.20391,213,-0.1,6.825,0.45,4590
2.1215e-06,4.38137e-07,-2.2501e-06,-0.00148993,-0.000153197,-0.0026846,3.57625,7.56649,0.0100733,4.45355,8.24162,3.57667,-0.665479,7.71667,213,-0.1,2.925,0.45,4591
2.25966e-06,-1.6432e-07,-2.25307e-06,-0.00154501,-7.30072e-05,-0.00268452,3.4917,7.88574,0.0901746,4.70337,8.69127,3.49183,-0.71548,8.16157,213,-0.1,14.625,0.45,4592
2.27208e-06,-7.27248e-08,-2.25973e-06,-0.00165602,-2.36089e-05,-0.00286895,2.37997,7.25285,-1.2407,4.71853,7.72468,2.37982,-1.71238,8.1967,213,-0.1,12.675,0.45,4593
2.27116e-06,4.67506e-08,-2.24227e-06,-0.00151625,-3.28638e-05,-0.00278443,3.47922,7.90724,-0.306381,4.65603,8.45606,3.48002,-0.855998,8.07082,213,-0.1,8.775,0.45,4594
2.08493e-06,9.67186e-07,-2.14577e-06,-0.00181295,-0.000635682,-0.00223752,1.47518,4.98942,0.207823,3.35741,5.93224,1.52278,-0.782593,5.90961,213,-0.1,0.975,0.45,4595
2.25557e-06,-1.4863e-08,-2.24717e-06,-0.00143079,-3.46298e-05,-0.00279677,3.96065,8.12829,-0.116893,4.68248,8.68822,3.96056,-0.676741,8.11042,213,-0.1,10.725,0.45,4596
2.23084e-06,2.33555e-07,-2.26371e-06,-0.00154236,-8.95436e-05,-0.00267472,3.48664,7.82341,0.106467,4.67456,8.63948,3.48667,-0.709633,8.11068,213,-0.1,4.875,0.45,4597
1.96096e-06,1.3222e-06,-1.94958e-06,-0.00173228,-0.000888537,-0.00210502,1.59014,4.10877,0.477461,3.22221,5.28872,2.04334,-1.15569,5.58107,213,-0.1,0.4875,0.4325,4598
2.04758e-06,1.37019e-06,-2.02145e-06,-0.00181682,-0.000956874,-0.00205086,1.02469,3.59169,0.326063,2.74856,4.50376,1.43204,-0.993354,4.77159,213,-0.1,0.4875,0.4675,4599
2.15582e-06,7.32239e-07,-2.28721e-06,-0.001882,-0.000353313,-0.00239935,1.43239,5.99564,-0.111919,3.82534,6.7668,1.43319,-0.883875,6.79518,213,-0.1,1.4625,0.4675,4600
1.89386e-06,-1.12115e-06,-2.14137e-06,-0.00174863,-0.000851092,-0.00210977,1.59318,4.27239,0.515125,3.43945,5.58148,2.09663,-1.29742,5.95747,213,-0.1,19.0125,0.4325,4601
1.977e-06,-1.16264e-06,-2.21335e-06,-0.00183501,-0.000915886,-0.00205543,1.0282,3.77185,0.370228,2.97135,4.81361,1.48576,-1.12909,5.15886,213,-0.1,19.0125,0.4675,4602
2.14523e-06,-5.6702e-07,-2.29931e-06,-0.00188269,-0.000307237,-0.00242161,1.50368,6.20652,-0.105033,3.91351,6.9641,1.50401,-0.862933,6.9526,213,-0.1,18.0375,0.4675,4603
2.06413e-06,7.2115e-07,-2.20339e-06,-0.00179588,-0.000346131,-0.00241324,1.94129,6.26891,0.0984191,4.0787,7.2589,1.94821,-0.898496,7.17113,213,-0.1,1.4625,0.4325,4604
2.05734e-06,-5.59291e-07,-2.21448e-06,-0.00179625,-0.000303053,-0.00243587,2.00386,6.46118,0.0945536,4.15682,7.43174,2.00975,-0.881897,7.31013,213,-0.1,18.0375,0.4325,4605
2.23617e-06,-2.82356e-07,-2.31659e-06,-0.00165673,-0.000101846,-0.0026147,2.93384,7.5753,0.074247,4.53866,8.36465,2.93142,-0.712677,7.91193,213,-0.1,16.0875,0.4675,4606
2.19751e-06,-4.06218e-07,-2.31131e-06,-0.00167541,-0.000151568,-0.00259041,2.73821,7.28699,0.00686886,4.40636,8.0525,2.73979,-0.760224,7.68567,213,-0.1,17.0625,0.4675,4607
2.10684e-06,-4.03297e-07,-2.22095e-06,-0.00157608,-0.000151154,-0.00256394,3.43499,7.6885,0.486151,4.9305,9.01625,3.43814,-0.844751,8.5644,213,-0.1,17.0625,0.4325,4608
2.07486e-06,-4.84198e-07,-2.28318e-06,-0.00157288,-0.000145461,-0.00261847,3.29977,7.56073,0.178606,4.55504,8.42312,3.30293,-0.686948,7.90977,213,-0.1,17.55,0.45,4609
2.29813e-06,-1.29789e-07,-2.29149e-06,-0.00158671,-6.89873e-05,-0.00263472,3.40566,7.93618,0.277279,4.76469,8.87156,3.40539,-0.65783,8.28245,213,-0.1,14.1375,0.4675,4610
2.26808e-06,-2.00872e-07,-2.31561e-06,-0.00157819,-7.69684e-05,-0.00268242,3.28153,7.76278,-0.0146899,4.53395,8.40927,3.27897,-0.658625,7.87564,213,-0.1,15.1125,0.4675,4611
2.14377e-06,-2.80825e-07,-2.22563e-06,-0.00156069,-0.000100041,-0.0025797,3.64189,8.00203,0.60007,5.08089,9.38247,3.64083,-0.779309,8.82513,213,-0.1,16.0875,0.4325,4612
2.1502e-06,-2.3872e-07,-2.29326e-06,-0.00153648,-7.85637e-05,-0.00265688,3.61429,7.96626,0.269785,4.8225,8.94067,3.614,-0.704329,8.36801,213,-0.1,15.6,0.45,4613
2.17922e-06,-2.00457e-07,-2.2223e-06,-0.00149487,-7.58741e-05,-0.00266622,3.84934,8.08515,0.352773,5.04605,9.26654,3.84627,-0.82555,8.74802,213,-0.1,15.1125,0.4325,4614
2.28373e-06,-6.11642e-08,-2.3211e-06,-0.00165168,-2.44756e-05,-0.00285213,2.45732,7.31464,-1.12612,4.69789,7.79393,2.45375,-1.60184,8.16229,213,-0.1,12.1875,0.4675,4615
2.29929e-06,-8.46031e-08,-2.2993e-06,-0.00170959,-2.43741e-05,-0.00277378,2.34957,7.38007,-0.827098,4.65904,7.93595,2.34872,-1.38213,8.1229,213,-0.1,13.1625,0.4675,4616
2.20509e-06,-1.29545e-07,-2.19951e-06,-0.00150151,-6.96842e-05,-0.0026783,3.78979,8.06389,0.276965,4.80719,8.9782,3.78862,-0.636173,8.33507,213,-0.1,14.1375,0.4325,4617
2.20612e-06,-9.66454e-08,-2.24631e-06,-0.00159825,-4.91689e-05,-0.00260685,3.48586,8.10998,0.475098,4.9041,9.19667,3.4858,-0.611531,8.53237,213,-0.1,13.65,0.45,4618
2.21532e-06,-8.43876e-08,-2.20373e-06,-0.0016471,-2.46852e-05,-0.00278706,2.69121,7.53423,-0.711666,4.79881,8.21132,2.68875,-1.3863,8.34323,213,-0.1,13.1625,0.4325,4619
2.30525e-06,1.64945e-09,-2.28704e-06,-0.00148274,-3.25085e-05,-0.00271395,3.91018,8.23923,0.234927,4.89312,9.13018,3.91021,-0.656058,8.48143,213,-0.1,10.2375,0.4675,4620
2.26877e-06,-3.12158e-08,-2.31151e-06,-0.00144723,-3.50994e-05,-0.00280189,3.8417,8.057,-0.20208,4.62874,8.55688,3.84035,-0.700606,8.0177,213,-0.1,11.2125,0.4675,4621
2.20364e-06,-6.15048e-08,-2.22131e-06,-0.00159267,-2.22465e-05,-0.00285996,2.80284,7.49067,-0.980117,5.00639,8.26452,2.79714,-1.74826,8.68357,213,-0.1,12.1875,0.4325,4622
2.17827e-06,-5.01286e-08,-2.28577e-06,-0.00146008,-3.29145e-05,-0.0028008,3.77298,8.03316,-0.229182,5.07599,8.97796,3.77302,-1.17402,8.79282,213,-0.1,11.7,0.45,4623
2.18506e-06,-3.30774e-08,-2.21332e-06,-0.00137995,-3.59194e-05,-0.00280636,4.23914,8.25117,-0.0187844,5.07369,9.19071,4.23749,-0.956674,8.78872,213,-0.1,11.2125,0.4325,4624
2.281e-06,6.32855e-08,-2.3056e-06,-0.00151955,-3.46596e-05,-0.00278907,3.43851,7.87101,-0.351096,4.62723,8.38794,3.437,-0.866514,8.02113,213,-0.1,8.2875,0.4675,4625
2.31126e-06,3.17902e-08,-2.28482e-06,-0.00153217,-3.04555e-05,-0.00275338,3.48733,7.97005,-0.158096,4.72409,8.63008,3.48729,-0.818093,8.19307,213,-0.1,9.2625,0.4675,4626
2.22276e-06,3.16444e-08,-2.18974e-06,-0.00150328,-2.65117e-05,-0.00272307,3.77382,8.18208,0.13265,4.96479,9.12271,3.77272,-0.806877,8.6079,213,-0.1,9.2625,0.4325,4627
2.23966e-06,1.88667e-08,-2.24065e-06,-0.00147967,-2.90873e-05,-0.00262978,4.20687,8.53698,0.773716,5.38694,10.0418,4.20783,-0.732072,9.34116,213,-0.1,9.75,0.45,4628
2.2102e-06,2.57331e-09,-2.19271e-06,-0.00139851,-3.6642e-05,-0.00275421,4.28797,8.35324,0.241087,4.89626,9.19379,4.28723,-0.598724,8.48057,213,-0.1,10.2375,0.4325,4629
2.28447e-06,1.32969e-07,-2.31818e-06,-0.00173437,-3.29667e-05,-0.00275048,2.24368,7.32249,-0.789491,4.64599,7.91225,2.24416,-1.37973,8.11175,213,-0.1,6.3375,0.4675,4630
2.28582e-06,9.95969e-08,-2.31581e-06,-0.00170389,-3.52525e-05,-0.00280449,2.25275,7.23376,-1.03262,4.63416,7.73622,2.24976,-1.5321,8.07173,213,-0.1,7.3125,0.4675,4631
2.20996e-06,9.94059e-08,-2.21606e-06,-0.00165865,-2.92778e-05,-0.00285036,2.40475,7.26855,-1.15259,4.90647,7.96547,2.4027,-1.84746,8.52356,213,-0.1,7.3125,0.4325,4632
2.19747e-06,8.39275e-08,-2.27793e-06,-0.00155425,-4.01618e-05,-0.00282566,3.09133,7.61101,-0.703899,4.8236,8.27651,3.09262,-1.37069,8.36248,213,-0.1,7.8,0.45,4633
2.20959e-06,6.47053e-08,-2.20651e-06,-0.001495,-4.05435e-05,-0.00282534,3.4559,7.79757,-0.51527,4.78332,8.42548,3.45387,-1.14115,8.28709,213,-0.1,8.2875,0.4325,4634
2.24475e-06,2.78579e-07,-2.30596e-06,-0.00158404,-9.32121e-05,-0.00263642,3.33991,7.79013,0.198469,4.70325,8.69847,3.33807,-0.708032,8.17273,213,-0.1,4.3875,0.4675,4635
2.26997e-06,1.91106e-07,-2.3187e-06,-0.00158128,-8.63325e-05,-0.00261223,3.45541,7.91795,0.377972,4.71508,8.86347,3.45455,-0.566683,8.19617,213,-0.1,5.3625,0.4675,4636
2.2005e-06,1.31965e-07,-2.22357e-06,-0.00167289,-3.64213e-05,-0.00272933,2.67831,7.56329,-0.475253,4.80053,8.34602,2.67535,-1.25503,8.36016,213,-0.1,6.3375,0.4325,4637
2.18627e-06,1.49921e-07,-2.28798e-06,-0.00160339,-6.39294e-05,-0.00257994,3.49279,8.08819,0.577719,4.84033,9.17332,3.49273,-0.507352,8.42571,213,-0.1,5.85,0.45,4638
2.17837e-06,1.90577e-07,-2.22749e-06,-0.00149709,-8.48978e-05,-0.0026689,3.79854,8.01406,0.300624,4.78008,8.93816,3.79706,-0.622003,8.28721,213,-0.1,5.3625,0.4325,4639
2.15219e-06,5.23578e-07,-2.3074e-06,-0.00153577,-0.000193541,-0.00259636,3.44591,7.45257,0.279985,4.44914,8.31192,3.45289,-0.586348,7.71702,213,-0.1,2.4375,0.4675,4640
2.18535e-06,3.72248e-07,-2.29531e-06,-0.00159177,-0.00011616,-0.00263901,3.21128,7.61609,0.0851826,4.78777,8.63861,3.21087,-0.936933,8.31732,213,-0.1,3.4125,0.4675,4641
2.09657e-06,3.71306e-07,-2.20311e-06,-0.00149913,-0.00011673,-0.00268839,3.62322,7.74979,0.0731947,4.55858,8.47038,3.62259,-0.64677,7.90098,213,-0.1,3.4125,0.4325,4642
2.13727e-06,3.24483e-07,-2.26143e-06,-0.00155687,-8.90621e-05,-0.00263025,3.53987,7.92139,0.335749,4.8112,8.94015,3.53911,-0.682249,8.35409,213,-0.1,3.9,0.45,4643
2.15463e-06,2.77585e-07,-2.21364e-06,-0.00150277,-9.33089e-05,-0.0026863,3.68172,7.88907,0.14881,4.74215,8.76244,3.67901,-0.72185,8.22072,213,-0.1,4.3875,0.4325,4644
2.06099e-06,5.20939e-07,-2.21629e-06,-0.001431,-0.000189439,-0.00264897,3.9371,7.64325,0.301358,4.65274,8.6229,3.94139,-0.682578,8.05883,213,-0.1,2.4375,0.4325,4645
2.08524e-06,6.25635e-07,-2.28426e-06,-0.00160694,-0.000170078,-0.0025681,3.1718,7.46093,0.302641,4.61547,8.49153,3.18325,-0.739411,8.02419,213,-0.1,1.95,0.45,4646
-1.31503e-09,1.43734e-08,-2.61218e-06,-2.87309e-05,-2.66827e-05,-0.00322272,112.918,112.998,-0.0463234,56.5222,112.998,112.918,-0.0463279,113.004,213,10.0954,9.82548,0.415,4647
1.77036e-07,1.53636e-07,-2.60248e-06,-6.43484e-05,-5.5521e-05,-0.00316095,119.435,119.804,0.201867,59.8228,119.847,119.392,0.201855,119.418,213,5.51519,5.91648,0.415,4648
-1.54812e-07,1.62565e-07,-2.60368e-06,-5.62736e-05,-5.79577e-05,-0.00313852,129.023,128.944,0.207585,64.4568,129.121,128.846,0.207552,128.776,213,14.251,5.77462,0.415,4649
1.7517e-07,-1.02837e-07,-2.60497e-06,-6.3941e-05,-4.03623e-05,-0.00319574,110.579,111.517,0.0585713,55.7342,111.527,110.569,0.0585542,110.993,213,5.56393,13.8104,0.415,4650
-1.75021e-07,-1.03355e-07,-2.60559e-06,-6.22756e-05,-4.14992e-05,-0.00310218,144.12,145.185,0.0164136,72.5885,145.193,144.112,0.0162718,144.639,213,14.5371,13.8094,0.415,4651
4.14451e-10,-1.74577e-07,-2.60276e-06,-2.55833e-05,-6.10445e-05,-0.0032011,113.142,111.731,0.0124867,56.5648,113.142,111.731,0.0124651,112.431,213,10.05,15.061,0.415,4652
5.05899e-10,2.84254e-07,-2.59173e-06,-2.52037e-05,-9.23981e-05,-0.00303625,165.548,161.638,0.403808,82.5724,165.548,161.638,0.403747,163.224,213,10.0488,4.29662,0.415,4653
3.06732e-07,1.40325e-08,-2.58733e-06,-0.000103035,-2.35881e-05,-0.0031027,126.223,129.778,0.648852,64.5657,129.78,126.222,0.648144,127.39,213,4.13654,9.75,0.415,4654
-3.13281e-07,1.61014e-08,-2.58844e-06,-9.35271e-05,-2.45663e-05,-0.00319255,100.226,102.714,0.281019,51.2192,102.719,100.222,0.280375,101.213,213,15.9642,9.66678,0.415,4655
-3.59796e-07,3.48776e-07,-2.58179e-06,-0.000113692,-0.000114073,-0.00303887,133.2,133.22,1.76886,65.9849,133.738,132.682,1.76843,131.445,213,16.8055,3.41598,0.415,4656
-3.65675e-07,-2.28205e-07,-2.58509e-06,-0.000121176,-7.51274e-05,-0.00312272,115.23,117.185,0.0141709,58.6256,117.265,115.15,0.014118,116.208,213,16.8055,16.084,0.415,4657
3.59996e-07,3.48657e-07,-2.58188e-06,-0.000116147,-0.00011219,-0.00314329,97.8306,98.0209,1.18659,48.5453,98.277,97.5745,1.18652,96.7412,213,3.29449,3.41598,0.415,4658
3.65605e-07,-2.27522e-07,-2.58661e-06,-0.000121221,-7.57106e-05,-0.00308479,123.52,125.565,1.46683,62.0831,125.633,123.452,1.46666,123.09,213,3.29449,16.084,0.415,4659
-9.92064e-08,4.47457e-08,-2.6089e-06,-4.45864e-05,-2.74217e-05,-0.00309378,154.531,155.468,0.0621516,77.7056,155.473,154.526,0.0621458,154.94,213,13.0067,8.66633,0.415,4660
9.85467e-08,4.45893e-08,-2.6105e-06,-4.32852e-05,-2.82237e-05,-0.00316643,129.177,129.867,-0.061935,64.9658,129.87,129.174,-0.0619401,129.585,213,7.09327,8.66633,0.415,4661
-8.84355e-08,-2.62944e-07,-2.6021e-06,-3.85597e-05,-8.78272e-05,-0.00315111,120.386,118.263,0.235557,60.0825,120.401,118.248,0.23554,119.104,213,13.043,16.278,0.415,4662
-9.50013e-08,4.59293e-07,-2.59912e-06,-3.99643e-05,-0.000163321,-0.00316728,103.443,98.8471,0.86698,51.2955,103.452,98.8444,0.860796,100.367,213,13.1683,2.84352,0.415,4663
8.89949e-08,-2.63775e-07,-2.60432e-06,-3.98602e-05,-9.31914e-05,-0.00318013,112.158,110.018,-0.147861,56.1567,112.165,110.011,-0.147961,111.252,213,7.05724,16.2785,0.415,4664
8.70062e-08,4.15052e-07,-2.59991e-06,-3.87164e-05,-0.000136376,-0.00312515,119.708,115.518,1.00171,59.3546,119.711,115.515,1.00167,116.668,213,7.1431,3.11822,0.415,4665
4.05577e-08,-5.7146e-08,-2.61169e-06,-3.05565e-05,-3.12113e-05,-0.00321879,112.73,112.713,-0.011283,56.3736,112.736,112.707,-0.0113327,112.733,213,8.65154,12.4582,0.415,4666
-4.10787e-08,-5.58851e-08,-2.61162e-06,-3.06394e-05,-3.13462e-05,-0.00313607,142.399,142.366,0.107472,71.1556,142.419,142.346,0.10743,142.275,213,11.4586,12.4381,0.415,4667
-4.40109e-07,9.7798e-08,-2.6169e-06,-0.000165506,-3.83394e-05,-0.00308212,130.654,136.931,0.551708,68.191,136.934,130.652,0.551578,133.352,213,17.2389,6.94395,0.415,4668
-4.45813e-07,-5.6977e-08,-2.6164e-06,-0.000163021,-2.82358e-05,-0.00309165,128.863,135.26,0.733366,67.274,135.279,128.846,0.731064,131.45,213,17.2389,12.556,0.415,4669
4.53426e-07,-5.52252e-08,-2.6058e-06,-0.000153182,-2.84492e-05,-0.00311056,124.017,129.68,0.47435,64.6036,129.681,124.017,0.473736,126.47,213,2.86104,12.5136,0.415,4670
4.55521e-07,9.89299e-08,-2.60845e-06,-0.00016026,-3.82997e-05,-0.00319905,93.0117,97.1945,0.380161,48.4074,97.1949,93.0113,0.380128,94.7923,213,2.80587,6.89105,0.415,4671
-2.75435e-08,1.05999e-07,-2.6108e-06,-2.84498e-05,-4.31866e-05,-0.00318779,121.938,121.31,0.0457377,60.9463,121.938,121.31,0.0457146,121.58,213,11.0291,6.98911,0.415,4672
5.37863e-08,1.42838e-07,-2.60765e-06,-3.25005e-05,-5.45544e-05,-0.00317709,121.546,120.611,0.292286,60.6288,121.55,120.607,0.292283,120.789,213,8.20069,6.21714,0.415,4673
1.37932e-07,-1.76938e-08,-2.60824e-06,-5.49335e-05,-2.42084e-05,-0.00314625,134.341,135.799,-0.155006,67.9776,135.8,134.34,-0.155161,135.231,213,6.31115,11.1078,0.415,4674
-1.42118e-07,-1.70558e-08,-2.60561e-06,-5.66895e-05,-2.4798e-05,-0.00320747,111.316,112.569,0.0142665,56.2788,112.572,111.313,0.0141569,111.934,213,13.8439,11.0967,0.415,4675
4.92975e-10,6.04935e-07,-2.62741e-06,-1.81153e-05,-0.000143886,-0.00312831,128.095,122.585,-0.258639,64.177,128.095,122.585,-0.258764,125.689,213,10.05,2.12359,0.415,4676
-3.01968e-10,-4.04249e-07,-2.62367e-06,-1.37956e-05,-4.53662e-05,-0.00318463,129.63,127.966,-0.225221,64.9289,129.631,127.966,-0.226472,129.033,213,10.05,17.3764,0.415,4677
-4.88334e-08,1.94831e-07,-2.6045e-06,-2.99901e-05,-6.71566e-05,-0.00315352,128.339,126.649,0.239311,64.0518,128.343,126.645,0.239304,127.263,213,11.7753,5.37035,0.415,4678
-1.73419e-07,-3.57047e-07,-2.60497e-06,-6.21587e-05,-7.96741e-05,-0.0031876,110.432,109.255,0.222213,55.1363,110.495,109.192,0.222145,109.627,213,14.8488,17.216,0.415,4679
1.73327e-07,-3.58504e-07,-2.61072e-06,-6.20917e-05,-5.93576e-05,-0.00318555,118.815,117.8,0.0768746,59.4448,118.966,117.649,0.076636,118.236,213,5.25126,17.216,0.415,4680
-1.79353e-07,5.38825e-07,-2.62225e-06,-6.0964e-05,-0.000141416,-0.00320356,98.5367,95.7633,-2.32313,50.4602,98.5849,95.7275,-2.33549,99.5224,213,14.8439,2.24533,0.415,4681
1.78662e-07,5.42727e-07,-2.60535e-06,-6.23873e-05,-0.000150105,-0.00304631,138.44,134.372,-1.05957,69.794,138.527,134.286,-1.06065,137.516,213,5.26149,2.27165,0.415,4682
6.16181e-07,-3.95596e-09,-2.63707e-06,-0.000159189,-1.90041e-05,-0.00319199,102.329,107.661,-0.277885,53.9713,107.663,102.329,-0.279651,105.377,213,2.01827,10.4801,0.415,4683
-6.02619e-07,3.2098e-08,-2.63143e-06,-0.00017187,-2.42747e-05,-0.0030691,128.278,135.33,0.712085,67.3095,135.331,128.278,0.711652,131.235,213,18.0655,8.99144,0.415,4684
-2.00467e-07,6.648e-08,-2.60085e-06,-6.93218e-05,-3.1993e-05,-0.00319469,111.703,113.183,-0.0217064,56.6085,113.195,111.691,-0.0217585,112.472,213,14.8283,7.89951,0.415,4685
2.07905e-07,6.58348e-08,-2.60126e-06,-7.17714e-05,-3.19591e-05,-0.0031702,119.373,121.065,0.0189197,60.5256,121.07,119.368,0.0189173,120.209,213,5.17538,7.91832,0.415,4686
-4.90952e-08,-1.33524e-07,-2.6072e-06,-3.13437e-05,-4.98405e-05,-0.00322486,106.728,106.032,-0.039661,53.3853,106.731,106.029,-0.0396849,106.421,213,11.7735,14.3585,0.415,4687
4.90807e-08,-1.33077e-07,-2.60528e-06,-3.00529e-05,-4.92104e-05,-0.00313438,138.91,137.982,0.168397,69.376,138.92,137.972,0.168305,138.28,213,8.33001,14.3621,0.415,4688
-6.68222e-07,-1.30005e-07,-2.62986e-06,-0.000182291,-3.56667e-05,-0.00308432,123.747,130.863,-0.217889,65.5453,130.871,123.741,-0.220011,127.675,213,18.3168,14.3968,0.415,4689
6.73492e-07,-1.29799e-07,-2.6326e-06,-0.000186438,-3.81389e-05,-0.00311931,111.451,117.916,-0.166808,59.0434,117.919,111.448,-0.167529,114.988,213,1.78318,14.3908,0.415,4690
6.56038e-07,1.95984e-07,-2.62551e-06,-0.000181851,-5.92288e-05,-0.00305571,129.024,135.68,0.0193093,67.8376,135.694,129.01,0.0193042,132.459,213,1.80645,5.07781,0.415,4691
-6.57442e-07,1.93336e-07,-2.6265e-06,-0.000160139,-5.60673e-05,-0.00317087,99.3628,103.244,0.050367,51.623,103.293,99.3167,0.0471682,101.316,213,18.3168,5.10316,0.415,4692
6.44325e-08,-3.07003e-09,-2.61197e-06,-3.40103e-05,-2.41308e-05,-0.00309091,159.223,159.775,0.0658603,79.8547,159.775,159.223,0.0658545,159.434,213,7.98014,10.4872,0.415,4693
-6.60398e-08,-4.25636e-09,-2.61115e-06,-3.47126e-05,-2.46083e-05,-0.00327067,94.035,94.3592,0.00664438,47.1765,94.3596,94.0346,0.00662472,94.1909,213,12.1644,10.5477,0.415,4694
-5.94927e-07,-3.92272e-07,-2.64712e-06,-0.000212832,-0.000119871,-0.00307302,107.381,111.336,-1.14627,56.2539,111.359,107.36,-1.14861,110.563,213,18.3048,17.5749,0.415,4695
5.98395e-07,5.69621e-07,-2.64352e-06,-0.000176914,-0.000190359,-0.003098,94.1962,93.6307,-0.906969,47.5622,94.2133,93.6178,-0.911082,94.828,213,1.79521,1.92508,0.415,4696
5.96444e-07,-4.00021e-07,-2.64447e-06,-0.000223718,-0.000103592,-0.00313211,88.3267,91.7129,-0.129266,45.96,91.7903,88.2496,-0.129633,90.2018,213,1.79521,17.5749,0.415,4697
-6.0902e-07,5.78458e-07,-2.64748e-06,-0.000155567,-0.000203761,-0.00303784,117.457,116.296,-1.357,59.4122,117.461,116.297,-1.36293,118.247,213,18.3048,1.92508,0.415,4698
2.9901e-08,6.75412e-08,-2.61154e-06,-2.88553e-05,-3.20218e-05,-0.00321292,115.452,115.324,-0.2118,57.8343,115.457,115.319,-0.211841,115.6,213,9.03678,7.98096,0.415,4699
3.13804e-07,1.85089e-07,-2.5889e-06,-0.000102967,-6.37223e-05,-0.00313613,116.652,118.328,0.0659099,59.1513,118.368,116.612,0.0659087,117.434,213,3.86597,5.2768,0.415,4700
3.20611e-07,-1.1797e-07,-2.59461e-06,-0.000106345,-4.30493e-05,-0.00314646,116.85,119.544,-0.0735213,59.813,119.552,116.842,-0.0735271,118.294,213,3.86597,14.2232,0.415,4701
-3.2157e-07,-1.17998e-07,-2.59295e-06,-0.000107728,-4.31478e-05,-0.00311436,126.387,129.433,-0.0448137,64.7407,129.437,126.383,-0.0448215,127.982,213,16.234,14.2232,0.415,4702
-3.14493e-07,1.85177e-07,-2.58983e-06,-0.000103089,-6.25603e-05,-0.00310664,126.461,128.344,0.278154,64.0525,128.383,126.422,0.278137,127.136,213,16.234,5.2768,0.415,4703
-7.37658e-07,-1.79273e-08,-2.62628e-06,-0.000346002,-2.40756e-05,-0.00302653,102.741,116.624,2.37911,57.1243,116.626,102.741,2.37728,107.978,213,18.5677,11.1207,0.415,4704
7.58759e-07,4.79999e-08,-2.64163e-06,-0.000290862,-2.47237e-05,-0.00300167,119.247,131.983,0.0456633,65.9728,131.99,119.242,0.0438268,126.056,213,1.52042,8.36573,0.415,4705
2.39253e-07,-4.6351e-08,-2.60103e-06,-8.03942e-05,-2.86753e-05,-0.00323869,93.3751,95.0928,0.157688,47.4685,95.0947,93.3732,0.157656,94.0881,213,4.77873,12.2037,0.415,4706
-2.43911e-07,-4.36529e-08,-2.60153e-06,-7.80548e-05,-2.80154e-05,-0.00319009,111.324,113.325,0.140043,56.597,113.334,111.315,0.140013,112.198,213,15.4044,12.0916,0.415,4707
-5.18613e-08,7.38114e-07,-2.63315e-06,-2.83668e-05,-0.000229457,-0.00311676,116.524,107.783,-2.25978,59.4357,116.57,107.778,-2.30132,114.729,213,11.9444,1.62743,0.415,4708
5.00274e-08,7.44092e-07,-2.64015e-06,-2.59055e-05,-0.000245959,-0.00309813,116.817,107.889,-2.06189,59.4667,116.845,107.888,-2.08881,114.718,213,8.21497,1.63622,0.415,4709
-4.16759e-08,-5.08091e-07,-2.62972e-06,-2.14842e-05,-0.000162993,-0.00318691,105.421,99.6942,-0.470726,52.9488,105.424,99.6944,-0.473782,103.152,213,11.8024,17.8772,0.415,4710
4.09283e-08,-5.00887e-07,-2.63265e-06,-2.48299e-05,-0.000160923,-0.00308516,137.056,130.033,-0.940475,69.013,137.073,130.027,-0.952434,134.641,213,8.29761,17.8772,0.415,4711
-1.86571e-07,-1.85083e-07,-2.59447e-06,-6.78203e-05,-6.33719e-05,-0.0031843,109.063,109.233,0.0316678,54.6756,109.383,108.913,0.0316561,109.117,213,14.8127,15.3751,0.415,4712
1.86754e-07,-1.86485e-07,-2.59344e-06,-6.6767e-05,-6.83212e-05,-0.00317922,108.986,108.938,-0.0270806,54.6044,109.182,108.742,-0.027116,108.99,213,5.28761,15.3753,0.415,4713
1.82009e-07,2.86178e-07,-2.59192e-06,-6.39572e-05,-9.59588e-05,-0.00311904,126.914,125.454,0.262739,63.3469,126.956,125.412,0.262615,125.929,213,5.31946,4.14202,0.415,4714
-1.79173e-07,3.02839e-07,-2.58455e-06,-6.23768e-05,-0.000103916,-0.00307753,136.957,134.923,1.02061,67.9904,137.001,134.879,1.02056,134.932,213,14.7466,3.99617,0.415,4715
4.58232e-08,2.58718e-07,-2.59764e-06,-3.00155e-05,-8.77112e-05,-0.00318744,112.462,110.17,0.274726,56.0949,112.464,110.168,0.274656,111.059,213,8.37419,4.56958,0.415,4716
-4.22552e-10,-2.95123e-08,-2.61237e-06,-2.87044e-05,-2.58856e-05,-0.00316239,134.699,134.833,-0.0349464,67.4343,134.834,134.698,-0.0349696,134.801,213,10.051,11.5178,0.415,4717
2.75384e-10,-8.96182e-08,-2.61024e-06,-2.74436e-05,-3.91021e-05,-0.00319024,122.062,121.567,-0.0225535,61.0423,122.062,121.567,-0.0225722,121.838,213,10.0525,13.366,0.415,4718
-9.04085e-08,1.03436e-07,-2.60916e-06,-4.06216e-05,-4.19226e-05,-0.00325414,95.5422,95.4952,-0.0623421,47.8209,95.5794,95.458,-0.0623699,95.5811,213,12.8577,7.01423,0.415,4719
2.95674e-07,-4.38641e-07,-2.62316e-06,-8.97502e-05,-0.00010515,-0.00306754,132.329,131.855,0.703628,66.1506,133.005,131.179,0.703531,131.398,213,3.57022,17.8008,0.415,4720
3.14375e-07,6.73706e-07,-2.63054e-06,-8.48419e-05,-0.000164325,-0.00305662,127.458,123.522,0.456459,63.5573,127.568,123.416,0.453021,125.09,213,3.57022,1.69917,0.415,4721
-3.12567e-07,6.62881e-07,-2.62985e-06,-8.2865e-05,-0.000176799,-0.00308551,115.514,111.326,0.586322,57.494,115.573,111.268,0.585191,112.897,213,16.5298,1.69917,0.415,4722
-2.97573e-07,-4.5287e-07,-2.62054e-06,-8.71928e-05,-7.16507e-05,-0.00314582,117.704,118.328,0.553867,59.1796,118.911,117.124,0.551569,117.476,213,16.5298,17.8008,0.415,4723
-3.83935e-08,4.63104e-08,-2.6115e-06,-3.05264e-05,-2.82637e-05,-0.00316656,132.195,132.307,-0.124601,66.2208,132.317,132.185,-0.124693,132.376,213,11.3305,8.66833,0.415,4724
3.24765e-08,-2.62645e-07,-2.60118e-06,-2.61448e-05,-9.13088e-05,-0.00321598,101.199,98.8876,0.637357,50.2817,101.201,98.8861,0.637238,99.4263,213,8.79179,16.1989,0.415,4725
-4.41837e-08,3.79783e-07,-2.59652e-06,-2.90709e-05,-0.000123492,-0.00318339,104.398,100.912,-0.00215621,52.2004,104.399,100.911,-0.00225573,102.702,213,11.694,3.44705,0.415,4726
-3.25593e-08,-2.60559e-07,-2.60404e-06,-2.72214e-05,-8.84092e-05,-0.00309435,145.565,142.422,-0.0406091,72.8038,145.567,142.42,-0.0406223,144.06,213,11.3088,16.1984,0.415,4727
-9.38909e-08,-5.59687e-07,-2.63088e-06,-3.27459e-05,-0.000208585,-0.00311607,117.304,109.328,-0.211165,58.7659,117.32,109.312,-0.211301,113.739,213,13.4352,18.0743,0.415,4728
9.09726e-08,-5.60776e-07,-2.62703e-06,-3.45355e-05,-0.000217213,-0.00312285,108.5,101.012,0.169643,54.1859,108.539,100.975,0.167387,104.795,213,6.66486,18.0743,0.415,4729
-1.04106e-07,8.42089e-07,-2.62142e-06,-3.42646e-05,-0.000356733,-0.00302463,114.886,100.946,0.633006,57.1284,114.889,100.943,0.632588,107.961,213,13.4877,1.34326,0.415,4730
1.0878e-07,8.16482e-07,-2.63156e-06,-3.11132e-05,-0.000313704,-0.00308301,107.356,96.3126,0.236996,53.561,107.359,96.31,0.236731,102.047,213,6.66755,1.40522,0.415,4731
1.09223e-07,1.00711e-07,-2.60894e-06,-4.45909e-05,-4.13522e-05,-0.00318056,120.895,121.03,-0.0367035,60.5498,121.063,120.862,-0.0367109,120.999,213,6.81125,7.05568,0.415,4732
1.71034e-07,1.92417e-08,-2.60324e-06,-6.28439e-05,-2.45511e-05,-0.00320206,111.754,113.262,0.186554,56.5379,113.262,111.754,0.186515,112.329,213,5.75219,9.58275,0.415,4733
-1.74266e-07,1.97591e-08,-2.59865e-06,-6.63794e-05,-2.43024e-05,-0.00312635,138.306,140.364,0.251274,70.0572,140.365,138.305,0.251024,139.096,213,14.3492,9.57896,0.415,4734
1.06291e-07,-6.43233e-08,-2.60984e-06,-4.4769e-05,-3.21205e-05,-0.00322646,106.331,106.797,-0.00549997,53.404,106.802,106.326,-0.00554113,106.57,213,6.90118,12.7241,0.415,4735
-1.07437e-07,-6.37948e-08,-2.60933e-06,-4.43231e-05,-3.24676e-05,-0.0031181,144.899,145.504,0.032235,72.7404,145.513,144.89,0.0322338,145.17,213,13.2271,12.7117,0.415,4736
-8.54239e-07,1.01088e-07,-2.59517e-06,-0.000343608,-4.11544e-05,-0.00296666,114.26,128.843,0.994895,63.9256,128.845,114.26,0.993367,121.219,213,18.8042,6.93771,0.415,4737
8.98066e-07,1.04428e-07,-2.5985e-06,-0.000371646,-3.81213e-05,-0.00300662,92.3682,105.437,0.122908,52.6596,105.442,92.3643,0.122301,99.4277,213,1.19679,6.80494,0.415,4738
-9.02474e-07,-6.39388e-08,-2.59504e-06,-0.000399561,-3.81583e-05,-0.00301607,89.2338,103.254,0.696248,51.2808,103.258,89.2301,0.696246,96.3169,213,18.9047,12.6847,0.415,4739
8.70733e-07,-6.00011e-08,-2.61346e-06,-0.000346398,-3.07659e-05,-0.0029687,108.428,122.773,0.408176,61.1829,122.774,108.427,0.408154,115.861,213,1.2925,12.5469,0.415,4740
3.35325e-08,4.1613e-07,-2.59618e-06,-2.72173e-05,-0.000136585,-0.00313846,120.301,115.621,0.769898,59.7665,120.303,115.619,0.769875,117.261,213,8.76622,3.14885,0.415,4741
7.89391e-07,-2.39676e-07,-2.60661e-06,-0.000264497,-6.75483e-05,-0.00318762,70.196,75.9418,-0.176052,38.0606,75.9451,70.1928,-0.176167,73.4143,213,1.41135,16.0548,0.415,4742
7.62344e-07,3.39945e-07,-2.61214e-06,-0.00028571,-9.9606e-05,-0.00297386,121.164,130.603,-0.0257505,65.3235,130.621,121.146,-0.0260306,126.177,213,1.41256,3.44356,0.415,4743
-7.53275e-07,3.39415e-07,-2.61628e-06,-0.000289645,-9.56806e-05,-0.00303742,103.615,112.058,-0.035118,56.0488,112.062,103.611,-0.0352174,108.12,213,18.6887,3.44488,0.415,4744
-7.89676e-07,-2.39326e-07,-2.6081e-06,-0.000266705,-6.43917e-05,-0.0030683,105.713,114.52,0.0537501,57.2356,114.524,105.71,0.052613,110.329,213,18.6887,16.0551,0.415,4745
8.00345e-09,1.61228e-07,-2.6064e-06,-2.68161e-05,-5.93967e-05,-0.00317772,121.788,120.413,0.247244,60.7704,121.788,120.413,0.247217,120.859,213,9.74894,5.92084,0.415,4746
3.92384e-07,5.07151e-08,-2.60027e-06,-0.000121017,-2.83095e-05,-0.00318158,109.115,112.762,-0.25935,56.5163,112.773,109.104,-0.259397,111.243,213,3.32454,8.34574,0.415,4747
-3.96305e-07,-1.74641e-08,-2.6115e-06,-0.000116345,-2.26691e-05,-0.00318043,115.591,119.596,-2.0335,60.8369,119.63,115.567,-2.04355,119.694,213,16.824,11.0517,0.415,4748
-3.47441e-07,5.4632e-08,-2.60397e-06,-0.000105913,-2.95244e-05,-0.003167,116.353,119.582,-1.69463,60.6637,119.629,116.31,-1.69855,119.703,213,16.4449,8.22052,0.415,4749
3.75931e-07,-1.93605e-08,-2.59671e-06,-0.000121429,-2.34227e-05,-0.00316594,106.034,109.823,0.685869,54.5707,109.826,106.032,0.684856,107.294,213,3.47992,11.1444,0.415,4750
1.02158e-07,2.1799e-07,-2.60104e-06,-4.25056e-05,-7.48152e-05,-0.00311206,138.608,137.023,-0.0980483,69.3612,138.624,137.007,-0.0980538,137.921,213,6.86584,5.01467,0.415,4751
-2.72074e-07,1.12523e-07,-2.59758e-06,-9.04672e-05,-4.48209e-05,-0.00318044,108.988,110.784,0.206145,55.2906,110.786,108.987,0.205157,109.692,213,15.8093,6.66928,0.415,4752
2.81665e-07,1.08661e-07,-2.59449e-06,-9.50845e-05,-4.39157e-05,-0.00315359,117.57,119.756,-0.03894,59.9002,119.761,117.565,-0.0389609,118.717,213,4.23486,6.74231,0.415,4753
1.11162e-07,-1.43959e-07,-2.60406e-06,-4.7102e-05,-5.26525e-05,-0.003078,153.769,153.461,0.362362,76.7251,153.812,153.418,0.362297,153.253,213,6.69277,14.6397,0.415,4754
-1.10473e-07,-1.45393e-07,-2.60447e-06,-4.55623e-05,-5.31767e-05,-0.00319976,111.415,111.11,0.0126196,55.7208,111.454,111.071,0.0126191,111.25,213,13.4078,14.6396,0.415,4755
-9.56777e-08,2.7884e-07,-2.5973e-06,-4.1833e-05,-9.61089e-05,-0.0031534,119.884,117.568,0.00915511,59.9398,119.889,117.563,0.00911599,118.734,213,13.127,4.28634,0.415,4756
-9.60079e-07,9.27253e-07,-2.55914e-06,-0.00047937,-0.0004666,-0.00276688,83.5498,84.146,0.343358,42.3594,85.0488,82.6606,0.329856,83.5504,213,19.2648,0.968771,0.415,4757
-9.27389e-07,-7.06919e-07,-2.58068e-06,-0.000495005,-0.000388168,-0.00279587,84.2937,88.826,0.533797,44.3847,89.2903,83.8424,0.520819,86.1748,213,19.2648,18.5312,0.415,4758
9.62679e-07,9.2921e-07,-2.58351e-06,-0.000500418,-0.000479463,-0.002685,94.3276,95.2675,0.562906,47.6341,95.8173,93.7916,0.549052,94.2717,213,0.835166,0.968771,0.415,4759
9.28907e-07,-7.07547e-07,-2.5805e-06,-0.00050701,-0.000389877,-0.00276096,90.0653,95.4546,-0.199253,48.0629,95.9127,89.621,-0.213055,93.1394,213,0.835166,18.5312,0.415,4760
2.3171e-07,-9.35446e-09,-2.59672e-06,-8.14189e-05,-2.39873e-05,-0.00313646,129.776,132.441,-0.0450919,66.2437,132.442,129.775,-0.0454372,131.174,213,4.92383,10.7643,0.415,4761
-2.36958e-07,-9.01682e-09,-2.59282e-06,-8.28063e-05,-2.44717e-05,-0.00316977,118.941,121.424,0.25513,60.5871,121.429,118.937,0.254528,119.948,213,15.1892,10.7381,0.415,4762
1.27252e-06,1.25166e-06,-2.31972e-06,-0.000942926,-0.000923779,-0.00226333,43.2757,44.0951,-0.157286,23.0653,45.8775,41.5892,-0.25318,44.143,213,0.367583,0.484385,0.415,4763
7.62765e-07,1.29504e-06,-2.50464e-06,-0.000322898,-0.00101429,-0.00255739,80.7086,51.3489,-1.29207,41.0341,80.7516,51.3303,-1.31656,72.0156,213,1.29031,0.484385,0.415,4764
1.346e-06,7.33538e-07,-2.47463e-06,-0.00106609,-0.000297261,-0.00254357,48.8151,81.4064,-0.945396,41.2207,81.4676,48.7824,-0.973899,71.9048,213,0.367583,1.45939,0.415,4765
-7.60832e-07,1.28252e-06,-2.4867e-06,-0.000326406,-0.000978368,-0.0026239,71.0335,46.0375,-1.13802,36.1205,71.0764,46.0212,-1.16462,63.5336,213,18.8097,0.484385,0.415,4766
-1.25666e-06,1.23822e-06,-2.32205e-06,-0.000929426,-0.000914651,-0.00227874,44.2997,44.9371,-0.226031,23.8091,47.2918,42.0453,-0.326337,45.2237,213,19.7324,0.484385,0.415,4767
-1.33575e-06,7.3198e-07,-2.45858e-06,-0.00105172,-0.000290195,-0.0025461,49.8662,82.2176,-0.835326,41.5834,82.293,49.8291,-0.87369,72.5995,213,19.7324,1.45939,0.415,4768
1.33976e-06,-5.65826e-07,-2.45844e-06,-0.00102594,-0.000250242,-0.0025917,52.4541,85.2545,-1.18426,43.2874,85.3681,52.3629,-1.20663,75.6777,213,0.367583,18.0406,0.415,4769
1.19952e-06,-1.01598e-06,-2.43368e-06,-0.000943711,-0.000867733,-0.00229457,44.449,47.6644,-0.202463,24.7663,49.2307,42.9821,-0.301911,46.7228,213,0.367583,19.0156,0.415,4770
6.9878e-07,-1.03107e-06,-2.57102e-06,-0.000328334,-0.000947514,-0.0025949,81.7057,55.53,-1.64044,41.7709,81.8799,55.3772,-1.66183,73.9428,213,1.29031,19.0156,0.415,4771
-1.33665e-06,-5.63587e-07,-2.45775e-06,-0.00105165,-0.000229782,-0.00258466,51.1424,86.0397,-1.01348,43.5937,86.1454,51.0652,-1.04194,75.9849,213,19.7324,18.0406,0.415,4772
-1.1942e-06,-1.0106e-06,-2.43767e-06,-0.000937731,-0.000866257,-0.00229678,45.1535,48.1885,0.350168,24.8847,49.9869,43.4878,0.217523,46.859,213,19.7324,19.0156,0.415,4773
-7.01043e-07,-1.02441e-06,-2.57023e-06,-0.000308032,-0.000956855,-0.00259856,82.9036,55.3502,-1.36056,42.208,83.0274,55.2543,-1.3885,74.5178,213,18.8097,19.0156,0.415,4774
4.23291e-07,1.06079e-06,-2.54636e-06,-0.000150588,-0.000748048,-0.00277748,98.3097,73.0245,-0.224936,49.2736,98.316,73.0245,-0.23124,88.6499,213,2.65784,0.849583,0.415,4775
3.18798e-07,1.06389e-06,-2.53445e-06,-8.66529e-05,-0.000830014,-0.00273657,100.731,69.1906,0.0326856,50.3591,100.742,69.1889,0.0235444,89.2289,213,3.58056,0.849583,0.415,4776
5.96325e-07,9.80852e-07,-2.60184e-06,-0.000237567,-0.000696299,-0.00279586,76.9616,61.1272,0.32405,38.3521,77.0154,61.0863,0.311152,70.1103,213,1.77033,0.962542,0.415,4777
4.26434e-07,6.20806e-07,-2.62351e-06,-0.000157328,-0.00021161,-0.00298682,129.177,126.603,-1.63239,65.6972,129.761,126.02,-1.63316,129.564,213,2.68271,1.81212,0.415,4778
7.37391e-07,7.12247e-07,-2.65449e-06,-0.000359535,-0.000349557,-0.00284495,105.096,105.238,-1.88236,54.0776,106.267,104.072,-1.88804,107.075,213,1.31519,1.44693,0.415,4779
2.37285e-07,1.11579e-06,-2.53872e-06,-8.33546e-05,-0.000738282,-0.00283178,89.7344,65.7613,0.205776,44.7943,89.7762,65.7375,0.187689,80.3142,213,4.50329,0.849583,0.415,4780
1.25711e-07,1.23157e-06,-2.51706e-06,-3.67487e-05,-0.000880977,-0.00283665,88.7095,57.1584,-1.30854,45.0237,88.7293,57.1481,-1.31807,79.1334,213,6.05196,0.702609,0.415,4781
1.00665e-07,1.23119e-06,-2.52495e-06,-3.96835e-05,-0.000928882,-0.00279009,88.0941,55.1148,-0.436728,44.297,88.1458,55.0745,-0.448137,77.5415,213,6.97468,0.702609,0.415,4782
2.40314e-07,6.04491e-07,-2.62824e-06,-8.00821e-05,-0.000196534,-0.00302498,135.673,130.015,-1.32067,68.5064,135.692,129.996,-1.3209,134.256,213,4.41585,1.98541,0.415,4783
1.727e-07,9.56642e-07,-2.5993e-06,-7.21628e-05,-0.00064714,-0.00288653,105.743,81.3375,0.0416439,52.8516,105.744,81.337,0.0409977,95.859,213,5.34892,1.13583,0.415,4784
1.3842e-07,6.57723e-07,-2.62619e-06,-4.69327e-05,-0.000243441,-0.00307666,115.576,107.552,-1.85879,58.8113,115.756,107.38,-1.86691,113.667,213,5.96452,1.83843,0.415,4785
6.49751e-08,1.16009e-06,-2.54781e-06,-3.78817e-05,-0.000862969,-0.00277024,103.065,68.0385,-0.138883,51.6319,103.118,67.9917,-0.145407,90.9394,213,7.74839,0.818111,0.415,4786
4.02668e-08,1.16457e-06,-2.54277e-06,-2.44857e-05,-0.000820095,-0.00281056,103.938,69.9838,-1.95589,52.9593,103.96,69.965,-1.95889,93.6682,213,8.67112,0.818111,0.415,4787
7.45603e-08,7.7705e-07,-2.63543e-06,-3.78278e-05,-0.000272859,-0.0030717,116.03,106.625,-0.950559,58.4932,116.035,106.621,-0.951723,112.575,213,7.44126,1.52072,0.415,4788
5.92405e-09,1.0087e-06,-2.58916e-06,-2.30635e-05,-0.000707105,-0.00281256,121.478,88.713,-0.0478089,60.7927,121.521,88.6857,-0.0639682,108.944,213,9.58864,1.06179,0.415,4789
-6.18741e-09,1.00509e-06,-2.59438e-06,-2.24519e-05,-0.00071449,-0.0028051,121.559,88.4374,0.355841,60.6288,121.598,88.4131,0.340796,108.539,213,10.5114,1.06179,0.415,4790
2.43551e-08,6.67516e-07,-2.63563e-06,-2.79242e-05,-0.000212888,-0.00316583,96.5147,90.4957,-0.451604,48.4916,96.5308,90.4804,-0.452415,94.104,213,9.13248,1.8799,0.415,4791
-4.05041e-08,1.16848e-06,-2.54598e-06,-2.72675e-05,-0.000827375,-0.00280877,103.444,69.3395,-2.22089,52.8427,103.456,69.3368,-2.22983,93.4219,213,11.4586,0.813717,0.415,4792
-6.71002e-08,1.16453e-06,-2.54661e-06,-3.58208e-05,-0.00086887,-0.0027667,103.063,67.6783,-0.141167,51.6174,103.086,67.6637,-0.149218,90.8591,213,12.3813,0.813717,0.415,4793
-2.54336e-08,6.71727e-07,-2.63163e-06,-2.87451e-05,-0.000194099,-0.00311978,117.848,110.83,-1.36094,59.6162,117.867,110.815,-1.36522,115.867,213,10.9972,1.87551,0.415,4794
-9.74906e-08,1.27993e-06,-2.50964e-06,-4.07325e-05,-0.000961521,-0.00272046,100.552,61.4442,-0.416776,50.5046,100.579,61.4304,-0.430038,88.2105,213,13.1529,0.671629,0.415,4795
-1.28614e-07,1.25692e-06,-2.5151e-06,-4.02125e-05,-0.000901292,-0.00281468,88.1343,55.9151,-1.24589,44.7044,88.1505,55.9113,-1.25828,78.4272,213,14.0757,0.671629,0.415,4796
-7.64749e-08,7.79784e-07,-2.62947e-06,-3.37417e-05,-0.000283089,-0.00307357,115.647,104.835,-0.962415,58.3178,115.665,104.826,-0.971173,111.612,213,12.7161,1.48535,0.415,4797
-2.37674e-07,1.12521e-06,-2.53779e-06,-8.70852e-05,-0.000720988,-0.00266398,122.655,90.8748,1.33831,60.7354,122.773,90.7924,1.30244,109.056,213,15.5967,0.849583,0.415,4798
-3.20424e-07,1.06043e-06,-2.53954e-06,-8.7055e-05,-0.000840186,-0.00271487,100.822,68.8663,0.699236,50.0833,100.846,68.862,0.679472,88.6148,213,16.5194,0.849583,0.415,4799
-1.73136e-07,9.68805e-07,-2.59455e-06,-6.85981e-05,-0.000663567,-0.00292899,86.3158,65.7417,0.045409,43.1408,86.3242,65.7361,0.0426414,78.0513,213,14.7537,1.12267,0.415,4800
-2.38478e-07,6.01542e-07,-2.63002e-06,-7.8992e-05,-0.000198723,-0.00318727,99.55,95.0508,-1.13622,50.3533,99.5634,95.0444,-1.14321,98.5249,213,15.6868,1.97225,0.415,4801
-1.39186e-07,6.58763e-07,-2.6364e-06,-5.20321e-05,-0.000253564,-0.00300938,136.009,125.892,-1.76504,69.0127,136.246,125.669,-1.77945,133.053,213,14.1658,1.7943,0.415,4802
-4.18656e-07,1.05913e-06,-2.55596e-06,-0.000143915,-0.00075903,-0.00281,85.6826,62.691,-0.314726,43.0081,85.6932,62.6886,-0.322925,77.1312,213,17.4422,0.849583,0.415,4803
-4.28352e-07,6.20479e-07,-2.61858e-06,-0.000163803,-0.00021236,-0.00298391,128.55,126.226,-1.82243,65.4392,129.055,125.721,-1.82307,129.244,213,17.4173,1.81212,0.415,4804
-5.9685e-07,9.75798e-07,-2.60476e-06,-0.000246677,-0.000675388,-0.00275752,93.9688,75.772,0.282142,46.8885,94.0515,75.6969,0.274516,86.0801,213,18.3297,0.962542,0.415,4805
-7.43752e-07,7.18432e-07,-2.66139e-06,-0.000335646,-0.000352207,-0.00285276,106.049,105.805,-2.1251,54.4978,106.865,104.995,-2.13077,108.073,213,18.7848,1.44693,0.415,4806
1.17466e-06,-3.17665e-07,-2.50038e-06,-0.000833456,-0.000119585,-0.00284943,47.7257,68.6219,0.0383472,34.3107,68.6407,47.726,0.0192641,60.919,213,0.655674,16.8024,0.415,4807
1.18523e-06,-2.29909e-07,-2.49995e-06,-0.000840994,-7.34111e-05,-0.0027618,68.965,101.232,-0.0369925,50.6525,101.251,68.9636,-0.0543065,89.6343,213,0.655674,15.8274,0.415,4808
1.02223e-06,-4.20992e-07,-2.561e-06,-0.000732935,-0.000170269,-0.00270039,87.2187,115.555,0.569307,57.5055,115.568,87.218,0.556995,103.782,213,0.847604,17.5625,0.415,4809
6.88202e-07,-3.03184e-07,-2.62448e-06,-0.000265333,-0.000106869,-0.00310101,85.9466,91.2188,-0.751395,46.0762,91.4003,85.7659,-0.75212,89.4683,213,1.60328,16.8149,0.415,4810
7.30973e-07,-5.12731e-07,-2.63826e-06,-0.0003799,-0.000254338,-0.0028996,94.7793,100.109,0.455158,49.8742,100.202,94.6886,0.453244,97.1093,213,1.31519,18.0531,0.415,4811
1.0825e-06,-1.64609e-07,-2.54579e-06,-0.000788765,-5.03203e-05,-0.00279871,72.4768,103.857,-0.220799,52.0704,103.913,72.4272,-0.227528,92.5078,213,0.84159,14.9954,0.415,4812
1.09803e-06,-1.2592e-07,-2.54937e-06,-0.00077936,-4.27276e-05,-0.00280035,73.3323,104.605,-0.148772,52.3955,104.638,73.3036,-0.15301,93.1634,213,0.84159,14.0204,0.415,4813
7.19425e-07,-1.76804e-07,-2.62157e-06,-0.000226341,-6.55114e-05,-0.00319242,75.3728,80.227,0.0379692,40.1037,80.2454,75.3545,0.0379308,77.8773,213,1.59726,15.2228,0.415,4814
1.28453e-06,-7.88116e-08,-2.49716e-06,-0.000926708,-3.43091e-05,-0.00276531,55.1903,88.3701,-0.519263,44.4756,88.4178,55.1568,-0.533447,77.8461,213,0.596249,13.0984,0.415,4815
1.28959e-06,-5.45655e-08,-2.49971e-06,-0.000890634,-2.89164e-05,-0.00270995,74.479,115.667,-1.82241,58.7602,115.691,74.4623,-1.82956,103.275,213,0.596249,12.1234,0.415,4816
7.61348e-07,-9.21278e-08,-2.62314e-06,-0.000271244,-4.0844e-05,-0.00296384,137.721,150.533,-1.7415,76.1579,150.57,137.689,-1.74603,146.301,213,1.53784,13.4688,0.415,4817
1.04998e-06,-1.59574e-08,-2.56889e-06,-0.000725319,-2.44509e-05,-0.00283872,77.4042,107.206,0.273302,53.4901,107.247,77.3688,0.267204,95.609,213,0.959135,11.09,0.415,4818
1.05558e-06,3.89613e-09,-2.56309e-06,-0.00072644,-2.39387e-05,-0.00282428,77.3204,107.159,0.133916,53.5251,107.18,77.3036,0.129748,95.6769,213,0.959135,10.115,0.415,4819
7.18436e-07,-2.82928e-08,-2.63867e-06,-0.000258006,-2.73698e-05,-0.00315482,74.742,81.6041,0.331335,40.6506,81.6324,74.7138,0.331211,78.0722,213,1.65538,11.5135,0.415,4820
1.23342e-06,3.56681e-08,-2.49936e-06,-0.000859594,-2.14018e-05,-0.00278863,59.7189,90.6814,-0.0893597,45.4088,90.7068,59.7148,-0.110705,79.9607,213,0.710212,9.05786,0.415,4821
1.2031e-06,5.86118e-08,-2.51625e-06,-0.00086294,-3.49276e-05,-0.00274161,68.2532,103.433,0.172494,51.6741,103.504,68.1996,0.155441,90.9869,213,0.710212,8.08286,0.415,4822
6.79648e-07,2.17196e-08,-2.64715e-06,-0.000232819,-2.4514e-05,-0.00303292,128.74,139.116,-0.951115,70.0467,139.135,128.729,-0.958797,135.191,213,1.76935,9.42289,0.415,4823
1.32202e-06,9.45866e-08,-2.48411e-06,-0.000960677,-3.33273e-05,-0.00270598,61.6372,101.043,-0.440036,50.7705,101.082,61.6174,-0.459166,88.661,213,0.548396,7.30247,0.415,4824
1.30508e-06,1.25718e-07,-2.48647e-06,-0.000946573,-4.69933e-05,-0.00270335,62.1467,100.283,-0.883802,50.611,100.318,62.1327,-0.904436,88.5372,213,0.548396,6.32747,0.415,4825
8.23832e-07,7.43178e-08,-2.62284e-06,-0.000330642,-3.56823e-05,-0.00300828,102.505,114.921,-0.402082,57.6721,114.941,102.486,-0.403307,109.649,213,1.35861,7.58533,0.415,4826
1.06839e-06,1.82352e-07,-2.5512e-06,-0.000766697,-6.22342e-05,-0.00286453,60.6553,84.8963,0.339429,42.2931,84.9182,60.6408,0.332032,75.4366,213,0.853224,5.46391,0.415,4827
1.05685e-06,2.40398e-07,-2.54191e-06,-0.000768828,-7.1451e-05,-0.00280371,73.4211,102.852,-0.195941,51.5501,102.892,73.3938,-0.208421,91.9703,213,0.853224,4.48891,0.415,4828
7.61618e-07,1.4545e-07,-2.61684e-06,-0.000273974,-5.60281e-05,-0.00303714,105.921,115.172,0.278831,57.4769,115.232,105.862,0.277886,110.567,213,1.50162,5.94138,0.415,4829
1.17274e-06,3.19334e-07,-2.49083e-06,-0.000847678,-9.35829e-05,-0.00278601,58.9468,86.7835,-0.333268,43.577,86.8046,58.9418,-0.349402,77.0961,213,0.656279,3.67178,0.415,4830
1.16936e-06,4.38889e-07,-2.49566e-06,-0.00084125,-0.000158869,-0.00263389,78.9648,113.345,0.188577,56.6055,113.372,78.965,0.161245,100.525,213,0.656279,2.69678,0.415,4831
6.97767e-07,2.573e-07,-2.62453e-06,-0.000238043,-8.89981e-05,-0.00299963,126.388,134.221,-0.196427,67.2093,134.222,126.387,-0.196665,130.678,213,1.6095,4.26069,0.415,4832
6.74598e-07,4.33219e-07,-2.62228e-06,-0.000226089,-0.000148279,-0.00306085,106.026,109.589,-0.774779,55.3973,110.016,105.603,-0.778729,108.655,213,1.60388,2.68432,0.415,4833
9.97928e-07,5.74344e-07,-2.57897e-06,-0.000733186,-0.000217579,-0.00283527,50.6263,65.6733,-0.000512777,32.8547,65.6989,50.6106,-0.0104468,59.6149,213,0.847604,1.93754,0.415,4834
-1.17198e-06,4.36132e-07,-2.49923e-06,-0.000857803,-0.000154601,-0.00263228,77.7143,113.2,0.128835,56.569,113.238,77.706,0.0995614,100.213,213,19.4443,2.69744,0.415,4835
-1.17141e-06,3.20682e-07,-2.49206e-06,-0.000857797,-9.29578e-05,-0.00269426,75.7228,112.256,-0.758304,56.5255,112.279,75.7129,-0.771748,99.9188,213,19.4443,3.67244,0.415,4836
-9.90762e-07,5.73675e-07,-2.58823e-06,-0.000717723,-0.00022595,-0.00278612,60.0574,77.0045,0.0233316,38.5119,77.0388,60.0315,0.0149192,70.0854,213,19.2524,1.93754,0.415,4837
-6.72795e-07,4.33629e-07,-2.6262e-06,-0.000225905,-0.000152927,-0.00304894,105.945,109.306,-0.74621,55.2033,109.657,105.598,-0.749655,108.434,213,18.4967,2.68498,0.415,4838
-1.06224e-06,2.3791e-07,-2.53714e-06,-0.000780382,-7.03831e-05,-0.00279052,72.6404,102.793,-0.161691,51.5036,102.836,72.6075,-0.171511,91.7089,213,19.2584,4.50158,0.415,4839
-1.08255e-06,1.80143e-07,-2.54141e-06,-0.00077432,-5.95409e-05,-0.00283837,63.7809,90.1809,-0.0664346,45.1384,90.2033,63.7656,-0.0735184,80.3875,213,19.2584,5.47658,0.415,4840
-7.02588e-07,2.56584e-07,-2.62579e-06,-0.00021498,-8.95242e-05,-0.00315321,88.1222,93.0029,-0.0660224,46.5345,93.003,88.1221,-0.0660662,90.7272,213,18.5027,4.27402,0.415,4841
-1.26558e-06,1.2706e-07,-2.48994e-06,-0.000911836,-4.41532e-05,-0.00273727,64.6111,101.458,-0.377181,50.9379,101.482,64.6029,-0.393381,89.34,213,19.5021,6.39386,0.415,4842
-1.28062e-06,8.79461e-08,-2.49456e-06,-0.000865197,-3.88372e-05,-0.00276412,67.0257,102.106,-1.80035,51.9546,102.107,67.0257,-1.80177,91.5562,213,19.5021,7.36885,0.415,4843
-7.52493e-07,1.41696e-07,-2.60902e-06,-0.000257456,-5.29022e-05,-0.00300924,121.677,131.029,0.191332,65.4484,131.088,121.618,0.191321,126.428,213,18.5605,6.02043,0.415,4844
-1.04071e-06,5.10231e-08,-2.55315e-06,-0.000713209,-2.91547e-05,-0.00286249,74.413,103.448,-6.86734,55.309,103.612,74.3869,-7.00559,99.2854,213,19.1327,8.39572,0.415,4845
-1.05912e-06,2.4281e-08,-2.54383e-06,-0.000728089,-2.57742e-05,-0.00285024,75.512,105.32,-3.07026,54.2257,105.35,75.5131,-3.10137,97.0365,213,19.1327,9.37072,0.415,4846
-7.00162e-07,6.16517e-08,-2.6259e-06,-0.000263448,-3.28522e-05,-0.00303453,107.62,117.408,1.24897,58.1039,117.453,107.579,1.24486,111.599,213,18.4348,7.96457,0.415,4847
-1.26268e-06,-2.76227e-09,-2.48593e-06,-0.000862964,-2.54183e-05,-0.00281633,59.8626,90.6144,0.327119,45.1662,90.6373,59.862,0.304894,79.5428,213,19.3838,10.4354,0.415,4848
-1.2242e-06,-2.94929e-08,-2.50885e-06,-0.000832752,-2.89453e-05,-0.00276361,72.333,106.452,3.92602,51.405,106.612,72.298,3.80155,90.6616,213,19.3838,11.4104,0.415,4849
-6.57888e-07,6.74701e-09,-2.63268e-06,-0.000252756,-2.3533e-05,-0.00299746,127.478,139.116,0.120585,69.5038,139.122,127.478,0.114529,133.567,213,18.3166,10.0561,0.415,4850
-1.33292e-06,-5.46587e-08,-2.48853e-06,-0.000899506,-3.02481e-05,-0.00281594,54.155,84.0256,-0.234282,42.1474,84.0433,54.1545,-0.251511,74.0235,213,19.5523,12.1924,0.415,4851
-1.33328e-06,-8.4102e-08,-2.46916e-06,-0.000938667,-4.00099e-05,-0.00275751,55.7718,88.7618,1.16653,43.8785,88.8426,55.772,1.08552,76.7645,213,19.5523,13.1674,0.415,4852
-8.13952e-07,-3.94483e-08,-2.6133e-06,-0.000373754,-2.85705e-05,-0.0030041,98.1318,112.783,-3.45887,58.1936,112.868,98.1064,-3.51882,109.753,213,18.7362,11.9027,0.415,4853
-1.10648e-06,-1.26425e-07,-2.54185e-06,-0.000784298,-3.99117e-05,-0.00280445,72.7981,104.4,-0.683189,52.5545,104.423,72.778,-0.686066,93.3978,213,19.2584,14.0234,0.415,4854
-1.08186e-06,-1.64104e-07,-2.54623e-06,-0.000793233,-4.95191e-05,-0.00279384,72.2399,103.844,-0.15656,52.0288,103.897,72.1916,-0.16089,92.3798,213,19.2584,14.9984,0.415,4855
-7.6895e-07,-9.84863e-08,-2.62009e-06,-0.000287954,-4.32256e-05,-0.00297334,124.727,136.978,0.528392,68.2407,137.01,124.695,0.528328,130.76,213,18.6108,13.5408,0.415,4856
-1.18709e-06,-2.29638e-07,-2.50157e-06,-0.000848703,-7.02709e-05,-0.0027612,68.143,101.192,-0.325801,50.7813,101.227,68.1178,-0.335626,89.7136,213,19.4443,15.8276,0.415,4857
-1.17701e-06,-3.1649e-07,-2.49983e-06,-0.000844022,-0.00011732,-0.00274415,67.1736,98.0646,-0.64664,49.3659,98.0757,67.1721,-0.656176,87.4748,213,19.4443,16.8026,0.415,4858
-7.19219e-07,-1.76067e-07,-2.6239e-06,-0.000228728,-6.54775e-05,-0.00308671,108.042,115.134,-0.386181,57.7784,115.169,108.009,-0.387748,112.148,213,18.5027,15.226,0.415,4859
-6.88232e-07,-3.0035e-07,-2.62515e-06,-0.000259024,-0.000101954,-0.00305511,105.118,111.906,-0.806745,56.4608,112.113,104.912,-0.808211,109.499,213,18.4967,16.815,0.415,4860
-1.02318e-06,-4.18636e-07,-2.56472e-06,-0.000732986,-0.000169909,-0.00275252,73.7396,97.6398,0.260186,48.7078,97.6661,73.7229,0.250559,87.924,213,19.2524,17.5625,0.415,4861
-7.27616e-07,-5.10667e-07,-2.64484e-06,-0.000374595,-0.000269591,-0.00293346,93.3231,97.7823,-2.10632,49.986,97.8611,93.249,-2.11101,97.7477,213,18.7848,18.0531,0.415,4862
-3.83735e-07,-7.85834e-07,-2.60011e-06,-0.000151373,-0.000675117,-0.00280954,99.8203,77.5414,-0.241026,50.0402,99.8313,77.5385,-0.249113,91.0054,213,17.4422,18.6504,0.415,4863
-2.80639e-07,-7.73259e-07,-2.59194e-06,-8.1078e-05,-0.000772837,-0.00276975,102.337,72.9925,0.0220518,51.173,102.356,72.9858,0.00987019,91.2765,213,16.5194,18.6504,0.415,4864
-5.62874e-07,-7.33692e-07,-2.62538e-06,-0.000241275,-0.000633331,-0.00276566,95.3079,78.6668,0.395737,47.5393,95.4632,78.5226,0.384659,87.842,213,18.3297,18.5375,0.415,4865
-4.15124e-07,-4.20981e-07,-2.62617e-06,-0.00016241,-0.000133826,-0.00309125,110.674,111.76,-0.989908,56.7636,112.536,109.899,-0.99092,112.232,213,17.4173,17.6879,0.415,4866
-2.02875e-07,-8.29785e-07,-2.59105e-06,-8.08839e-05,-0.000647959,-0.00272757,124.472,96.0743,0.200784,62.2355,124.645,95.9272,0.174417,112.886,213,15.5967,18.6504,0.415,4867
-9.99227e-08,-9.13788e-07,-2.59555e-06,-3.56905e-05,-0.00078852,-0.00286605,90.9871,63.9036,-0.744759,45.877,90.9982,63.9036,-0.755876,81.651,213,14.0494,18.7871,0.415,4868
-7.92688e-08,-9.10465e-07,-2.59602e-06,-3.37567e-05,-0.000854513,-0.0027695,103.319,68.9718,-0.669954,52.0132,103.339,68.9694,-0.687504,91.801,213,13.1267,18.7871,0.415,4869
-2.28752e-07,-4.02908e-07,-2.61191e-06,-8.02304e-05,-0.000120021,-0.00321907,100.864,98.8947,-0.917324,50.8986,100.877,98.8841,-0.919949,100.815,213,15.6893,17.5084,0.415,4870
-1.48998e-07,-6.72927e-07,-2.62153e-06,-6.37987e-05,-0.00057934,-0.00290159,108.128,86.2408,0.678237,53.7336,108.139,86.2369,0.671445,98.3625,213,14.7562,18.358,0.415,4871
-1.28304e-07,-4.39985e-07,-2.62237e-06,-4.72401e-05,-0.000150273,-0.00312549,118.523,114.149,0.359773,59.2948,118.947,113.728,0.357192,116.068,213,14.142,17.6451,0.415,4872
-5.02433e-08,-8.65761e-07,-2.59616e-06,-2.82649e-05,-0.000810702,-0.0028746,85.2308,58.2391,-1.04547,43.162,85.2752,58.1981,-1.04889,76.4697,213,12.3103,18.6886,0.415,4873
-3.25575e-08,-8.62993e-07,-2.59729e-06,-1.83859e-05,-0.000754775,-0.00283577,106.472,75.4357,-0.619933,53.5625,106.496,75.4218,-0.629547,95.4598,213,11.3876,18.6886,0.415,4874
-6.33404e-08,-5.29604e-07,-2.63032e-06,-3.29911e-05,-0.000173521,-0.00313079,118.26,111.428,-0.0694514,59.1663,118.262,111.428,-0.0710098,115.068,213,12.6188,17.9757,0.415,4875
-3.80739e-09,-7.20978e-07,-2.61361e-06,-1.71104e-05,-0.000638946,-0.00289714,109.541,83.1279,0.219431,54.697,109.604,83.0741,0.210092,98.8366,213,10.5114,18.4382,0.415,4876
4.10262e-09,-7.19422e-07,-2.6176e-06,-1.48869e-05,-0.000645174,-0.00290158,109.55,82.7946,0.217954,54.7046,109.615,82.7425,0.205403,98.7544,213,9.58864,18.4382,0.415,4877
-2.14606e-08,-4.47713e-07,-2.62807e-06,-2.55848e-05,-0.000112934,-0.0031688,119.983,116.103,-0.942109,60.4883,120.03,116.061,-0.9469,119.042,213,10.9262,17.6268,0.415,4878
3.06195e-08,-8.63244e-07,-2.59921e-06,-2.37548e-05,-0.000751723,-0.00289314,92.1626,65.3501,-0.918438,46.5431,92.1657,65.3491,-0.920498,82.9934,213,8.71244,18.6886,0.415,4879
5.19742e-08,-8.63347e-07,-2.59775e-06,-2.66636e-05,-0.000812557,-0.00288262,85.3005,58.162,-1.04027,43.1779,85.315,58.1479,-1.04073,76.4809,213,7.78971,18.6886,0.415,4880
2.02667e-08,-4.50283e-07,-2.62839e-06,-2.57728e-05,-9.95695e-05,-0.00309599,142.523,139.194,-1.18675,71.9051,142.612,139.117,-1.19843,142.095,213,9.1738,17.6268,0.415,4881
7.61058e-08,-9.27574e-07,-2.58716e-06,-3.4558e-05,-0.000861699,-0.00281738,89.5178,59.1485,-0.898403,45.2161,89.5264,59.1473,-0.905772,79.7096,213,6.97334,18.7872,0.415,4882
1.01695e-07,-9.03309e-07,-2.5925e-06,-3.4548e-05,-0.000789934,-0.00280914,105.155,74.2447,0.0390606,52.5806,105.177,74.2452,0.0162049,93.6099,213,6.05061,18.7872,0.415,4883
6.32379e-08,-5.21397e-07,-2.63221e-06,-3.17422e-05,-0.000186677,-0.0030381,140.578,132.569,0.909134,69.8361,140.581,132.567,0.908254,135.843,213,7.48123,17.9758,0.415,4884
2.0295e-07,-8.37206e-07,-2.58612e-06,-7.6184e-05,-0.000672626,-0.00271267,124.088,94.133,0.0389963,62.0956,124.2,94.0507,0.00907259,112.197,213,4.50329,18.6504,0.415,4885
2.78197e-07,-7.78803e-07,-2.591e-06,-8.07686e-05,-0.000781443,-0.00274061,102.496,72.7862,0.686041,50.955,102.563,72.7529,0.65263,90.7544,213,3.58056,18.6504,0.415,4886
1.50285e-07,-6.70963e-07,-2.61727e-06,-6.25997e-05,-0.000574224,-0.00289818,108.339,86.6217,0.72086,53.8146,108.345,86.6217,0.715352,98.5795,213,5.34381,18.358,0.415,4887
2.28313e-07,-3.93526e-07,-2.61506e-06,-7.95804e-05,-0.000112344,-0.00318683,116.199,114.156,-0.997582,58.6335,116.266,114.092,-1.00089,116.195,213,4.41074,17.5084,0.415,4888
1.27608e-07,-4.34756e-07,-2.62475e-06,-4.92156e-05,-0.00014482,-0.0031881,102.389,98.5,-0.498197,51.6053,102.711,98.1791,-0.499414,101.021,213,5.95806,17.6452,0.415,4889
3.86838e-07,-7.95279e-07,-2.59781e-06,-0.000159223,-0.00068534,-0.00266336,129.454,100.204,0.0876034,64.6966,129.467,100.204,0.0742303,117.526,213,2.65784,18.6504,0.415,4890
4.13919e-07,-4.22444e-07,-2.62794e-06,-0.000164028,-0.000106062,-0.00319219,90.8613,92.3341,-0.394625,46.5556,92.7157,90.4807,-0.395561,92.0141,213,2.68271,17.6879,0.415,4891
5.62867e-07,-7.20145e-07,-2.62786e-06,-0.000237579,-0.000643306,-0.00284265,77.5445,63.5502,-0.379114,39.0248,77.6612,63.4428,-0.388355,72.0011,213,1.77033,18.5375,0.415,4892
1.4364e-08,3.97974e-08,-2.61193e-06,-2.89986e-05,-2.91396e-05,-0.0032984,84.9133,84.9091,-0.0134444,42.4646,84.9157,84.9067,-0.0134446,84.9246,213,9.56607,8.90322,0.415,4893
4.69022e-08,2.98985e-08,-2.61192e-06,-3.14881e-05,-2.80739e-05,-0.00313297,144.33,144.505,-0.121658,72.3144,144.507,144.328,-0.121776,144.539,213,8.50846,9.23405,0.415,4894
3.01817e-08,5.31136e-09,-2.61221e-06,-3.11949e-05,-2.56492e-05,-0.00313311,144.552,144.83,0.130869,72.3497,144.83,144.552,0.130717,144.561,213,9.03775,10.1563,0.415,4895
3.07134e-08,-1.6143e-08,-2.61236e-06,-3.11969e-05,-2.50114e-05,-0.00319481,122.206,122.468,0.115463,61.1766,122.469,122.205,0.115448,122.222,213,9.01557,11.0025,0.415,4896
-9.73872e-10,-7.86108e-09,-2.61232e-06,-2.86128e-05,-2.59263e-05,-0.00319763,122.219,122.334,-0.135757,61.2349,122.334,122.219,-0.135822,122.412,213,10.0732,10.6717,0.415,4897
-3.15385e-08,-1.68302e-08,-2.61217e-06,-3.09006e-05,-2.51206e-05,-0.00319616,122.12,122.365,-0.0807873,61.2237,122.366,122.119,-0.0811,122.324,213,11.1077,11.0328,0.415,4898
-3.24467e-08,5.1244e-09,-2.61195e-06,-3.13036e-05,-2.61954e-05,-0.00319504,122.137,122.355,0.0465885,61.1545,122.355,122.137,0.0461832,122.2,213,11.1299,10.1866,0.415,4899
-5.2197e-08,2.03578e-08,-2.61137e-06,-3.2341e-05,-2.67756e-05,-0.00325594,99.6316,99.827,-0.117329,49.9725,99.8276,99.631,-0.117375,99.8468,213,11.7474,9.60803,0.415,4900
-1.93535e-08,3.02597e-08,-2.61193e-06,-3.02499e-05,-2.76004e-05,-0.0031938,122.276,122.386,0.237349,61.0747,122.386,122.276,0.237005,122.094,213,10.7129,9.24691,0.415,4901
-3.44226e-09,5.70698e-08,-2.61168e-06,-2.97781e-05,-3.01491e-05,-0.00313203,144.485,144.466,0.0196266,72.2334,144.486,144.465,0.0195166,144.456,213,10.1836,8.32464,0.415,4902
1.92283e-07,1.03704e-07,-2.60249e-06,-6.84796e-05,-4.35683e-05,-0.00316892,119.114,120.171,-0.405982,60.295,120.184,119.101,-0.40615,120.052,213,5.34528,6.9174,0.415,4903
1.52631e-07,8.20865e-08,-2.60638e-06,-5.88986e-05,-3.71028e-05,-0.00311371,142.075,143.171,0.0289876,71.5768,143.182,142.064,0.0288475,142.598,213,5.99331,7.487,0.415,4904
1.40182e-07,1.25159e-07,-2.60606e-06,-5.48827e-05,-4.85116e-05,-0.00317159,120.036,120.306,-0.112783,60.2259,120.339,120.003,-0.112789,120.284,213,6.16322,6.48608,0.415,4905
2.24572e-07,1.30206e-07,-2.59916e-06,-7.93345e-05,-5.01186e-05,-0.00309241,140.424,141.895,0.518615,70.6973,141.913,140.406,0.51845,140.647,213,4.87502,6.3294,0.415,4906
2.41951e-07,8.56571e-08,-2.59798e-06,-8.24731e-05,-3.78505e-05,-0.00322102,96.9687,98.5096,0.194561,49.1598,98.5142,96.9641,0.194556,97.5538,213,4.70512,7.33032,0.415,4907
1.79693e-07,2.10903e-07,-2.5992e-06,-6.49179e-05,-7.51738e-05,-0.00321336,97.1116,96.7574,0.000950756,48.5835,97.1679,96.7012,0.000904241,96.9345,213,5.41732,5.02925,0.415,4908
2.40421e-07,2.30697e-07,-2.59335e-06,-8.55767e-05,-8.06311e-05,-0.00307663,138.818,139.078,-0.0978806,69.7001,139.302,138.594,-0.0979554,139.047,213,4.59271,4.70941,0.415,4909
2.36827e-07,1.69567e-07,-2.59683e-06,-8.47371e-05,-5.90468e-05,-0.00314994,117.935,119.022,0.00312577,59.5239,119.051,117.906,0.0030677,118.48,213,4.69058,5.59664,0.415,4910
2.97407e-07,1.43771e-07,-2.59218e-06,-0.000100791,-5.31819e-05,-0.00320835,95.5576,97.2099,-0.105238,48.6626,97.2201,95.5475,-0.105244,96.4999,213,4.05041,6.00955,0.415,4911
1.35578e-07,1.83384e-07,-2.60326e-06,-5.33149e-05,-6.55339e-05,-0.00316202,119.873,119.354,0.105441,59.9039,119.913,119.314,0.105357,119.509,213,6.19051,5.46557,0.415,4912
1.37881e-07,2.4988e-07,-2.59756e-06,-5.33575e-05,-8.64073e-05,-0.00304946,155.7,153.862,-0.0928329,77.9088,155.725,153.837,-0.0928601,154.882,213,6.09265,4.57835,0.415,4913
1.05842e-07,1.50463e-07,-2.60655e-06,-4.35513e-05,-5.73858e-05,-0.00323397,98.5205,98.0411,-0.0720602,49.3042,98.5362,98.0255,-0.0721383,98.354,213,6.83854,6.03517,0.415,4914
-9.3717e-08,1.78487e-07,-2.60464e-06,-4.24932e-05,-6.36023e-05,-0.00310549,142.816,141.75,0.374459,71.2271,142.828,141.738,0.374233,141.912,213,13.0132,5.57249,0.415,4915
-6.78629e-08,1.43223e-07,-2.60827e-06,-3.53634e-05,-5.4401e-05,-0.00317819,121.224,120.418,0.000992134,60.6156,121.232,120.41,0.000962487,120.822,213,12.3165,6.19229,0.415,4916
-1.20028e-07,1.30352e-07,-2.60657e-06,-4.83856e-05,-5.01375e-05,-0.00317276,120.576,120.502,0.186722,60.2284,120.643,120.435,0.186712,120.352,213,13.5544,6.39442,0.415,4917
-1.23351e-07,2.14262e-07,-2.60128e-06,-4.92995e-05,-7.64956e-05,-0.0032267,97.4444,96.5065,-0.900773,49.1769,97.4524,96.4991,-0.90136,97.8806,213,13.689,5.03048,0.415,4918
-7.02989e-08,2.33303e-07,-2.60057e-06,-3.59513e-05,-8.07218e-05,-0.00316556,120.438,118.534,-0.320142,60.3813,120.442,118.53,-0.320253,119.818,213,12.4512,4.82835,0.415,4919
-1.37677e-07,8.33497e-08,-2.60622e-06,-5.456e-05,-3.74265e-05,-0.0032804,83.6427,84.1448,-0.0219719,42.0882,84.1545,83.6331,-0.0219934,83.917,213,13.843,7.45687,0.415,4920
-1.76658e-07,1.07467e-07,-2.60361e-06,-6.27021e-05,-4.485e-05,-0.00311182,141.161,142.065,-0.761768,71.4253,142.088,141.138,-0.76222,142.378,213,14.5396,6.83706,0.415,4921
-2.33066e-07,8.77099e-08,-2.59966e-06,-7.76866e-05,-3.84003e-05,-0.00322507,97.2583,98.6157,0.288929,49.1664,98.6213,97.2532,0.288443,97.656,213,15.3188,7.28439,0.415,4922
-2.07188e-07,1.36253e-07,-2.6015e-06,-7.34205e-05,-5.16244e-05,-0.0031576,119.114,120.041,0.550842,59.7532,120.057,119.099,0.550285,119.03,213,15.0301,6.22195,0.415,4923
-2.22046e-07,1.74294e-07,-2.59881e-06,-8.13275e-05,-5.99187e-05,-0.00315172,118.233,119.142,0.190553,59.4871,119.165,118.21,0.190418,118.5,213,15.2425,5.52571,0.415,4924
-2.37602e-07,2.37133e-07,-2.59071e-06,-8.48684e-05,-8.41665e-05,-0.00307719,138.443,138.483,-0.743354,69.7756,138.808,138.118,-0.743398,139.208,213,15.4903,4.63649,0.415,4925
-1.67283e-07,2.22544e-07,-2.59857e-06,-5.9366e-05,-8.03783e-05,-0.00314722,119.35,118.464,0.502331,59.4412,119.385,118.429,0.502288,118.408,213,14.4988,4.8854,0.415,4926
-2.91961e-07,1.4618e-07,-2.59468e-06,-0.000100262,-5.3208e-05,-0.00314767,117.012,118.98,-0.168293,59.5755,118.983,117.009,-0.168312,118.177,213,16.0216,5.97304,0.415,4927
-1.3325e-07,2.92191e-07,-2.59364e-06,-5.21753e-05,-0.000100504,-0.00307998,141.227,138.787,0.611543,70.3152,141.24,138.776,0.609809,139.414,213,13.9368,4.14126,0.415,4928
2.06096e-07,-7.22675e-08,-2.60395e-06,-7.26874e-05,-3.4834e-05,-0.00321475,103.536,104.934,-0.232649,52.5864,104.94,103.53,-0.232724,104.475,213,5.17133,13.007,0.415,4929
2.7671e-07,-7.87441e-08,-2.59904e-06,-9.47288e-05,-3.58324e-05,-0.00315807,117.693,120.193,-0.208763,60.2019,120.195,117.691,-0.208775,119.172,213,4.32235,13.2134,0.415,4930
2.38781e-07,-1.10306e-07,-2.6006e-06,-8.67125e-05,-4.15249e-05,-0.00315788,118.287,120.2,0.173149,60.0167,120.207,118.28,0.173127,119.082,213,4.71495,14.0168,0.415,4931
2.46088e-07,-1.48108e-07,-2.59327e-06,-8.80926e-05,-5.57568e-05,-0.00315061,117.77,119.142,-0.0374905,59.6074,119.177,117.735,-0.0375036,118.5,213,4.57679,14.7993,0.415,4932
1.81742e-07,-1.39184e-07,-2.60046e-06,-6.53189e-05,-5.40016e-05,-0.00316325,119.193,119.684,-0.175018,59.9511,119.727,119.15,-0.175034,119.615,213,5.42577,14.5929,0.415,4933
1.38078e-07,-8.23708e-08,-2.60767e-06,-5.38781e-05,-3.67274e-05,-0.00323706,98.5242,99.1185,0.272793,49.4269,99.1267,98.5161,0.272755,98.55,213,6.23255,13.2673,0.415,4934
1.63267e-07,-5.47037e-08,-2.60698e-06,-6.2127e-05,-3.08355e-05,-0.00317998,119.776,121.102,-0.462766,60.7842,121.105,119.773,-0.463003,120.908,213,5.83996,12.4639,0.415,4935
1.45753e-07,-1.6474e-07,-2.60143e-06,-5.65337e-05,-6.11163e-05,-0.00316428,119.615,119.421,-0.179256,59.937,119.695,119.341,-0.179288,119.698,213,5.99019,15.0075,0.415,4936
1.41075e-07,-1.22226e-07,-2.60507e-06,-5.4661e-05,-4.72761e-05,-0.00310893,142.177,142.548,0.114768,71.2323,142.579,142.146,0.114552,142.249,213,6.12835,14.225,0.415,4937
1.08841e-07,-9.93224e-08,-2.60763e-06,-4.63863e-05,-4.17333e-05,-0.00318047,120.621,120.819,-0.329537,60.5901,120.85,120.59,-0.329703,121.05,213,6.79698,13.6819,0.415,4938
-2.37502e-07,-1.10991e-07,-2.60109e-06,-8.6546e-05,-4.20004e-05,-0.00309697,139.808,142.05,-0.0126901,71.0322,142.052,139.806,-0.0127595,140.955,213,15.3855,14.0163,0.415,4939
-2.7669e-07,-7.74298e-08,-2.60165e-06,-9.56765e-05,-3.5139e-05,-0.00309585,139.348,142.388,0.0852255,71.1517,142.389,139.348,0.0851738,140.807,213,15.8192,13.1574,0.415,4940
-2.06871e-07,-7.07959e-08,-2.60541e-06,-7.06963e-05,-3.4674e-05,-0.00323247,97.5467,98.7942,0.0244505,49.3874,98.7991,97.5418,0.0243941,98.1521,213,14.9707,12.9505,0.415,4941
-1.81347e-07,-1.40008e-07,-2.60156e-06,-6.55354e-05,-5.26564e-05,-0.00316235,119.388,119.936,0.142517,59.9143,119.971,119.353,0.142436,119.521,213,14.6749,14.5923,0.415,4942
-2.46999e-07,-1.48235e-07,-2.59474e-06,-8.87886e-05,-5.44908e-05,-0.00315095,117.733,119.188,-0.0760174,59.6493,119.222,117.699,-0.0760386,118.544,213,15.5234,14.7991,0.415,4943
-1.65726e-07,-5.30166e-08,-2.6066e-06,-6.15789e-05,-3.05621e-05,-0.00317789,119.957,121.274,-0.19749,60.7392,121.281,119.95,-0.197621,120.819,213,14.3157,12.4016,0.415,4944
-1.38272e-07,-8.23284e-08,-2.60763e-06,-5.34825e-05,-3.71331e-05,-0.0031153,142.497,143.32,0.0458319,71.6411,143.328,142.489,0.0458047,142.865,213,13.8821,13.2606,0.415,4945
-1.40482e-07,-1.23003e-07,-2.60523e-06,-5.4798e-05,-4.76992e-05,-0.00311006,142.068,142.424,-0.0541334,71.2617,142.469,142.023,-0.0541439,142.301,213,13.9724,14.2245,0.415,4946
-1.44963e-07,-1.64423e-07,-2.60071e-06,-5.6644e-05,-5.92008e-05,-0.0032266,97.8448,97.7521,0.0192137,48.9582,97.9356,97.6613,0.0192057,97.7795,213,14.1102,15.0073,0.415,4947
-1.09281e-07,-9.97554e-08,-2.60779e-06,-4.51652e-05,-4.25018e-05,-0.00324019,98.7855,98.8747,0.0793127,49.4204,98.9202,98.74,0.0792981,98.7509,213,13.3174,13.6757,0.415,4948
1.67079e-08,-2.14273e-07,-2.59985e-06,-2.60575e-05,-7.65183e-05,-0.00322968,99.2146,97.4633,0.165761,49.5244,99.2146,97.4633,0.165754,98.1849,213,9.4209,15.63,0.415,4949
1.54488e-08,-3.26027e-07,-2.60756e-06,-2.48896e-05,-0.000118558,-0.00309907,142.299,137.594,-0.455038,71.3778,142.3,137.593,-0.455178,140.461,213,9.4209,16.7877,0.415,4950
5.70922e-10,-2.65842e-07,-2.6026e-06,-2.43161e-05,-9.91924e-05,-0.00322666,98.928,96.3416,0.220504,49.3538,98.928,96.3416,0.220499,97.4401,213,10.05,16.2187,0.415,4951
-1.52156e-08,-3.25149e-07,-2.60921e-06,-2.59081e-05,-0.000116368,-0.00309204,142.357,137.8,-0.290743,71.3258,142.361,137.797,-0.291004,140.425,213,10.6794,16.7874,0.415,4952
-1.57794e-08,-2.13837e-07,-2.6021e-06,-2.69756e-05,-7.57512e-05,-0.00310879,143.488,141.032,-0.0081877,71.7482,143.488,141.032,-0.00821875,142.284,213,10.6794,15.6297,0.415,4953
-2.29995e-08,-1.53297e-07,-2.60587e-06,-2.83474e-05,-5.60454e-05,-0.00318118,121.638,120.457,0.000257121,60.8195,121.639,120.456,0.00022131,121.052,213,10.9118,14.7098,0.415,4954
-2.36796e-08,-1.10303e-07,-2.60892e-06,-2.91754e-05,-4.4698e-05,-0.00324782,99.5618,99.0238,0.039074,49.7617,99.5625,99.0232,0.0390198,99.2549,213,10.913,13.8622,0.415,4955
2.07978e-10,-1.27161e-07,-2.60722e-06,-2.63249e-05,-5.01211e-05,-0.0031844,121.905,120.897,0.00886989,60.9481,121.905,120.897,0.00882518,121.395,213,10.0512,14.2135,0.415,4956
-4.06287e-08,-1.87935e-07,-2.60449e-06,-2.92452e-05,-6.88201e-05,-0.00323409,99.3028,97.9381,0.391324,49.4567,99.3045,97.9367,0.391017,98.2367,213,11.5411,15.2785,0.415,4957
2.42352e-08,-1.10473e-07,-2.60813e-06,-2.8947e-05,-4.45386e-05,-0.00318692,121.8,121.138,-0.111442,60.9566,121.802,121.136,-0.111448,121.582,213,9.19123,13.864,0.415,4958
2.35083e-08,-1.53178e-07,-2.60378e-06,-2.80093e-05,-5.58598e-05,-0.00318199,121.559,120.379,-0.210695,60.8857,121.561,120.377,-0.210704,121.184,213,9.19,14.7115,0.415,4959
4.05314e-08,-1.87958e-07,-2.60134e-06,-2.8099e-05,-7.01479e-05,-0.00317583,121.183,119.397,-0.314652,60.7504,121.186,119.394,-0.314659,120.615,213,8.5609,15.2805,0.415,4960
-2.12458e-08,3.28434e-07,-2.59341e-06,-2.74125e-05,-0.000110439,-0.00309143,142.368,138.18,-0.332484,71.3503,142.368,138.18,-0.332533,140.653,213,10.8714,3.87183,0.415,4961
-2.11043e-08,4.77675e-07,-2.60283e-06,-2.75236e-05,-0.000169511,-0.00311525,120.026,113.961,1.66139,59.1861,120.03,113.961,1.65741,115.458,213,10.872,2.78532,0.415,4962
8.44584e-10,4.13592e-07,-2.59332e-06,-2.50324e-05,-0.000147571,-0.00307762,141.614,135.453,-0.2473,70.9308,141.614,135.453,-0.247352,138.883,213,10.0494,3.2101,0.415,4963
1.63207e-08,5.01856e-07,-2.60422e-06,-2.57965e-05,-0.000176512,-0.00312169,119.488,113.057,0.723546,59.3848,119.491,113.055,0.721832,115.686,213,9.40811,2.63622,0.415,4964
1.67126e-08,3.4493e-07,-2.58871e-06,-2.57263e-05,-0.000114861,-0.00308392,143.262,138.77,1.35197,70.9556,143.263,138.77,1.35138,139.719,213,9.40752,3.72273,0.415,4965
-2.3021e-08,2.36575e-07,-2.60027e-06,-2.80005e-05,-8.00343e-05,-0.00310524,143.389,140.768,0.173027,71.609,143.391,140.766,0.173021,141.924,213,10.9121,4.83349,0.415,4966
-4.63198e-08,2.71964e-07,-2.59809e-06,-2.96112e-05,-9.60847e-05,-0.00325828,84.1486,82.2011,0.532419,41.8088,84.1498,82.2001,0.532208,82.66,213,11.7346,4.4087,0.415,4967
4.05448e-09,2.16215e-07,-2.60116e-06,-2.58435e-05,-7.58569e-05,-0.00317118,121.237,119.114,-0.245166,60.7412,121.237,119.114,-0.245192,120.435,213,9.89888,5.10873,0.415,4968
-1.94704e-08,1.78037e-07,-2.60665e-06,-2.82352e-05,-6.40922e-05,-0.00317522,121.562,120.042,0.172943,60.6949,121.563,120.041,0.172908,120.636,213,10.7621,5.6456,0.415,4969
3.92664e-08,3.29867e-07,-2.59503e-06,-2.83961e-05,-0.000110528,-0.00322038,98.3253,95.4884,-0.130041,49.2281,98.3259,95.4881,-0.130346,97.0685,213,8.5702,3.85921,0.415,4970
2.20604e-08,2.7214e-07,-2.59395e-06,-2.69579e-05,-9.09071e-05,-0.00309901,143.452,140.226,0.692576,71.3799,143.452,140.226,0.692458,141.174,213,9.21151,4.4331,0.415,4971
2.67859e-08,2.05807e-07,-2.60167e-06,-2.83577e-05,-7.31963e-05,-0.00318094,120.513,118.61,-1.43453,60.9752,120.515,118.609,-1.4355,121.009,213,9.06156,5.24521,0.415,4972
3.48406e-07,3.16946e-08,-2.59165e-06,-0.000114681,-2.64764e-05,-0.00312871,117.285,121.019,1.05624,59.9835,121.023,117.281,1.05614,118.14,213,3.73054,9.04787,0.415,4973
4.92882e-07,2.14406e-08,-2.61377e-06,-0.000160306,-2.58894e-05,-0.00316078,113.492,119.161,-0.64671,59.9055,119.164,113.489,-0.646741,117.076,213,2.6714,9.4129,0.415,4974
4.34857e-07,4.49519e-09,-2.60054e-06,-0.000145926,-2.31152e-05,-0.00310117,135.544,141.717,-0.436135,71.0767,141.717,135.544,-0.436149,139.169,213,3.0774,10.115,0.415,4975
4.81925e-07,-1.16055e-08,-2.60934e-06,-0.000161803,-2.27617e-05,-0.00329121,78.6645,82.7343,-0.829945,41.7832,82.7362,78.6628,-0.830172,81.606,213,2.7491,10.8122,0.415,4976
3.40371e-07,-2.59615e-09,-2.59067e-06,-0.00011054,-2.3458e-05,-0.00312026,117.623,121.29,1.01068,60.142,121.292,117.623,1.00843,118.492,213,3.80823,10.4472,0.415,4977
2.30441e-07,1.6778e-08,-2.59518e-06,-8.37812e-05,-2.37965e-05,-0.0031626,118.654,121.2,-0.231682,60.7165,121.201,118.653,-0.231717,120.179,213,4.94437,9.66637,0.415,4978
1.89346e-07,4.10766e-08,-2.60152e-06,-6.76552e-05,-2.82267e-05,-0.00310961,141.89,143.878,0.518117,71.6806,143.879,141.889,0.518058,142.376,213,5.46379,8.75053,0.415,4979
2.52498e-07,3.7971e-08,-2.59306e-06,-8.81866e-05,-2.77898e-05,-0.00315705,118.369,120.933,-0.0631132,60.5001,120.937,118.365,-0.0631453,119.735,213,4.65596,8.83416,0.415,4980
2.86663e-07,5.80464e-08,-2.5938e-06,-9.8135e-05,-3.01131e-05,-0.00315497,117.855,120.743,0.291312,60.2306,120.752,117.846,0.290963,119.035,213,4.24996,8.13203,0.415,4981
2.67213e-07,2.58493e-09,-2.59161e-06,-9.34699e-05,-2.36244e-05,-0.00314863,118.311,121.268,0.281241,60.4936,121.268,118.311,0.281112,119.536,213,4.53019,10.2572,0.415,4982
1.99899e-07,4.93302e-09,-2.59953e-06,-7.25486e-05,-2.4167e-05,-0.00323459,97.6557,99.3278,0.0481046,49.6402,99.3282,97.6557,0.0477818,98.4548,213,5.33801,10.1735,0.415,4983
2.97017e-07,-1.43222e-08,-2.59318e-06,-0.000100929,-2.3795e-05,-0.00308407,139.538,143.418,0.665075,71.3789,143.421,139.536,0.663451,140.856,213,4.20188,10.9544,0.415,4984
-3.5241e-07,-1.25113e-09,-2.59923e-06,-0.000102287,-2.40447e-05,-0.0032396,95.7775,98.5403,-0.392094,49.4672,98.5422,95.7756,-0.392095,97.5804,213,16.3941,10.3593,0.415,4985
-4.93256e-07,6.91534e-09,-2.62009e-06,-0.000155258,-2.36841e-05,-0.00310189,132.455,139.116,-4.82012,72.0192,139.169,132.451,-4.86922,140.8,213,17.4447,10.0216,0.415,4986
-4.27237e-07,2.39651e-08,-2.61241e-06,-0.000139638,-2.52173e-05,-0.0031603,114.907,119.772,-0.419722,60.0982,119.777,114.902,-0.41978,117.835,213,17.0148,9.32911,0.415,4987
-4.55347e-07,4.25497e-08,-2.62017e-06,-0.000152265,-2.70294e-05,-0.00315765,113.363,118.678,-1.75881,60.2269,118.693,113.351,-1.76125,117.874,213,17.2552,8.60598,0.415,4988
-3.30361e-07,3.48517e-08,-2.59608e-06,-0.000100355,-2.6963e-05,-0.00314603,117.961,121.056,0.568657,60.2521,121.072,117.945,0.568384,118.971,213,16.2045,8.94365,0.415,4989
-2.51958e-07,3.958e-08,-2.59152e-06,-8.62903e-05,-2.81004e-05,-0.00322223,96.9425,98.9447,0.183281,49.3868,98.9569,96.9303,0.183269,97.7761,213,15.3962,8.78314,0.415,4990
-1.88504e-07,4.157e-08,-2.59806e-06,-6.85141e-05,-2.80301e-05,-0.00310697,142.104,144.141,1.03512,71.557,144.148,142.097,1.03444,142.099,213,14.5887,8.73923,0.415,4991
-2.36278e-07,1.80339e-08,-2.59039e-06,-8.57939e-05,-2.36777e-05,-0.00316499,118.379,121.005,-0.488748,60.7487,121.009,118.375,-0.488789,120.202,213,15.1567,9.62287,0.415,4992
-2.65508e-07,6.06764e-08,-2.59572e-06,-8.86317e-05,-3.06094e-05,-0.00309807,140.163,143.083,0.4025,71.3581,143.118,140.129,0.401798,141.245,213,15.6366,8.06001,0.415,4993
-2.04998e-07,5.52879e-09,-2.5943e-06,-7.56428e-05,-2.42369e-05,-0.00317574,119.466,121.662,0.376978,60.6445,121.664,119.466,0.374971,120.205,213,14.7692,10.1585,0.415,4994
-2.74191e-07,3.61603e-09,-2.5885e-06,-9.20017e-05,-2.45701e-05,-0.00314735,118.231,121.093,0.00831201,60.5431,121.095,118.229,0.00829801,119.679,213,15.5767,10.2024,0.415,4995
-3.09994e-07,-1.38499e-08,-2.59488e-06,-9.90479e-05,-2.37191e-05,-0.00314549,119.993,123.19,4.22559,59.5039,123.216,119.984,4.20818,117.425,213,16.0066,10.8949,0.415,4996
-2.54094e-07,4.38821e-07,-2.58392e-06,-8.92034e-05,-0.000148603,-0.00310876,115.382,112.861,-0.533966,57.9726,115.411,112.832,-0.534029,114.677,213,15.8247,2.83066,0.415,4997
-1.78441e-07,4.06913e-07,-2.58408e-06,-6.12297e-05,-0.00013534,-0.00319251,95.7968,93.2368,-0.806025,48.313,95.8198,93.2141,-0.806265,95.3499,213,14.7952,3.12075,0.415,4998
-2.55496e-07,3.25635e-07,-2.57896e-06,-8.97855e-05,-0.000112063,-0.00311276,116.866,115.902,0.853977,58.0658,116.985,115.784,0.853075,115.536,213,15.7761,3.70608,0.415,4999
-3.36219e-07,4.74022e-07,-2.58515e-06,-0.00010558,-0.000180998,-0.00301982,129.613,126.021,1.7174,63.994,129.702,125.935,1.71417,126.147,213,16.6676,2.55757,0.415,5000
-3.36033e-07,2.55194e-07,-2.58838e-06,-0.000110402,-9.00897e-05,-0.00306819,130.973,131.967,0.611916,65.75,132.112,130.828,0.611788,130.863,213,16.5198,4.34639,0.415,5001
-4.49854e-07,1.87051e-07,-2.59683e-06,-0.000166046,-6.44303e-05,-0.00316867,91.8744,95.3821,-0.224135,47.8163,95.4079,91.8491,-0.224678,93.9038,213,17.2754,5.18998,0.415,5002
-4.85529e-07,2.58229e-07,-2.60228e-06,-0.000179153,-8.95678e-05,-0.00308488,111.138,114.94,-0.0395844,57.5105,114.981,111.097,-0.0395857,113.129,213,17.5612,4.25957,0.415,5003
-5.08042e-07,3.41387e-07,-2.59666e-06,-0.000208674,-0.000107767,-0.00305097,109.391,113.661,1.05042,56.3304,113.71,109.343,1.04922,110.542,213,17.7471,3.43043,0.415,5004
-4.6118e-07,4.45868e-07,-2.58744e-06,-0.000174613,-0.000166049,-0.00305224,109.763,110.127,0.0111192,55.2014,110.414,109.476,0.0110889,109.937,213,17.5552,2.67053,0.415,5005
-2.63413e-07,-2.05522e-07,-2.58575e-06,-9.3959e-05,-7.03741e-05,-0.00314147,117.055,118.056,-0.0597848,59.1036,118.147,116.964,-0.0597915,117.62,213,15.8091,15.7295,0.415,5006
-1.80555e-07,-2.55753e-07,-2.59096e-06,-6.4194e-05,-9.35168e-05,-0.00314071,118.537,117.292,0.0768009,59.2633,118.603,117.226,0.0767308,117.844,213,14.8307,16.2955,0.415,5007
-2.53827e-07,-2.85882e-07,-2.58876e-06,-9.11669e-05,-0.000105257,-0.0031206,116.503,115.905,0.016875,58.3296,116.676,115.732,0.0168004,116.19,213,15.8271,16.65,0.415,5008
-3.34049e-07,-3.15489e-07,-2.59281e-06,-0.000110563,-0.000129769,-0.00310084,114.721,113.906,0.0442555,57.5012,115.047,113.581,0.0441556,114.276,213,16.6676,16.9424,0.415,5009
-4.97016e-07,-1.71327e-07,-2.60555e-06,-0.000181141,-5.95195e-05,-0.00310338,111.693,116.856,-0.00401905,58.4408,116.877,111.672,-0.004289,114.368,213,17.5612,15.2404,0.415,5010
-4.60322e-07,-1.2106e-07,-2.59834e-06,-0.000167626,-4.5893e-05,-0.00311387,112.944,118.111,0.140573,58.992,118.124,112.931,0.140351,115.475,213,17.2754,14.31,0.415,5011
-3.43735e-07,-1.66181e-07,-2.58864e-06,-0.0001144,-6.00018e-05,-0.00313358,115.99,118.299,-0.0104062,59.1734,118.336,115.953,-0.0104097,117.173,213,16.5198,15.1536,0.415,5012
-5.257e-07,-2.28397e-07,-2.60787e-06,-0.000224908,-7.46308e-05,-0.00306994,108.551,114.93,0.0338007,57.4515,114.936,108.545,0.0332779,111.845,213,17.7471,16.0696,0.415,5013
-4.65342e-07,-2.9695e-07,-2.6072e-06,-0.000180337,-0.000112514,-0.00307471,110.532,113.411,-0.0788733,56.8125,113.546,110.397,-0.0790588,112.084,213,17.5552,16.8295,0.415,5014
2.57763e-07,3.16421e-07,-2.58404e-06,-9.08851e-05,-0.000106202,-0.00312098,116.912,116.229,0.835975,58.1072,117.05,116.092,0.835407,115.738,213,4.30697,3.779,0.415,5015
1.80048e-07,3.94291e-07,-2.58021e-06,-6.13611e-05,-0.000137466,-0.00312667,117.366,114.135,-0.652815,59.0224,117.392,114.109,-0.652999,116.438,213,5.29047,3.20684,0.415,5016
2.53204e-07,4.36876e-07,-2.58318e-06,-8.96781e-05,-0.000151059,-0.00309774,115.511,112.906,-0.124052,57.8369,115.55,112.867,-0.124068,114.356,213,4.27799,2.84382,0.415,5017
3.36329e-07,4.75003e-07,-2.58701e-06,-0.000107325,-0.000187258,-0.00302734,128.958,125.102,0.897764,64.0672,129.031,125.03,0.89683,126.181,213,3.43235,2.55757,0.415,5018
4.84962e-07,2.59513e-07,-2.60265e-06,-0.000177084,-8.92973e-05,-0.00308563,111.322,115.048,0.0462355,57.5311,115.108,111.262,0.0460144,113.188,213,2.55047,4.2469,0.415,5019
4.48555e-07,1.87998e-07,-2.59559e-06,-0.00016723,-6.49325e-05,-0.0030491,133.079,138.228,0.0962548,69.0751,138.246,133.061,0.0961938,135.632,213,2.83621,5.17731,0.415,5020
3.36486e-07,2.55592e-07,-2.58765e-06,-0.000110471,-9.00277e-05,-0.0031599,100.52,101.283,0.093264,50.6457,101.385,100.418,0.0932489,100.812,213,3.58023,4.34639,0.415,5021
5.11586e-07,3.42138e-07,-2.59705e-06,-0.000213601,-0.000110073,-0.00305163,108.711,113.168,0.378143,56.4122,113.202,108.678,0.377621,110.632,213,2.35352,3.42977,0.415,5022
4.60882e-07,4.44216e-07,-2.58642e-06,-0.000172805,-0.000161598,-0.00315362,76.5556,76.9206,0.144502,38.5134,77.1712,76.3051,0.144405,76.5974,213,2.54485,2.67053,0.415,5023
2.54467e-07,-2.85868e-07,-2.58981e-06,-9.16222e-05,-9.97479e-05,-0.00312617,116.585,116.24,-0.0034768,58.4441,116.885,115.94,-0.0035307,116.419,213,4.27287,16.65,0.415,5024
1.80965e-07,-2.60688e-07,-2.59186e-06,-6.43997e-05,-9.36041e-05,-0.00314533,118.624,117.38,0.262407,59.2268,118.716,117.288,0.262349,117.746,213,5.26944,16.2957,0.415,5025
2.6355e-07,-2.06492e-07,-2.5852e-06,-9.34903e-05,-7.3213e-05,-0.00312998,117.108,117.987,0.0840074,59.0083,118.101,116.994,0.0839751,117.467,213,4.29105,15.7297,0.415,5026
3.35239e-07,-3.12703e-07,-2.59514e-06,-0.000110177,-0.000122785,-0.00309673,115.112,114.547,0.409516,57.4877,115.385,114.274,0.409376,114.424,213,3.43235,16.9424,0.415,5027
3.43583e-07,-1.65291e-07,-2.58815e-06,-0.000114162,-5.972e-05,-0.00319676,94.8,96.6811,-0.0108621,48.3601,96.7093,94.7718,-0.0108872,95.7662,213,3.58023,15.1536,0.415,5028
4.60597e-07,-1.21496e-07,-2.59983e-06,-0.00017023,-4.5086e-05,-0.00311365,112.806,118.111,0.166625,58.9747,118.116,112.801,0.166479,115.384,213,2.82458,14.307,0.415,5029
4.97638e-07,-1.71067e-07,-2.60593e-06,-0.000182914,-5.99203e-05,-0.00303891,131.973,138.172,0.0595986,69.0691,138.198,131.948,0.0594685,135.122,213,2.53883,15.2374,0.415,5030
5.26232e-07,-2.28613e-07,-2.60832e-06,-0.000224854,-7.50655e-05,-0.00300548,128.599,136.124,0.496002,67.8152,136.125,128.598,0.495064,132.028,213,2.35292,16.0694,0.415,5031
4.66625e-07,-2.98632e-07,-2.6091e-06,-0.00018069,-0.000116936,-0.00307018,110.689,113.422,0.412643,56.5637,113.54,110.571,0.412621,111.672,213,2.54485,16.8295,0.415,5032
-1.44408e-07,5.51393e-08,-2.60516e-06,-5.72776e-05,-2.99426e-05,-0.00317814,120.429,121.583,0.140214,60.7253,121.591,120.421,0.140139,120.87,213,13.9175,8.28292,0.415,5033
-9.46274e-08,7.09236e-08,-2.60944e-06,-4.21636e-05,-3.53777e-05,-0.00312031,143.615,143.961,0.445338,71.7675,143.979,143.598,0.444306,143.345,213,12.9322,7.84028,0.415,5034
-1.33487e-07,3.19062e-08,-2.60471e-06,-5.50329e-05,-2.59377e-05,-0.00307946,157.36,158.977,-0.00401386,79.4918,158.98,157.358,-0.00406893,158.179,213,13.678,9.12264,0.415,5035
-6.58819e-08,4.5593e-08,-2.61094e-06,-3.62808e-05,-2.77691e-05,-0.00319014,121.802,122.163,0.0879658,61.0403,122.168,121.797,0.0879613,121.895,213,12.1686,8.66733,0.415,5036
-8.19137e-08,2.00542e-08,-2.61011e-06,-3.96775e-05,-2.61943e-05,-0.00319328,121.271,121.845,-0.569884,61.2078,121.845,121.271,-0.570107,122.129,213,12.5855,9.60702,0.415,5037
-1.1212e-07,8.27975e-09,-2.60744e-06,-4.97822e-05,-2.47885e-05,-0.0031867,120.844,121.905,-0.201815,61.0539,121.906,120.844,-0.20227,121.58,213,13.2568,10.0633,0.415,5038
-6.22515e-08,7.20258e-08,-2.61091e-06,-3.52842e-05,-3.55511e-05,-0.00319169,121.359,121.352,-0.547202,60.9762,121.404,121.308,-0.548567,121.905,213,12.0941,7.84128,0.415,5039
1.04079e-07,6.99034e-08,-2.60999e-06,-4.36128e-05,-3.50934e-05,-0.00313949,137.029,137.443,0.158672,68.6462,137.451,137.021,0.158619,137.078,213,6.95226,7.861,0.415,5040
1.46406e-07,5.4896e-08,-2.60714e-06,-5.7897e-05,-3.03768e-05,-0.00324314,98.1668,99.119,-0.232288,49.6772,99.122,98.1639,-0.232338,98.8787,213,6.13432,8.29232,0.415,5041
1.31846e-07,3.1413e-08,-2.60767e-06,-5.33865e-05,-2.65508e-05,-0.00318422,120.638,121.776,-0.0785014,60.9279,121.777,120.637,-0.0785374,121.29,213,6.42273,9.12454,0.415,5042
8.05369e-08,2.02092e-08,-2.61143e-06,-3.87845e-05,-2.64173e-05,-0.00313204,143.621,144.247,-0.492251,72.37,144.248,143.621,-0.492433,144.428,213,7.5367,9.57674,0.415,5043
6.08e-08,5.59415e-08,-2.61164e-06,-3.50884e-05,-3.03184e-05,-0.00318938,121.915,122.113,0.269851,60.9251,122.12,121.909,0.269295,121.745,213,8.06503,8.32364,0.415,5044
1.09909e-07,8.246e-09,-2.60973e-06,-4.80048e-05,-2.46831e-05,-0.0031881,121.009,121.999,-0.110075,61.0548,121.999,121.009,-0.110327,121.617,213,6.86617,10.0349,0.415,5045
6.51554e-08,8.35128e-08,-2.61085e-06,-3.61277e-05,-3.72317e-05,-0.00318652,121.59,121.543,0.0645119,60.773,121.61,121.523,0.0644269,121.502,213,7.92401,7.51832,0.415,5046
-1.25509e-07,-3.0777e-07,-2.60322e-06,-5.12541e-05,-0.000108986,-0.00313998,119.052,116.603,0.118811,59.481,119.081,116.574,0.118777,117.729,213,13.9459,16.747,0.415,5047
-1.31151e-07,-2.21484e-07,-2.59785e-06,-5.25098e-05,-7.74844e-05,-0.00315796,119.627,118.567,0.0400238,59.8149,119.67,118.524,0.0400138,119.061,213,13.9279,15.8265,0.415,5048
-9.06227e-08,-3.73677e-07,-2.61221e-06,-3.92063e-05,-0.000167594,-0.00311425,118.605,113.158,0.267948,59.1798,118.628,113.135,0.267916,115.711,213,13.2391,17.1761,0.415,5049
-6.82958e-08,-1.89209e-07,-2.60388e-06,-3.52305e-05,-6.9131e-05,-0.00316915,121.142,119.703,0.449078,60.3514,121.151,119.694,0.448608,119.981,213,12.4083,15.3183,0.415,5050
-5.77862e-08,-2.62638e-07,-2.60435e-06,-3.23542e-05,-8.84297e-05,-0.00309943,142.691,139.863,-0.100048,71.3991,142.698,139.856,-0.100077,141.399,213,12.1759,16.2382,0.415,5051
-9.93832e-08,-1.9673e-07,-2.60186e-06,-4.21515e-05,-7.10392e-05,-0.00312207,136.265,134.875,0.201248,68.0427,136.287,134.853,0.201241,135.374,213,13.2254,15.4588,0.415,5052
-7.71422e-08,-1.39653e-07,-2.60619e-06,-3.79689e-05,-5.13462e-05,-0.00322134,105.424,104.929,0.255244,52.5898,105.435,104.918,0.255142,104.922,213,12.5906,14.4991,0.415,5053
-3.80702e-08,-3.57894e-07,-2.61146e-06,-2.53828e-05,-0.00014712,-0.00313818,119.926,114.759,0.215592,59.8554,119.926,114.759,0.215452,117.213,213,11.5556,17.0378,0.415,5054
-6.24175e-08,-3.61834e-07,-2.61074e-06,-3.0364e-05,-0.000148158,-0.00319353,97.751,93.6723,0.305631,48.7294,97.7626,93.6627,0.303675,95.475,213,12.4227,17.0776,0.415,5055
-1.32065e-07,3.75121e-07,-2.58719e-06,-5.11707e-05,-0.000129562,-0.00305187,141.897,137.951,3.20483,69.3711,141.926,137.942,3.18415,136.794,213,13.9574,3.41985,0.415,5056
-1.32799e-07,5.02291e-07,-2.6038e-06,-5.08776e-05,-0.000166174,-0.0031457,115.333,110.379,-4.56421,59.9642,115.357,110.362,-4.57109,117.51,213,14.0061,2.54443,0.415,5057
-9.98727e-08,6.19362e-07,-2.60721e-06,-4.09097e-05,-0.000259387,-0.00310319,98.025,90.5129,5.65362,46.2542,98.0996,90.5008,5.59115,88.9528,213,13.328,2.09339,0.415,5058
-7.15859e-08,5.82476e-07,-2.61012e-06,-3.47809e-05,-0.000222207,-0.00311133,117.004,109.031,-1.01998,59.0143,117.008,109.028,-1.02094,114.248,213,12.5564,2.23548,0.415,5059
-4.78373e-08,5.22871e-07,-2.60706e-06,-2.87947e-05,-0.000197457,-0.0031746,96.3132,90.4913,-0.934475,48.6249,96.3145,90.4908,-0.935283,94.4727,213,11.8192,2.53724,0.415,5060
-6.76132e-08,4.17408e-07,-2.59844e-06,-3.47549e-05,-0.000141207,-0.00318202,103.343,99.4059,-0.752853,52.0491,103.345,99.4039,-0.752996,102.185,213,12.4311,3.14528,0.415,5061
-9.52439e-08,3.58675e-07,-2.59642e-06,-4.06666e-05,-0.000125131,-0.00321085,96.7704,93.853,-1.36683,49.0762,96.7789,93.8511,-1.3735,96.7218,213,13.1477,3.56493,0.415,5062
-6.76162e-08,3.26648e-07,-2.59736e-06,-3.52729e-05,-0.00011236,-0.00308956,141.585,137.699,-0.587002,71.0892,141.591,137.694,-0.587554,140.27,213,12.4105,3.86669,0.415,5063
1.31327e-07,-2.23139e-07,-2.59877e-06,-5.24649e-05,-8.18229e-05,-0.00321827,97.5541,96.5369,-0.175436,48.8726,97.5697,96.5214,-0.1755,97.2253,213,6.17242,15.8269,0.415,5064
1.26352e-07,-3.10968e-07,-2.60442e-06,-5.05431e-05,-0.00010478,-0.0030749,141.4,138.648,0.934504,70.2434,141.421,138.627,0.934293,139.111,213,6.15425,16.7472,0.415,5065
9.1979e-08,-3.78264e-07,-2.61173e-06,-3.92907e-05,-0.000166346,-0.00318584,96.8829,92.4633,0.130047,48.3848,96.8987,92.4485,0.129025,94.6231,213,6.86105,17.1764,0.415,5066
5.7398e-08,-2.63974e-07,-2.60327e-06,-3.27056e-05,-9.15835e-05,-0.00326543,83.7948,82.0605,-0.00241664,41.9014,83.8,82.0558,-0.00287324,82.9445,213,7.92452,16.2387,0.415,5067
6.77079e-08,-1.88366e-07,-2.60238e-06,-3.51939e-05,-7.05788e-05,-0.00310772,143.115,141.335,0.226176,71.4516,143.129,141.322,0.225667,142.008,213,7.69362,15.3203,0.415,5068
7.64989e-08,-1.38445e-07,-2.6049e-06,-3.83543e-05,-5.06369e-05,-0.00307122,158.389,157.702,0.642828,78.8846,158.412,157.68,0.64236,157.405,213,7.51139,14.5009,0.415,5069
9.96842e-08,-1.95333e-07,-2.60227e-06,-4.3363e-05,-7.27616e-05,-0.00316229,120.637,119.374,0.620124,60.0129,120.646,119.365,0.61993,119.391,213,6.87501,15.4591,0.415,5070
6.25597e-08,-3.62586e-07,-2.61229e-06,-3.31088e-05,-0.000143581,-0.00308123,140.772,135.201,-0.885198,70.8415,140.791,135.19,-0.892341,138.967,213,7.67742,17.0778,0.415,5071
3.74567e-08,-3.59225e-07,-2.61185e-06,-2.56641e-05,-0.000142185,-0.00313345,120.307,115.363,0.766139,59.7709,120.308,115.362,0.766134,117.147,213,8.5447,17.0381,0.415,5072
1.27681e-07,4.78298e-07,-2.59861e-06,-5.00758e-05,-0.000162679,-0.00305397,139.27,133.596,-0.311778,69.795,139.278,133.588,-0.311863,136.834,213,6.20229,2.69494,0.415,5073
1.28678e-07,3.47054e-07,-2.59105e-06,-5.09074e-05,-0.000117234,-0.00319976,97.2212,94.9176,0.252549,48.4874,97.2274,94.9114,0.252544,95.8378,213,6.23128,3.63012,0.415,5074
9.60248e-08,5.74534e-07,-2.61146e-06,-4.11566e-05,-0.00023716,-0.00307376,118.025,109.705,2.34,57.8545,118.039,109.701,2.33009,111.773,213,6.90532,2.26172,0.415,5075
6.7054e-08,5.50821e-07,-2.61473e-06,-3.29607e-05,-0.000218527,-0.00309471,117.496,109.612,-0.5434,59.0213,117.499,109.609,-0.54375,114.302,213,7.67903,2.37722,0.415,5076
5.77811e-08,4.16629e-07,-2.6008e-06,-3.29498e-05,-0.00013551,-0.00313337,119.797,115.403,0.449106,59.6759,119.8,115.402,0.447804,117.215,213,7.95466,3.13353,0.415,5077
4.16142e-08,5.49695e-07,-2.61367e-06,-2.8338e-05,-0.000216636,-0.00310261,117.623,109.631,-0.885779,59.2545,117.623,109.631,-0.885923,114.722,213,8.49059,2.39253,0.415,5078
9.39607e-08,3.02793e-07,-2.59633e-06,-4.07518e-05,-0.000103309,-0.00315319,119.541,116.886,-0.483983,60.0159,119.548,116.88,-0.484212,118.72,213,7.00447,4.06644,0.415,5079
6.50882e-08,3.29593e-07,-2.59762e-06,-3.48731e-05,-0.000110817,-0.00314714,120.276,117.051,0.512645,59.8835,120.279,117.048,0.512464,118.184,213,7.75864,3.8439,0.415,5080
7.15836e-08,2.37783e-07,-2.59981e-06,-3.6713e-05,-8.109e-05,-0.00315989,120.81,118.917,0.515392,60.1505,120.816,118.911,0.515292,119.36,213,7.62002,4.79212,0.415,5081
4.54499e-08,-9.07236e-08,-2.60963e-06,-3.04894e-05,-4.00838e-05,-0.00318921,121.741,121.334,-0.219511,60.9823,121.745,121.33,-0.219595,121.758,213,8.49077,13.4101,0.415,5082
1.99571e-08,-7.25693e-08,-2.61108e-06,-2.88162e-05,-3.54292e-05,-0.0031915,122.073,121.796,0.0113075,61.0309,122.073,121.796,0.0112267,121.924,213,9.352,12.9121,0.415,5083
7.05893e-08,-6.08763e-08,-2.61109e-06,-3.77117e-05,-3.14105e-05,-0.00329224,84.521,84.7066,0.0440151,42.333,84.7099,84.5177,0.0439655,84.57,213,7.77636,12.5912,0.415,5084
7.48288e-08,-9.47758e-08,-2.60879e-06,-3.73421e-05,-4.0613e-05,-0.00318393,121.383,121.245,-0.036917,60.7295,121.422,121.206,-0.0370155,121.351,213,7.61559,13.5431,0.415,5085
2.00678e-08,-4.27896e-08,-2.61217e-06,-2.95287e-05,-2.89814e-05,-0.00319486,122.154,122.178,-0.0210942,61.0996,122.178,122.154,-0.0211093,122.187,213,9.35127,11.988,0.415,5086
5.22856e-08,-2.82136e-08,-2.61226e-06,-3.26506e-05,-2.73086e-05,-0.00313141,144.378,144.65,0.102376,72.276,144.654,144.374,0.102212,144.412,213,8.31584,11.4727,0.415,5087
8.4235e-08,-3.13643e-08,-2.61162e-06,-3.95106e-05,-2.77579e-05,-0.00312816,143.814,144.407,0.0435164,72.1824,144.408,143.813,0.0435146,144.068,213,7.44066,11.6056,0.415,5088
-8.84863e-11,-5.64898e-08,-2.6118e-06,-2.82634e-05,-3.25225e-05,-0.00313107,144.588,144.375,0.117683,72.2357,144.589,144.374,0.117668,144.364,213,10.0517,12.4419,0.415,5089
-1.98648e-08,-7.20741e-08,-2.61112e-06,-2.89428e-05,-3.55834e-05,-0.00319239,121.979,121.699,-0.149518,61.0656,121.982,121.697,-0.14965,121.989,213,10.7555,12.902,0.415,5090
-4.52691e-08,-9.01826e-08,-2.61002e-06,-3.10111e-05,-4.05563e-05,-0.00318848,121.764,121.358,-0.0946512,60.931,121.767,121.355,-0.0946849,121.656,213,11.6161,13.3983,0.415,5091
-7.56999e-08,-9.49943e-08,-2.60926e-06,-3.81392e-05,-4.13888e-05,-0.00312328,143.412,143.249,-0.242189,71.8405,143.439,143.222,-0.242226,143.573,213,12.5003,13.5351,0.415,5092
-7.12331e-08,-5.99858e-08,-2.61089e-06,-3.77494e-05,-3.17225e-05,-0.00308501,158.745,159.079,0.172818,79.4572,159.087,158.737,0.172817,158.739,213,12.3429,12.5749,0.415,5093
-5.34e-08,-2.83751e-08,-2.61185e-06,-3.29663e-05,-2.71854e-05,-0.00323625,106.183,106.396,0.283333,53.0585,106.399,106.181,0.282274,106.008,213,11.8115,11.4929,0.415,5094
-2.05413e-08,-4.2046e-08,-2.61216e-06,-2.93035e-05,-2.88378e-05,-0.00319493,122.157,122.177,-0.048978,61.1175,122.186,122.148,-0.0490393,122.216,213,10.7548,11.978,0.415,5095
-8.61951e-08,-3.1757e-08,-2.61052e-06,-4.00273e-05,-2.78679e-05,-0.00318743,121.674,122.19,0.311354,60.9401,122.191,121.673,0.311263,121.622,213,12.6957,11.6297,0.415,5096
-5.18399e-07,6.10126e-08,-2.627e-06,-0.00018605,-3.17567e-05,-0.00310461,116.213,122.774,8.10928,57.5819,123.024,116.212,7.86047,111.913,213,17.6522,7.9677,0.415,5097
-6.11673e-07,9.81114e-08,-2.61613e-06,-0.000264516,-3.89431e-05,-0.0030354,120.313,131.167,-0.731603,65.9543,131.177,120.304,-0.732057,126.822,213,18.0216,6.94083,0.415,5098
-3.84797e-07,7.47816e-08,-2.61378e-06,-0.000129911,-3.48175e-05,-0.00316128,114.388,118.413,-2.26197,60.3478,118.428,114.378,-2.26702,118.722,213,16.8419,7.58224,0.415,5099
-5.51074e-07,1.37196e-07,-2.61206e-06,-0.00020827,-5.13095e-05,-0.00309956,109.57,116.232,-1.06366,58.6504,116.235,109.57,-1.06602,114.114,213,17.7779,6.02355,0.415,5100
-3.74343e-07,1.36713e-07,-2.59707e-06,-0.000132052,-4.94726e-05,-0.00306759,136.356,140.538,0.48466,70.0267,140.538,136.356,0.484599,138.01,213,16.7365,6.11038,0.415,5101
-3.47072e-07,1.05149e-07,-2.60215e-06,-0.00011823,-4.19868e-05,-0.00307662,137.898,141.732,0.970115,70.3829,141.734,137.898,0.968285,138.887,213,16.5241,6.80662,0.415,5102
-3.04411e-07,8.08548e-08,-2.60146e-06,-9.76022e-05,-3.67668e-05,-0.00320896,101.576,103.828,-1.21878,52.5322,103.844,101.562,-1.2204,103.942,213,16.1271,7.4449,0.415,5103
-3.82011e-07,-8.52541e-08,-2.59967e-06,-0.0001353,-3.48309e-05,-0.00313369,115.347,119.56,0.191335,59.6854,119.562,115.345,0.191234,117.319,213,16.7365,13.3896,0.415,5104
-5.62246e-07,-8.61801e-08,-2.60514e-06,-0.00020275,-3.69161e-05,-0.00305694,130.739,139.095,-0.487306,69.7924,139.098,130.736,-0.487314,135.598,213,17.7779,13.4764,0.415,5105
-6.32235e-07,-5.95604e-08,-2.61469e-06,-0.000273871,-3.24742e-05,-0.00305735,108.047,118.289,3.34641,57.4967,118.315,108.046,3.32149,110.218,213,18.0718,12.6204,0.415,5106
-3.27836e-07,-5.06284e-08,-2.60494e-06,-0.000109789,-2.94042e-05,-0.00315198,117.028,120.444,0.12006,60.1621,120.444,117.028,0.11994,118.653,213,16.3217,12.3238,0.415,5107
-5.76223e-07,-3.65143e-08,-2.62557e-06,-0.00023127,-2.75169e-05,-0.00308378,110.977,119.634,3.49601,58.0954,119.664,110.97,3.4729,112.097,213,17.9033,11.8384,0.415,5108
-5.28706e-07,-1.73281e-08,-2.62808e-06,-0.000195738,-2.32766e-05,-0.00307894,115.541,122.86,7.63085,57.7828,123.028,115.541,7.46259,112.01,213,17.6958,11.0862,0.415,5109
-4.15007e-07,-3.566e-08,-2.61792e-06,-0.000136569,-2.64761e-05,-0.00309185,136.478,142.023,0.175947,70.9253,142.027,136.474,0.175906,139.158,213,17.0315,11.8039,0.415,5110
-3.12037e-07,-3.012e-08,-2.60106e-06,-9.71529e-05,-2.50274e-05,-0.00322578,96.4689,98.9731,0.30944,49.343,98.9953,96.4468,0.309382,97.4366,213,16.1142,11.5717,0.415,5111
5.3134e-07,-2.80312e-08,-2.61816e-06,-0.000181202,-2.51898e-05,-0.00315351,112.205,118.827,-0.47482,59.6519,118.829,112.203,-0.474989,116.133,213,2.43966,11.4968,0.415,5112
6.18763e-07,-5.74453e-08,-2.616e-06,-0.000265947,-3.01924e-05,-0.00306806,107.222,117.212,0.687102,58.2658,117.218,107.218,0.685946,111.867,213,2.07677,12.5302,0.415,5113
4.12713e-07,-3.62769e-08,-2.60271e-06,-0.000137243,-2.60489e-05,-0.00309226,136.808,142.42,0.916439,70.7547,142.424,136.805,0.915051,138.785,213,3.17048,11.829,0.415,5114
5.57306e-07,-8.66291e-08,-2.60868e-06,-0.000203694,-3.76571e-05,-0.00316547,90.6882,96.4342,0.367629,48.0352,96.4366,90.6873,0.36621,93.3286,213,2.32211,13.4522,0.415,5115
3.82851e-07,-8.35555e-08,-2.59763e-06,-0.000129413,-3.58466e-05,-0.00307538,136.701,141.393,-0.0273615,70.7109,141.394,136.7,-0.0273639,139.134,213,3.36351,13.3684,0.415,5116
3.30847e-07,-5.08945e-08,-2.59879e-06,-0.000112117,-2.90659e-05,-0.00315445,116.929,120.455,0.198263,60.129,120.456,116.928,0.198245,118.533,213,3.81989,12.3586,0.415,5117
3.00658e-07,-3.20093e-08,-2.59686e-06,-0.000100761,-2.57522e-05,-0.00325806,81.6551,83.8616,-0.194881,42.0295,83.8639,81.6529,-0.194989,82.9755,213,4.12933,11.674,0.415,5118
3.79688e-07,1.37149e-07,-2.59346e-06,-0.000128662,-5.05047e-05,-0.00318787,94.2541,96.9435,0.0660199,48.4422,96.9503,94.2473,0.0659299,95.5616,213,3.33592,6.08393,0.415,5119
5.48781e-07,1.40098e-07,-2.61237e-06,-0.000203177,-5.28491e-05,-0.00303144,130.709,138.242,0.136849,69.053,138.242,130.709,0.136426,134.498,213,2.30616,5.98443,0.415,5120
6.31724e-07,1.00813e-07,-2.61504e-06,-0.000275439,-3.9657e-05,-0.00309955,92.3497,101.029,0.271665,50.3804,101.032,92.3471,0.271175,96.7113,213,2.00133,6.848,0.415,5121
3.59469e-07,1.0391e-07,-2.59682e-06,-0.000121424,-4.15336e-05,-0.00314442,116.075,119.465,0.233058,59.6179,119.469,116.072,0.232786,117.574,213,3.52036,6.81668,0.415,5122
5.88636e-07,7.25774e-08,-2.62322e-06,-0.000235136,-3.39426e-05,-0.00303333,128.807,138.944,0.337979,69.3037,138.945,128.807,0.337274,133.827,213,2.16315,7.62839,0.415,5123
5.32908e-07,4.99849e-08,-2.62282e-06,-0.000203064,-2.81616e-05,-0.00312128,111.414,118.833,0.847776,58.9942,118.835,111.414,0.846395,114.458,213,2.42248,8.35573,0.415,5124
4.207e-07,7.2808e-08,-2.60676e-06,-0.000139301,-3.34076e-05,-0.00327288,79.694,82.7537,-0.598789,41.6777,82.7565,79.6912,-0.59879,81.8657,213,3.0652,7.61839,0.415,5125
3.31893e-07,7.66765e-08,-2.5972e-06,-0.000110687,-3.53151e-05,-0.0030997,137.512,141.309,-1.19586,71.2576,141.319,137.502,-1.19621,140.646,213,3.7797,7.54402,0.415,5126
-5.60219e-08,1.04935e-07,-2.6105e-06,-3.43649e-05,-4.21377e-05,-0.00328849,84.4959,84.2677,0.0260523,42.2365,84.4991,84.2645,0.0260476,84.356,213,11.9434,7.00167,0.415,5127
-3.83641e-08,1.45479e-07,-2.60906e-06,-2.94066e-05,-5.55291e-05,-0.00311917,143.814,142.501,-0.0380887,71.9269,143.816,142.499,-0.0380962,143.2,213,11.4022,6.17973,0.415,5128
-9.39193e-09,1.31595e-07,-2.60937e-06,-2.77101e-05,-5.14191e-05,-0.00324553,99.5015,98.6824,0.010368,49.7456,99.5016,98.6824,0.0103448,99.0842,213,10.389,6.45497,0.415,5129
8.18398e-10,8.5431e-08,-2.61118e-06,-2.86953e-05,-3.78442e-05,-0.00319176,121.948,121.556,-0.140685,61.0447,121.949,121.556,-0.140841,121.893,213,10.0329,7.48503,0.415,5130
-3.28361e-08,7.30653e-08,-2.61136e-06,-2.94306e-05,-3.54858e-05,-0.00312841,144.46,144.159,0.199675,72.1325,144.465,144.154,0.199653,144.11,213,11.1798,7.82872,0.415,5131
1.86081e-08,1.07622e-07,-2.60991e-06,-2.81879e-05,-4.54359e-05,-0.00318766,121.817,121.088,-0.12536,60.9715,121.818,121.087,-0.125419,121.58,213,9.39286,6.9509,0.415,5132
7.95108e-08,1.20409e-07,-2.60903e-06,-3.88259e-05,-4.77581e-05,-0.00318017,121.106,120.726,-0.0826268,60.6006,121.118,120.714,-0.0827044,120.999,213,7.50597,6.63641,0.415,5133
4.15512e-08,1.00494e-07,-2.61027e-06,-3.05597e-05,-4.31435e-05,-0.00324866,99.442,99.0084,-0.104068,49.7742,99.4443,99.0061,-0.104077,99.33,213,8.61874,7.09905,0.415,5134
3.00191e-08,1.52308e-07,-2.60643e-06,-2.94238e-05,-5.68315e-05,-0.003115,144.03,142.647,0.441374,71.795,144.031,142.646,0.441369,142.902,213,8.97481,6.06899,0.415,5135
4.9806e-08,1.94291e-07,-2.60333e-06,-3.10852e-05,-7.01408e-05,-0.00323931,98.4264,97.0802,-1.05387,49.7418,98.4293,97.0777,-1.05423,98.8146,213,8.28744,5.39336,0.415,5136
7.65436e-08,1.77849e-07,-2.60523e-06,-3.80564e-05,-6.48496e-05,-0.00310652,143.149,141.799,0.422774,71.3672,143.157,141.791,0.422692,142.056,213,7.53327,5.61591,0.415,5137
9.68987e-08,-1.03848e-08,-2.61095e-06,-4.43054e-05,-2.40217e-05,-0.00318946,121.292,122.153,-0.0538129,61.1036,122.153,121.292,-0.0538211,121.779,213,7.14565,10.7975,0.415,5138
1.54418e-07,7.14661e-10,-2.60555e-06,-5.88129e-05,-2.42107e-05,-0.00318215,120.348,121.82,-0.0505852,60.9353,121.82,120.348,-0.050616,121.141,213,6.03167,10.3453,0.415,5139
1.21139e-07,-3.92751e-08,-2.60982e-06,-4.99651e-05,-2.84685e-05,-0.00318469,120.889,121.803,0.067081,60.8694,121.806,120.886,0.0670597,121.282,213,6.60617,11.916,0.415,5140
1.84077e-07,-3.14455e-08,-2.60502e-06,-6.75635e-05,-2.6241e-05,-0.00317504,119.854,121.608,0.163116,60.7232,121.609,119.853,0.162936,120.578,213,5.54494,11.6557,0.415,5141
1.80309e-07,-1.35479e-08,-2.60357e-06,-6.73245e-05,-2.40056e-05,-0.00312199,141.226,143.405,-1.02206,72.2137,143.405,141.226,-1.02208,143.35,213,5.61749,10.9361,0.415,5142
2.35662e-07,-2.70656e-08,-2.59882e-06,-8.07509e-05,-2.57021e-05,-0.00316692,119.034,121.377,0.21962,60.5795,121.379,119.032,0.219586,120.003,213,4.85128,11.484,0.415,5143
-1.58619e-07,1.44538e-09,-2.60168e-06,-6.16423e-05,-2.43525e-05,-0.00318083,120.06,121.638,-0.270432,60.9542,121.638,120.06,-0.270435,121.127,213,14.0966,10.3378,0.415,5144
-9.97245e-08,-1.05255e-08,-2.60918e-06,-4.56932e-05,-2.45128e-05,-0.00329168,84.1416,84.7624,-0.201628,42.4825,84.7633,84.1407,-0.201633,84.6554,213,13.0042,10.8222,0.415,5145
-1.2359e-07,-3.88776e-08,-2.60833e-06,-5.04167e-05,-2.86617e-05,-0.00313917,136.634,137.679,0.0316601,68.8262,137.684,136.629,0.0315637,137.128,213,13.5355,11.9042,0.415,5146
-1.89033e-07,-2.99258e-08,-2.60307e-06,-6.84271e-05,-2.62053e-05,-0.00317159,120.093,121.885,0.726251,60.5827,121.891,120.088,0.725666,120.274,213,14.6242,11.5941,0.415,5147
-2.40845e-07,-2.5906e-08,-2.59688e-06,-8.0912e-05,-2.54328e-05,-0.00316623,119.233,121.589,0.591754,60.5035,121.598,119.224,0.591173,119.838,213,15.2968,11.4148,0.415,5148
-1.85048e-07,-1.28793e-08,-2.59994e-06,-6.9384e-05,-2.4509e-05,-0.00318302,119.032,120.936,-1.25525,61.0974,120.939,119.029,-1.2556,121.251,213,14.5166,10.9174,0.415,5149
-2.22169e-06,-7.28108e-08,-2.32473e-06,-0.00158956,-2.82029e-05,-0.00277445,3.0743,7.73507,-0.462684,4.85456,8.49106,3.07368,-1.21806,8.42716,213,20.2,12.675,0.45,5150
-2.23612e-06,4.52682e-08,-2.29896e-06,-0.00143991,-3.29842e-05,-0.00274606,4.07056,8.27033,0.171597,5.11941,9.34075,4.06979,-0.898061,8.86837,213,20.2,8.775,0.45,5151
-2.23023e-06,2.36668e-07,-2.27191e-06,-0.00151889,-8.70928e-05,-0.0026628,3.67673,7.95075,0.26207,4.89527,9.00168,3.67673,-0.78886,8.48973,213,20.2,4.875,0.45,5152
-2.14114e-06,4.40272e-07,-2.23334e-06,-0.00150914,-0.000148368,-0.00268062,3.4859,7.5479,-0.011061,4.40406,8.1723,3.48626,-0.635817,7.63326,213,20.2,2.925,0.45,5153
-2.07074e-06,9.56763e-07,-2.17324e-06,-0.00181237,-0.000622173,-0.00223877,1.51764,5.07047,0.244792,3.42711,6.05752,1.57207,-0.796695,6.02954,213,20.2,0.975,0.45,5154
-2.26036e-06,-1.66196e-07,-2.25179e-06,-0.00153884,-7.11408e-05,-0.00268335,3.53935,7.92052,0.122882,4.71762,8.73929,3.53941,-0.695945,8.18537,213,20.2,14.625,0.45,5155
-2.21756e-06,1.17299e-07,-2.32338e-06,-0.0016041,-3.91848e-05,-0.0027806,2.93048,7.60186,-0.58146,4.79957,8.30989,2.93025,-1.28926,8.33332,213,20.2,6.825,0.45,5156
-2.23526e-06,-1.35096e-08,-2.30302e-06,-0.00139265,-3.1348e-05,-0.00274774,4.36138,8.42495,0.316305,5.13604,9.50709,4.36053,-0.764987,8.89589,213,20.2,10.725,0.45,5157
-2.19685e-06,-3.37056e-07,-2.25055e-06,-0.00162951,-0.000126295,-0.00257033,3.16461,7.65182,0.356183,4.68313,8.68595,3.16697,-0.680312,8.15438,213,20.2,16.575,0.45,5158
-2.04976e-06,-7.77103e-07,-2.24424e-06,-0.00182205,-0.000588252,-0.00224348,1.55069,5.23368,0.292707,3.55417,6.28668,1.61207,-0.82167,6.25714,213,20.2,18.525,0.45,5159
-1.94292e-06,1.30632e-06,-2.02801e-06,-0.00172984,-0.000871961,-0.00206258,1.79233,4.35317,0.799085,3.39588,5.76918,2.19797,-1.02257,5.88444,213,20.2,0.4875,0.4325,5160
-2.02502e-06,1.3506e-06,-2.10004e-06,-0.00181445,-0.000937399,-0.00207695,1.0183,3.63636,0.234702,2.88166,4.59749,1.45771,-1.16584,4.99785,213,20.2,0.4875,0.4675,5161
-2.14328e-06,7.2723e-07,-2.28471e-06,-0.00187543,-0.00034336,-0.00241731,1.44742,6.02078,-0.170108,3.84099,6.76406,1.45195,-0.917912,6.8135,213,20.2,1.4625,0.4675,5162
-1.96931e-06,-1.15263e-06,-2.24647e-06,-0.00183677,-0.000905665,-0.00205404,1.05418,3.8336,0.405632,3.01062,4.90885,1.49696,-1.1124,5.22997,213,20.2,19.0125,0.4675,5163
-1.88764e-06,-1.1121e-06,-2.17455e-06,-0.00175146,-0.000842459,-0.00210879,1.60622,4.31966,0.539567,3.48191,5.66589,2.09749,-1.29793,6.03147,213,20.2,19.0125,0.4325,5164
-2.14034e-06,-5.64266e-07,-2.31007e-06,-0.00187617,-0.00030362,-0.00244038,1.49575,6.18992,-0.188473,3.90331,6.90226,1.49929,-0.904353,6.92506,213,20.2,18.0375,0.4675,5165
-2.05151e-06,7.16503e-07,-2.20033e-06,-0.00178328,-0.000338478,-0.00237965,2.14972,6.46256,0.369525,4.26814,7.68132,2.15544,-0.85496,7.49886,213,20.2,1.4625,0.4325,5166
-2.05309e-06,-5.56623e-07,-2.22477e-06,-0.00178545,-0.000299698,-0.0024023,2.18753,6.6226,0.346178,4.28467,7.76739,2.19088,-0.801956,7.53287,213,20.2,18.0375,0.4325,5167
-2.15845e-06,5.23722e-07,-2.29243e-06,-0.00153179,-0.00019131,-0.00262621,3.38285,7.38427,0.115912,4.2922,8.03952,3.38839,-0.544877,7.44296,213,20.2,2.4375,0.4675,5168
-2.20119e-06,3.74508e-07,-2.28464e-06,-0.00158626,-0.000115503,-0.00270473,3.03884,7.42916,-0.299889,4.51177,8.07703,3.03758,-0.946504,7.83241,213,20.2,3.4125,0.4675,5169
-2.06976e-06,6.24688e-07,-2.27202e-06,-0.00156479,-0.000172406,-0.0025893,3.35669,7.51305,0.298437,4.70605,8.60807,3.36413,-0.804024,8.16884,213,20.2,1.95,0.45,5170
-2.06574e-06,5.20867e-07,-2.20057e-06,-0.00143847,-0.000186091,-0.00263248,3.95401,7.69246,0.389797,4.90401,8.94322,3.95786,-0.864809,8.49439,213,20.2,2.4375,0.4325,5171
-2.24373e-06,2.80792e-07,-2.31051e-06,-0.00155542,-9.19752e-05,-0.00265676,3.4555,7.824,0.167935,4.73192,8.72857,3.45413,-0.735273,8.21387,213,20.2,4.3875,0.4675,5172
-2.26974e-06,1.95854e-07,-2.33076e-06,-0.00154582,-8.235e-05,-0.00265352,3.55541,7.92398,0.248856,4.74219,8.82906,3.5545,-0.65532,8.23095,213,20.2,5.3625,0.4675,5173
-2.13636e-06,3.25847e-07,-2.26071e-06,-0.00151949,-9.18224e-05,-0.00264219,3.72339,7.9851,0.372072,4.86098,9.03951,3.72352,-0.682463,8.43176,213,20.2,3.9,0.45,5174
-2.15324e-06,2.79548e-07,-2.21763e-06,-0.00148309,-9.09957e-05,-0.0026544,3.91141,8.06691,0.414959,5.05461,9.29629,3.90991,-0.812922,8.76112,213,20.2,4.3875,0.4325,5175
-2.11428e-06,3.7323e-07,-2.1918e-06,-0.00149555,-0.000116838,-0.0026132,3.88337,7.99894,0.547102,4.69575,8.96848,3.88395,-0.423017,8.14256,213,20.2,3.4125,0.4325,5176
-2.25562e-06,1.37025e-07,-2.36063e-06,-0.00166661,-4.00307e-05,-0.00271463,2.75216,7.60761,-0.376266,4.75699,8.37269,2.75211,-1.14129,8.28448,213,20.2,6.3375,0.4675,5177
-2.23867e-06,9.8324e-08,-2.37954e-06,-0.00160657,-3.92572e-05,-0.00278538,2.89987,7.57841,-0.618963,4.67558,8.15618,2.89811,-1.19498,8.11926,213,20.2,7.3125,0.4675,5178
-2.17974e-06,1.94755e-07,-2.23812e-06,-0.00147348,-8.29081e-05,-0.002649,4.01334,8.16431,0.504336,5.0685,9.40328,4.01241,-0.733709,8.78481,213,20.2,5.3625,0.4325,5179
-2.18888e-06,1.56053e-07,-2.30143e-06,-0.00155674,-6.08118e-05,-0.00263354,3.61983,8.08529,0.405495,4.91292,9.15883,3.61879,-0.667005,8.5325,213,20.2,5.85,0.45,5180
-2.16949e-06,1.36154e-07,-2.2664e-06,-0.00158832,-3.93586e-05,-0.0027404,3.15452,7.77829,-0.284532,4.91606,8.66309,3.15421,-1.16903,8.53548,213,20.2,6.3375,0.4325,5181
-2.24724e-06,6.15894e-08,-2.36243e-06,-0.00145167,-3.5134e-05,-0.00275602,3.95975,8.18821,0.0661673,4.90445,9.03283,3.95736,-0.776067,8.49648,213,20.2,8.2875,0.4675,5182
-2.29357e-06,2.96827e-08,-2.33881e-06,-0.0014751,-3.0542e-05,-0.00275637,3.82894,8.14104,0.0042364,4.97264,9.04531,3.82887,-0.899963,8.61631,213,20.2,9.2625,0.4675,5183
-2.15859e-06,7.95176e-08,-2.33636e-06,-0.00144072,-3.65375e-05,-0.00274533,4.05659,8.24818,0.162239,5.01562,9.22094,4.05638,-0.810303,8.68859,213,20.2,7.8,0.45,5184
-2.15933e-06,6.19952e-08,-2.26631e-06,-0.00139183,-3.50279e-05,-0.00273497,4.39523,8.44538,0.385847,5.27383,9.69054,4.39304,-0.857125,9.13458,213,20.2,8.2875,0.4325,5185
-2.15556e-06,9.81912e-08,-2.28265e-06,-0.00152269,-3.84236e-05,-0.00276397,3.4868,7.91745,-0.218516,5.11863,8.96908,3.48484,-1.26819,8.87327,213,20.2,7.3125,0.4325,5186
-2.29346e-06,1.46447e-09,-2.34064e-06,-0.00143727,-2.91842e-05,-0.00275212,4.07963,8.28286,0.154687,4.97316,9.19198,4.07954,-0.754344,8.6149,213,20.2,10.2375,0.4675,5187
-2.24569e-06,-2.88623e-08,-2.36909e-06,-0.0014115,-3.31813e-05,-0.00275609,4.213,8.32739,0.199294,4.93583,9.20043,4.21049,-0.671235,8.54928,213,20.2,11.2125,0.4675,5188
-2.20377e-06,2.97123e-08,-2.24264e-06,-0.00141397,-3.10774e-05,-0.00273916,4.25817,8.3862,0.302371,5.30156,9.64589,4.25809,-0.957242,9.18298,213,20.2,9.2625,0.4325,5189
-2.24796e-06,1.52194e-08,-2.28927e-06,-0.00143849,-2.76425e-05,-0.00274987,4.08412,8.29561,0.169551,5.13228,9.36495,4.08393,-0.899601,8.89061,213,20.2,9.75,0.45,5190
-2.20334e-06,1.19055e-09,-2.24447e-06,-0.00136011,-2.96967e-05,-0.00274467,4.57667,8.54806,0.443668,5.31937,9.81528,4.57658,-0.82346,9.21377,213,20.2,10.2375,0.4325,5191
-2.23841e-06,-5.93714e-08,-2.38966e-06,-0.00159944,-2.88396e-05,-0.00277805,3.00006,7.6884,-0.518199,4.83064,8.41666,2.99822,-1.24461,8.38753,213,20.2,12.1875,0.4675,5192
-2.26871e-06,-8.72507e-08,-2.34407e-06,-0.00163913,-2.85945e-05,-0.00273811,2.88311,7.69069,-0.397426,4.68498,8.33135,2.88363,-1.0386,8.15039,213,20.2,13.1625,0.4675,5193
-2.15524e-06,-4.58274e-08,-2.34591e-06,-0.00142294,-3.19809e-05,-0.00275402,4.15297,8.30508,0.179588,5.09063,9.3336,4.15169,-0.84766,8.81771,213,20.2,11.7,0.45,5194
-2.15305e-06,-5.90014e-08,-2.29289e-06,-0.00152246,-2.68948e-05,-0.00277307,3.49592,7.9603,-0.23725,5.04689,8.90962,3.49352,-1.18417,8.74926,213,20.2,12.1875,0.4325,5195
-2.157e-06,-2.9458e-08,-2.27277e-06,-0.00133585,-3.30875e-05,-0.00274485,4.71473,8.60357,0.508773,5.32722,9.88463,4.71224,-0.769807,9.22832,213,20.2,11.2125,0.4325,5196
-2.30041e-06,-1.32803e-07,-2.2958e-06,-0.0015789,-6.63423e-05,-0.00265893,3.38532,7.90043,0.161349,4.79512,8.82624,3.38485,-0.76399,8.33049,213,20.2,14.1375,0.4675,5197
-2.26916e-06,-2.01987e-07,-2.31078e-06,-0.00157422,-7.55498e-05,-0.00267979,3.31884,7.79247,0.0186271,4.54076,8.4474,3.31666,-0.634117,7.88692,213,20.2,15.1125,0.4675,5198
-2.18096e-06,-8.61829e-08,-2.24907e-06,-0.0015495,-2.88691e-05,-0.00272131,3.48735,8.02655,-0.010595,5.15697,9.16459,3.48807,-1.14935,8.94722,213,20.2,13.1625,0.4325,5199
-2.21319e-06,-1.00824e-07,-2.25656e-06,-0.00155014,-4.83477e-05,-0.00266166,3.61084,8.09381,0.292887,4.95892,9.15261,3.61016,-0.765234,8.60891,213,20.2,13.65,0.45,5200
-2.20827e-06,-1.32294e-07,-2.20264e-06,-0.00149308,-6.77219e-05,-0.00269585,3.79222,8.04704,0.201875,4.82025,8.9453,3.79103,-0.695196,8.3556,213,20.2,14.1375,0.4325,5201
-2.24076e-06,-2.82622e-07,-2.30572e-06,-0.00165877,-0.00010128,-0.00261237,2.93049,7.5797,0.0839107,4.53007,8.36327,2.92769,-0.696866,7.89839,213,20.2,16.0875,0.4675,5202
-2.2e-06,-4.05702e-07,-2.3026e-06,-0.00167557,-0.000150441,-0.00259401,2.72936,7.28199,-0.0122345,4.40664,8.04061,2.73116,-0.772659,7.68573,213,20.2,17.0625,0.4675,5203
-2.17999e-06,-2.01538e-07,-2.21752e-06,-0.00149043,-7.427e-05,-0.00266532,3.88462,8.11197,0.377488,5.06279,9.3088,3.88207,-0.816787,8.77656,213,20.2,15.1125,0.4325,5204
-2.15371e-06,-2.39168e-07,-2.2864e-06,-0.00153768,-7.83126e-05,-0.00265959,3.59908,7.9554,0.250111,4.81465,8.91745,3.59898,-0.711841,8.35442,213,20.2,15.6,0.45,5205
-2.14799e-06,-2.8103e-07,-2.21479e-06,-0.00156259,-9.96083e-05,-0.00257744,3.63872,8.00583,0.609323,5.06946,9.3777,3.63739,-0.761217,8.80615,213,20.2,16.0875,0.4325,5206
-2.10897e-06,-4.02875e-07,-2.2119e-06,-0.00157615,-0.000150246,-0.00257165,3.41297,7.66942,0.44135,4.93276,8.98642,3.4164,-0.879088,8.56752,213,20.2,17.0625,0.4325,5207
-2.07419e-06,-4.83115e-07,-2.28033e-06,-0.0015458,-0.000145622,-0.00263924,3.40012,7.57976,0.136124,4.5861,8.44262,3.40297,-0.729585,7.9563,213,20.2,17.55,0.45,5208
3.78401e-07,-1.74905e-06,-2.51176e-06,-0.000154961,-0.00142128,-0.0027205,7.6595,3.87944,0.00118567,4.52936,8.35973,3.87939,-0.698992,7.84524,213,2.66818,19.5,0.45,5209
8.88748e-07,-1.78959e-06,-2.37834e-06,-0.000641827,-0.00178254,-0.00224044,5.03881,1.63371,0.266844,3.52756,6.14955,1.69538,-0.905566,6.17978,213,0.822727,19.5,0.45,5210
-8.83453e-07,-1.78452e-06,-2.39465e-06,-0.00064438,-0.0017737,-0.00223574,5.06601,1.69491,0.315682,3.5943,6.25557,1.75406,-0.93303,6.29127,213,19.2773,19.5,0.45,5211
-1.06712e-07,-1.91183e-06,-2.49159e-06,-2.83836e-05,-0.00170705,-0.00258426,7.96454,2.9536,0.335051,4.77022,8.91999,2.95366,-0.620456,8.3484,213,13.7409,19.5,0.45,5212
-4.24643e-10,-1.88266e-06,-2.53315e-06,-3.45172e-05,-0.00142097,-0.00277407,8.23209,4.09342,0.0543065,4.92899,9.07219,4.09342,-0.785795,8.53741,213,10.05,19.5,0.45,5213
4.7054e-08,-1.88722e-06,-2.52068e-06,-2.3703e-05,-0.00157736,-0.00269364,8.05776,3.41999,0.0877884,4.8841,8.95729,3.41916,-0.810914,8.48476,213,8.20455,19.5,0.45,5214
-1.95089e-07,-1.73268e-06,-2.53978e-06,-8.04575e-05,-0.00132597,-0.00280603,8.14919,4.43123,0.0131516,4.70051,8.78167,4.43125,-0.619354,8.14905,213,15.5864,19.5,0.45,5215
1.09234e-07,-1.89117e-06,-2.50711e-06,-2.97657e-05,-0.00167594,-0.00264604,7.85875,2.94479,0.0489813,4.79588,8.74972,2.94484,-0.842046,8.36777,213,6.35909,19.5,0.45,5216
1.93246e-07,-1.75225e-06,-2.53871e-06,-7.89106e-05,-0.00133481,-0.00280883,8.12182,4.37288,-0.0271913,4.66286,8.71008,4.37305,-0.615628,8.08287,213,4.51364,19.5,0.45,5217
-3.79052e-07,-1.80457e-06,-2.50683e-06,-0.000154101,-0.00158286,-0.00259634,7.54609,3.28112,0.255829,4.73817,8.64111,3.27714,-0.83522,8.23057,213,17.4318,19.5,0.45,5218
-4.56249e-08,-1.90352e-06,-2.51461e-06,-2.43429e-05,-0.00157918,-0.00267477,8.1079,3.4666,0.19617,4.88091,9.03336,3.46577,-0.728462,8.48183,213,11.8955,19.5,0.45,5219
1.22647e-06,-1.70262e-06,-2.22881e-06,-0.00089518,-0.00171424,-0.00210591,4.12227,1.67731,0.508164,3.4459,5.55625,2.08704,-1.33554,5.96851,213,0.361364,19.5,0.4325,5220
1.2735e-06,-1.77962e-06,-2.30067e-06,-0.000961038,-0.00179752,-0.00205121,3.62616,1.12921,0.371902,2.95942,4.77992,1.48627,-1.13892,5.13675,213,0.361364,19.5,0.4675,5221
6.64907e-07,-1.82505e-06,-2.50708e-06,-0.000359611,-0.00183922,-0.00242052,6.02538,1.60863,-0.126604,3.96806,6.91555,1.61244,-1.02058,7.00135,213,1.28409,19.5,0.4675,5222
-1.22187e-06,-1.6977e-06,-2.25514e-06,-0.000895927,-0.00171444,-0.00210192,4.12969,1.68637,0.529713,3.51759,5.65675,2.06745,-1.37843,6.09306,213,19.7386,19.5,0.4325,5223
-1.26812e-06,-1.77453e-06,-2.32684e-06,-0.000959995,-0.00180047,-0.00204415,3.64559,1.1367,0.409298,3.03954,4.90281,1.46505,-1.17626,5.27967,213,19.7386,19.5,0.4675,5224
-6.58442e-07,-1.80795e-06,-2.52008e-06,-0.00036365,-0.00181483,-0.00244932,5.98655,1.65467,-0.239313,3.9094,6.77945,1.66181,-1.03935,6.87824,213,18.8159,19.5,0.4675,5225
6.51617e-07,-1.74039e-06,-2.42235e-06,-0.000352272,-0.0017546,-0.00243274,6.30021,2.11416,0.0898737,4.22722,7.41576,2.12717,-1.03869,7.39829,213,1.28409,19.5,0.4325,5226
-6.45819e-07,-1.72707e-06,-2.4343e-06,-0.000354923,-0.00172674,-0.00241127,6.44033,2.34534,0.301976,4.32832,7.69614,2.35202,-0.96051,7.56538,213,18.8159,19.5,0.4325,5227
-3.17175e-07,-1.88115e-06,-2.54472e-06,-0.000119556,-0.00166208,-0.00260126,7.49192,2.88736,0.0838402,4.6137,8.4024,2.88572,-0.825001,8.04202,213,16.9705,19.5,0.4675,5228
-4.60093e-07,-1.79534e-06,-2.56586e-06,-0.000189995,-0.00157917,-0.00263129,7.22595,3.07915,-0.0614907,4.44883,8.03417,3.07293,-0.863488,7.72262,213,17.8932,19.5,0.4675,5229
-5.52114e-07,-1.68991e-06,-2.53889e-06,-0.000198291,-0.00143862,-0.00267599,7.4789,3.77642,0.0827903,4.63241,8.4138,3.77533,-0.851022,8.02358,213,18.3545,19.5,0.45,5230
-4.55306e-07,-1.71198e-06,-2.47399e-06,-0.000186362,-0.00148683,-0.00261222,7.60169,3.71971,0.360328,5.01331,8.99713,3.71409,-1.02949,8.68749,213,17.8932,19.5,0.4325,5231
-1.59358e-07,-1.79159e-06,-2.5881e-06,-7.58459e-05,-0.00134711,-0.00275632,8.26819,4.47336,0.266762,4.88428,9.15249,4.47189,-0.616067,8.46227,213,15.125,19.5,0.4675,5232
-2.33777e-07,-1.83618e-06,-2.56842e-06,-8.03597e-05,-0.00158477,-0.00260721,7.95958,3.46882,0.416746,4.95368,9.14354,3.46542,-0.763815,8.61055,213,16.0477,19.5,0.4675,5233
-2.31696e-07,-1.75317e-06,-2.47483e-06,-8.01326e-05,-0.00148703,-0.00284829,7.50634,3.30666,-0.756825,4.62656,8.0027,3.3039,-1.25042,8.01377,213,16.0477,19.5,0.4325,5234
-2.69192e-07,-1.85732e-06,-2.49806e-06,-8.09192e-05,-0.00164211,-0.00260437,7.78328,3.12301,0.250601,4.92455,8.94125,3.1235,-0.907859,8.57621,213,16.5091,19.5,0.45,5235
-3.14946e-07,-1.7916e-06,-2.45443e-06,-0.00011843,-0.00156701,-0.0025651,7.91506,3.59093,0.611572,5.18225,9.44681,3.58845,-0.917694,9.00135,213,16.9705,19.5,0.4325,5236
-9.28231e-08,-1.94749e-06,-2.54089e-06,-3.34121e-05,-0.00174473,-0.00260446,7.74999,2.64156,0.0752142,4.62743,8.54093,2.63977,-0.713935,8.11553,213,13.2795,19.5,0.4675,5237
-1.18387e-07,-1.90635e-06,-2.55287e-06,-2.03053e-05,-0.00174027,-0.00263718,7.74107,2.60685,-0.0704906,4.8155,8.65374,2.60095,-0.977259,8.43196,213,14.2023,19.5,0.4675,5238
-1.17901e-07,-1.82159e-06,-2.46003e-06,-2.12926e-05,-0.0016608,-0.00266019,7.91408,3.02004,0.0367831,4.93473,8.91363,3.01309,-0.95582,8.60159,213,14.2023,19.5,0.4325,5239
-1.25712e-07,-1.76788e-06,-2.53963e-06,-5.47309e-05,-0.00143121,-0.0027499,8.15183,4.04292,0.106555,5.09956,9.2289,4.04262,-0.970216,8.83312,213,14.6636,19.5,0.45,5240
-1.59138e-07,-1.70919e-06,-2.49136e-06,-7.35371e-05,-0.00125173,-0.00279594,8.45927,4.94227,0.332699,4.95909,9.35544,4.94154,-0.562746,8.60669,213,15.125,19.5,0.4325,5241
-3.71627e-08,-1.90786e-06,-2.57424e-06,-1.28064e-05,-0.00158971,-0.00271291,8.02457,3.31739,-0.0354284,4.76105,8.75865,3.31133,-0.76345,8.27489,213,11.4341,19.5,0.4675,5242
-5.91819e-08,-1.938e-06,-2.55767e-06,-3.40176e-05,-0.00163272,-0.00266582,7.90692,3.13467,0.050788,4.70587,8.68495,3.13423,-0.726796,8.19448,213,12.3568,19.5,0.4675,5243
-9.19781e-08,-1.86082e-06,-2.44966e-06,-3.33315e-05,-0.00165251,-0.00257779,8.12757,3.2942,0.532179,5.12461,9.45543,3.29232,-0.793799,8.93664,213,13.2795,19.5,0.4325,5244
-7.61316e-08,-1.84794e-06,-2.51732e-06,-3.93881e-05,-0.00161563,-0.00264623,7.99016,3.28495,0.208537,5.01565,9.11491,3.28512,-0.916389,8.72543,213,12.8182,19.5,0.45,5245
-5.85e-08,-1.85183e-06,-2.46513e-06,-3.23809e-05,-0.0015439,-0.00263694,8.2903,3.77829,0.515507,5.23834,9.64165,3.77746,-0.835019,9.09462,213,12.3568,19.5,0.4325,5246
1.57341e-08,-1.9058e-06,-2.58047e-06,-3.39861e-05,-0.00147053,-0.00270297,8.30369,4.01551,0.336563,4.98864,9.30993,4.01317,-0.667343,8.64607,213,9.58864,19.5,0.4675,5247
-1.70884e-08,-1.89765e-06,-2.58622e-06,-3.67315e-05,-0.00144305,-0.0027736,8.14991,3.95194,-0.0198456,4.76563,8.83196,3.94935,-0.699308,8.25515,213,10.5114,19.5,0.4675,5248
-1.58984e-08,-1.81434e-06,-2.49019e-06,-3.44086e-05,-0.00136171,-0.00273893,8.53219,4.5701,0.458985,5.34191,9.8393,4.56651,-0.844531,9.25272,213,10.5114,19.5,0.4325,5249
-3.29564e-08,-1.7899e-06,-2.54865e-06,-2.58613e-05,-0.00141336,-0.00273904,8.42064,4.27886,0.321585,5.10868,9.47959,4.27926,-0.737771,8.84897,213,10.9727,19.5,0.45,5250
-3.65992e-08,-1.82463e-06,-2.47979e-06,-1.51098e-05,-0.00150506,-0.00268215,8.37642,3.9288,0.415108,5.27006,9.66883,3.92279,-0.871287,9.14041,213,11.4341,19.5,0.4325,5251
5.9368e-08,-1.93277e-06,-2.56228e-06,-2.91932e-05,-0.00164116,-0.0026278,8.03042,3.21858,0.273373,4.86472,9.01661,3.21858,-0.712819,8.47747,213,7.74318,19.5,0.4675,5252
3.77595e-08,-1.89871e-06,-2.57496e-06,-1.75299e-05,-0.00159346,-0.00267325,8.10938,3.40513,0.18185,4.90062,9.04774,3.40212,-0.753495,8.52075,213,8.66591,19.5,0.4675,5253
1.47012e-08,-1.82094e-06,-2.48601e-06,-3.20236e-05,-0.00139012,-0.00278039,8.32528,4.27127,0.121212,4.99697,9.22187,4.26796,-0.772066,8.65511,213,9.58864,19.5,0.4325,5254
3.03411e-08,-1.80482e-06,-2.53865e-06,-2.68664e-05,-0.00146757,-0.00268741,8.40627,4.10567,0.464336,5.07816,9.51356,4.10548,-0.642763,8.80182,213,9.12727,19.5,0.45,5255
3.70833e-08,-1.81489e-06,-2.48125e-06,-1.90476e-05,-0.00151138,-0.00272301,8.20254,3.74781,0.131019,4.9969,9.16582,3.74352,-0.827971,8.66533,213,8.66591,19.5,0.4325,5256
1.20554e-07,-1.88374e-06,-2.56616e-06,-1.79504e-05,-0.00169599,-0.0027043,7.6831,2.67402,-0.335863,4.73758,8.41332,2.66979,-1.06185,8.26717,213,5.89773,19.5,0.4675,5257
9.38335e-08,-1.94136e-06,-2.5515e-06,-3.90606e-05,-0.00172595,-0.00260144,7.78435,2.74885,0.135443,4.75913,8.71882,2.74926,-0.799441,8.33146,213,6.82045,19.5,0.4675,5258
5.89132e-08,-1.84614e-06,-2.47059e-06,-2.7918e-05,-0.00155563,-0.00268567,8.12604,3.56571,0.192464,4.98451,9.14383,3.56558,-0.825194,8.65382,213,7.74318,19.5,0.4325,5259
7.34887e-08,-1.87087e-06,-2.51523e-06,-3.70464e-05,-0.00165272,-0.00259714,8.04266,3.21975,0.400604,5.00523,9.22675,3.21998,-0.783714,8.72697,213,7.28182,19.5,0.45,5260
9.29872e-08,-1.85571e-06,-2.46042e-06,-3.85515e-05,-0.00163908,-0.00263806,7.94689,3.1692,0.187172,4.90678,8.97383,3.16917,-0.839738,8.54609,213,6.82045,19.5,0.4325,5261
2.33953e-07,-1.85335e-06,-2.56528e-06,-8.57672e-05,-0.00158338,-0.00252676,8.18583,3.71534,0.899281,5.21386,9.7563,3.71559,-0.671431,9.06845,213,4.05227,19.5,0.4675,5262
1.58522e-07,-1.7982e-06,-2.58832e-06,-7.34972e-05,-0.0013285,-0.00279429,8.22126,4.47498,0.0994815,4.70266,8.86344,4.47416,-0.541877,8.15127,213,4.975,19.5,0.4675,5263
1.20243e-07,-1.79961e-06,-2.47173e-06,-1.99276e-05,-0.00161364,-0.00267507,8.02485,3.26751,0.0990553,5.20925,9.27384,3.26224,-1.14467,9.0583,213,5.89773,19.5,0.4325,5264
1.26271e-07,-1.75717e-06,-2.54133e-06,-4.88991e-05,-0.00137326,-0.00276113,8.33591,4.38258,0.239702,5.19341,9.48116,4.38269,-0.905654,8.99575,213,5.43636,19.5,0.45,5265
1.58568e-07,-1.71588e-06,-2.49089e-06,-7.08292e-05,-0.00125893,-0.00277158,8.53036,4.98378,0.468406,5.21454,9.71396,4.98371,-0.715122,9.04483,213,4.975,19.5,0.4325,5266
4.61693e-07,-1.77962e-06,-2.56317e-06,-0.000198834,-0.00144208,-0.00264574,7.5605,3.84931,0.256299,4.56468,8.47049,3.85449,-0.658872,7.90642,213,2.20682,19.5,0.4675,5267
3.16535e-07,-1.84693e-06,-2.54846e-06,-0.000113031,-0.00160884,-0.00259729,7.71355,3.24844,0.297862,5.1118,9.12027,3.24292,-1.10333,8.88693,213,3.12955,19.5,0.4675,5268
3.14763e-07,-1.76115e-06,-2.45635e-06,-0.000113963,-0.00151437,-0.00271322,7.63973,3.4594,-0.11925,4.60198,8.3646,3.45464,-0.839355,7.9768,213,3.12955,19.5,0.4325,5269
2.73189e-07,-1.86113e-06,-2.49366e-06,-7.92588e-05,-0.00164872,-0.00260029,7.78547,3.10052,0.259997,4.99196,9.01461,3.10067,-0.969299,8.69534,213,3.59091,19.5,0.45,5270
2.31632e-07,-1.77227e-06,-2.47168e-06,-8.59274e-05,-0.00149101,-0.00284072,7.48206,3.28778,-0.741201,4.59407,7.96572,3.28534,-1.22242,7.95763,213,4.05227,19.5,0.4325,5271
4.57016e-07,-1.69492e-06,-2.47043e-06,-0.00019273,-0.00134046,-0.00268944,7.78183,4.35578,0.328974,4.77406,8.82846,4.35777,-0.719646,8.27447,213,2.20682,19.5,0.4325,5272
5.59837e-07,-1.72657e-06,-2.5239e-06,-0.000178334,-0.00152615,-0.00261936,7.50376,3.48044,0.217097,4.77051,8.62957,3.48316,-0.911438,8.27131,213,1.74545,19.5,0.45,5273
9.59474e-07,1.95277e-06,-2.08568e-06,-0.000624026,-0.00164901,-0.00170716,92.6071,8.65473,3.89219,45.3451,93.5422,8.75975,2.85208,87.8853,213,0.822727,0,0.40625,5274
-9.47565e-07,1.9436e-06,-2.10857e-06,-0.000615137,-0.0016527,-0.00170907,93.6287,8.64545,4.02885,45.5908,94.4203,8.64401,3.23866,88.6027,213,19.2773,0,0.40625,5275
5.71208e-10,2.1313e-06,-2.17572e-06,-3.98782e-05,-0.00137138,-0.00218815,174.521,65.4631,-1.43585,88.1234,174.666,65.4624,-1.58044,154.083,213,10.05,0,0.40625,5276
-5.77382e-08,2.13215e-06,-2.17486e-06,-3.05125e-05,-0.00149999,-0.00208468,173.878,53.5187,5.62891,84.6778,174.439,53.5039,5.08305,151.081,213,11.8955,0,0.40625,5277
-2.48983e-07,2.03769e-06,-2.19596e-06,-8.62136e-05,-0.00144955,-0.00212644,165.107,53.4413,-2.00009,83.7074,165.277,53.4096,-2.13811,147.695,213,15.5864,0,0.40625,5278
4.51776e-07,2.01387e-06,-2.18579e-06,-0.000162247,-0.00149455,-0.00205391,154.541,45.4173,-0.39776,77.7377,154.833,45.3709,-0.642912,138.332,213,2.66818,0,0.40625,5279
1.37524e-07,2.14321e-06,-2.17582e-06,-4.14499e-05,-0.00160235,-0.00200841,169.668,41.8211,8.56167,80.8985,170.014,41.8203,8.21675,147.887,213,6.35909,0,0.40625,5280
5.64662e-08,2.14097e-06,-2.17552e-06,-3.10457e-05,-0.00150354,-0.00208567,173.379,52.773,5.09293,84.5995,173.841,52.7613,4.64229,151.004,213,8.20455,0,0.40625,5281
2.47212e-07,2.05218e-06,-2.19233e-06,-8.67258e-05,-0.00147654,-0.00210197,164.795,50.961,-0.265816,82.7456,165.034,50.9141,-0.457554,146.713,213,4.51364,0,0.40625,5282
-1.38018e-07,2.12724e-06,-2.18223e-06,-4.18982e-05,-0.0015749,-0.00202719,170.367,44.8049,7.75987,81.6658,170.728,44.8068,7.39669,148.211,213,13.7409,0,0.40625,5283
-4.56805e-07,2.04106e-06,-2.17201e-06,-0.00016001,-0.00152952,-0.0020327,153.693,41.522,0.308343,76.9612,153.991,41.464,0.0684484,137.964,213,17.4318,0,0.40625,5284
1.30644e-06,1.88904e-06,-1.90768e-06,-0.000888377,-0.00162642,-0.00159369,59.476,-0.974061,1.70618,33.4995,59.8939,7.41924,-7.10505,61.0467,213,0.361364,0,0.401875,5285
1.3117e-06,1.89799e-06,-1.92158e-06,-0.000895095,-0.00163737,-0.00157204,59.2825,-1.51424,3.83655,32.1238,59.7233,6.40583,-4.52431,59.5398,213,0.361364,0,0.410625,5286
7.33808e-07,1.95958e-06,-2.20452e-06,-0.00035753,-0.00167074,-0.00187844,121.009,13.4496,-3.56275,63.0205,121.311,14.3146,-4.7299,117.68,213,1.28409,0,0.410625,5287
-1.2942e-06,1.88656e-06,-1.9956e-06,-0.000881705,-0.00164629,-0.0015738,60.622,-2.00192,3.93537,32.992,61.1625,6.21444,-4.82148,61.2167,213,19.7386,0,0.410625,5288
-1.2902e-06,1.87913e-06,-1.98169e-06,-0.000876451,-0.00163711,-0.00159443,60.4974,-1.8053,1.69036,34.169,61.0238,6.6728,-7.31417,62.529,213,19.7386,0,0.401875,5289
-7.24998e-07,1.94298e-06,-2.20116e-06,-0.00035205,-0.00166761,-0.00188156,121.95,14.1975,-3.32643,63.2851,122.243,14.9048,-4.327,118.134,213,18.8159,0,0.410625,5290
7.32811e-07,1.95165e-06,-2.1879e-06,-0.000355059,-0.0016607,-0.00189037,121.264,14.3236,-4.48766,63.4484,121.608,14.7809,-5.2889,118.147,213,1.28409,0,0.401875,5291
-7.24267e-07,1.93559e-06,-2.18451e-06,-0.000350263,-0.0016592,-0.00189427,121.871,14.661,-4.59233,63.7474,122.214,15.0062,-5.28063,118.659,213,18.8159,0,0.401875,5292
5.33717e-07,1.96681e-06,-2.21993e-06,-0.000193927,-0.00146007,-0.00206038,151.618,47.9125,-1.25626,76.638,151.859,47.8321,-1.41691,135.537,213,2.20682,0,0.410625,5293
3.84158e-07,2.05513e-06,-2.17996e-06,-0.000130234,-0.00153325,-0.0020397,157.836,42.9204,1.43834,78.3865,158.035,42.8975,1.26216,140.655,213,3.12955,0,0.410625,5294
6.30636e-07,1.90214e-06,-2.24626e-06,-0.000204046,-0.00139096,-0.00209945,152.571,55.3559,-2.67383,77.7393,152.702,55.3279,-2.77676,136.073,213,1.74545,0,0.40625,5295
5.34109e-07,1.96084e-06,-2.20181e-06,-0.000193755,-0.00145545,-0.00208053,150.257,46.9164,-4.28182,77.5553,150.581,46.84,-4.52949,136.858,213,2.20682,0,0.401875,5296
2.88333e-07,2.07071e-06,-2.18976e-06,-9.10356e-05,-0.0015246,-0.00206538,163.03,45.6123,1.31848,81.0028,163.193,45.5794,1.18792,144.999,213,4.05227,0,0.410625,5297
2.08262e-07,2.03467e-06,-2.21078e-06,-8.24991e-05,-0.00143239,-0.00213361,166.638,56.0742,-1.36049,84.1703,166.842,56.0092,-1.49907,148.205,213,4.975,0,0.410625,5298
3.84272e-07,2.04897e-06,-2.16206e-06,-0.000130991,-0.00152897,-0.00205721,156.522,42.0185,-1.24729,79.1922,156.841,41.9953,-1.54319,141.723,213,3.12955,0,0.401875,5299
3.3125e-07,2.07866e-06,-2.16654e-06,-9.71986e-05,-0.00156827,-0.00205675,158.839,38.3493,-1.66067,80.4371,159.026,38.3493,-1.84793,145.016,213,3.59091,0,0.40625,5300
2.88126e-07,2.06469e-06,-2.17166e-06,-9.10705e-05,-0.00152039,-0.0020816,161.949,44.8794,-1.0877,81.7899,162.237,44.8473,-1.34318,146.069,213,4.05227,0,0.401875,5301
1.55491e-07,2.10189e-06,-2.19528e-06,-3.6612e-05,-0.00159747,-0.00208356,164.211,36.3672,-3.44681,84.0238,164.463,36.2537,-3.58502,152.093,213,5.89773,0,0.410625,5302
1.1728e-07,2.14309e-06,-2.18609e-06,-4.61397e-05,-0.0016112,-0.00203235,165.931,37.7422,3.24764,81.5597,166.189,37.6621,3.06964,148.869,213,6.82045,0,0.410625,5303
1.71228e-07,2.00672e-06,-2.20791e-06,-6.716e-05,-0.00134833,-0.00219371,171.411,66.4753,-2.76676,87.2565,171.58,66.473,-2.93322,152.183,213,5.43636,0,0.40625,5304
1.55532e-07,2.09565e-06,-2.17687e-06,-3.65024e-05,-0.00159252,-0.00208505,164.539,37.0914,-3.25031,84.2378,164.935,36.9858,-3.54069,152.311,213,5.89773,0,0.401875,5305
2.08161e-07,2.02889e-06,-2.19201e-06,-8.22351e-05,-0.00142835,-0.00215056,165.528,55.2723,-3.88127,84.9732,165.829,55.208,-4.11768,149.396,213,4.975,0,0.401875,5306
7.32446e-08,2.13519e-06,-2.1893e-06,-4.17184e-05,-0.00151903,-0.00208175,170.515,49.5137,3.42325,83.805,170.786,49.4894,3.17634,149.918,213,7.74318,0,0.410625,5307
4.45461e-08,2.1188e-06,-2.18543e-06,-2.03495e-05,-0.00149251,-0.00212401,172.769,52.1905,0.46596,86.4296,173.116,52.0518,0.257268,153.655,213,8.66591,0,0.410625,5308
1.17341e-07,2.13651e-06,-2.16818e-06,-4.62349e-05,-0.00160654,-0.00203357,166.223,38.4244,3.44742,81.7972,166.671,38.3474,3.07649,149.121,213,6.82045,0,0.401875,5309
9.49274e-08,2.0888e-06,-2.19003e-06,-5.15719e-05,-0.00155041,-0.00209102,165.19,42.4258,-1.85379,83.6804,165.348,42.4264,-2.01253,150.157,213,7.28182,0,0.40625,5310
7.32398e-08,2.12876e-06,-2.171e-06,-4.16608e-05,-0.00151482,-0.00208294,170.795,50.1348,3.60209,84.0814,171.291,50.1122,3.1285,150.284,213,7.74318,0,0.401875,5311
1.90273e-08,2.11335e-06,-2.18687e-06,-4.01897e-05,-0.00136791,-0.00218998,174.615,65.8657,-1.4663,88.1714,174.782,65.7936,-1.56096,154.13,213,9.58864,0,0.410625,5312
-1.76896e-08,2.12163e-06,-2.18654e-06,-3.94203e-05,-0.00137908,-0.0021858,174.121,64.3938,-1.68126,88.0148,174.256,64.351,-1.77353,154.01,213,10.5114,0,0.410625,5313
3.77256e-08,2.05582e-06,-2.18198e-06,-2.98005e-05,-0.00139106,-0.00217616,175.56,64.064,-0.240631,88.0817,175.741,64.0639,-0.421972,154.376,213,9.12727,0,0.40625,5314
1.90932e-08,2.10726e-06,-2.16784e-06,-4.03395e-05,-0.00136327,-0.00217387,176.446,68.0895,1.69676,87.7691,176.877,68.0171,1.33845,153.477,213,9.58864,0,0.401875,5315
4.46901e-08,2.11218e-06,-2.16682e-06,-2.03046e-05,-0.0014864,-0.00212582,173.162,53.0799,0.706785,86.7111,173.714,52.9421,0.292198,154.002,213,8.66591,0,0.401875,5316
-4.51634e-08,2.11551e-06,-2.18618e-06,-2.37889e-05,-0.00148897,-0.00211872,172.97,52.9622,1.38211,86.0778,173.291,52.8879,1.13547,152.991,213,11.4341,0,0.410625,5317
-7.33731e-08,2.13554e-06,-2.18443e-06,-3.72362e-05,-0.00151588,-0.00208438,171.33,50.2196,3.65592,84.1119,171.605,50.2184,3.38169,150.379,213,12.3568,0,0.410625,5318
-1.7789e-08,2.11545e-06,-2.16757e-06,-3.95597e-05,-0.00137425,-0.00216917,176.017,66.6977,1.5884,87.5947,176.419,66.6545,1.22959,153.33,213,10.5114,0,0.401875,5319
-3.58666e-08,2.07228e-06,-2.18138e-06,-3.13391e-05,-0.00140527,-0.00216669,174.873,62.3392,-0.0254918,87.6271,175.052,62.3372,-0.202348,153.834,213,10.9727,0,0.40625,5320
-4.52969e-08,2.10861e-06,-2.16763e-06,-2.36452e-05,-0.00148183,-0.00212084,173.443,54.0087,1.67028,86.3924,173.986,53.9355,1.20085,153.375,213,11.4341,0,0.401875,5321
-1.16825e-07,2.13831e-06,-2.18809e-06,-4.96832e-05,-0.00158167,-0.00204652,166.697,41.2178,3.14379,81.9647,166.897,41.1933,2.96799,148.552,213,13.2795,0,0.410625,5322
-1.5548e-07,2.0924e-06,-2.19678e-06,-3.40667e-05,-0.00157223,-0.0020964,165.757,39.772,-3.1608,84.6072,165.94,39.702,-3.27414,152.343,213,14.2023,0,0.410625,5323
-7.3363e-08,2.129e-06,-2.16608e-06,-3.72684e-05,-0.00151161,-0.00208549,171.608,50.85,3.84596,84.3931,172.121,50.849,3.33436,150.753,213,12.3568,0,0.401875,5324
-9.2108e-08,2.11272e-06,-2.17808e-06,-4.79497e-05,-0.00154322,-0.002097,165.919,43.4477,-1.91056,84.0612,166.065,43.4485,-2.05733,150.617,213,12.8182,0,0.40625,5325
-1.16922e-07,2.13164e-06,-2.17006e-06,-4.98624e-05,-0.00157675,-0.00204767,167.005,41.9439,3.37245,82.2115,167.412,41.9209,2.98873,148.826,213,13.2795,0,0.401875,5326
-2.09218e-07,2.02848e-06,-2.20906e-06,-8.63271e-05,-0.00138529,-0.00215594,168.199,61.8054,-1.31509,84.8821,168.332,61.7888,-1.43186,148.607,213,15.125,0,0.410625,5327
-2.88839e-07,2.06018e-06,-2.19313e-06,-8.63064e-05,-0.0015175,-0.00209039,162.238,45.0145,-1.90874,82.1967,162.388,44.9606,-2.00512,146.663,213,16.0477,0,0.410625,5328
-1.69274e-07,2.02117e-06,-2.19499e-06,-6.60138e-05,-0.00133188,-0.00219715,172.771,69.0893,-1.78172,87.4678,172.962,69.0893,-1.9732,152.384,213,14.6636,0,0.40625,5329
-2.09137e-07,2.02275e-06,-2.19015e-06,-8.64964e-05,-0.0013818,-0.00216704,167.489,61.3957,-2.92003,85.4454,167.739,61.3772,-3.15169,149.467,213,15.125,0,0.401875,5330
-1.55515e-07,2.08603e-06,-2.17828e-06,-3.3732e-05,-0.00156709,-0.00209794,166.135,40.5435,-2.93678,84.838,166.47,40.4772,-3.20575,152.598,213,14.2023,0,0.401875,5331
-3.87771e-07,2.08182e-06,-2.16913e-06,-0.000138578,-0.0015572,-0.00203769,154.443,38.2488,-1.10626,77.9312,154.601,38.2456,-1.26129,140.343,213,16.9705,0,0.410625,5332
-5.35167e-07,1.97455e-06,-2.2081e-06,-0.0001809,-0.00150622,-0.00204801,150.827,42.275,-2.10092,76.7043,151.179,42.0528,-2.23019,136.755,213,17.8932,0,0.410625,5333
-2.88564e-07,2.05417e-06,-2.17495e-06,-8.57257e-05,-0.00151311,-0.00208092,163.577,46.6663,0.158472,81.9871,163.883,46.6104,-0.0914557,146.324,213,16.0477,0,0.401875,5334
-3.28334e-07,2.08442e-06,-2.16385e-06,-0.000102143,-0.00158079,-0.00204445,157.971,36.8606,-1.11579,79.7828,158.223,36.8349,-1.34228,144.315,213,16.5091,0,0.40625,5335
-3.87794e-07,2.07543e-06,-2.15139e-06,-0.000139899,-0.00155266,-0.00201938,156.26,40.5464,2.31929,77.3651,156.656,40.5434,1.92604,139.49,213,16.9705,0,0.401875,5336
-6.23464e-07,1.87001e-06,-2.24147e-06,-0.000201043,-0.00138582,-0.00210496,153.052,56.0117,-2.89027,78.1296,153.248,55.9367,-3.01122,136.677,213,18.3545,0,0.40625,5337
-5.35565e-07,1.96832e-06,-2.19005e-06,-0.000180363,-0.0015013,-0.00206964,149.425,41.2324,-5.31865,77.6784,149.839,41.0184,-5.51822,138.1,213,17.8932,0,0.401875,5338
1.94979e-06,-7.64036e-07,-2.12929e-06,-0.00169355,-0.000556929,-0.00172393,5.52431,98.6204,3.03569,48.7601,99.4616,5.77737,1.94143,95.6599,213,-0.1,18.525,0.40625,5339
1.97512e-06,9.42151e-07,-2.05376e-06,-0.00168397,-0.000593153,-0.00171118,5.06452,94.4095,2.836,46.8526,95.3113,5.39255,1.60617,91.8705,213,-0.1,0.975,0.40625,5340
2.0812e-06,-3.34493e-07,-2.15517e-06,-0.00150797,-0.000124925,-0.00203999,47.702,160.982,4.1257,78.7389,161.297,47.6942,3.8188,140.766,213,-0.1,16.575,0.40625,5341
2.17954e-06,-7.25872e-08,-2.14279e-06,-0.00156781,-2.28547e-05,-0.00206474,44.3642,170.906,3.66254,83.8379,171.123,44.3616,3.44769,151.423,213,-0.1,12.675,0.40625,5342
2.04159e-06,4.36053e-07,-2.13854e-06,-0.00145369,-0.000152812,-0.00207905,51.0139,157.564,-0.206893,79.0829,157.767,51.0036,-0.399205,139.744,213,-0.1,2.925,0.40625,5343
2.17285e-06,1.14172e-07,-2.14751e-06,-0.00161824,-3.2504e-05,-0.00203802,37.25,167.131,2.8673,82.3542,167.353,37.25,2.64496,150.421,213,-0.1,6.825,0.40625,5344
2.15327e-06,-1.64323e-07,-2.14183e-06,-0.0014404,-7.26812e-05,-0.00213789,55.1965,167.221,-1.93264,84.7347,167.38,55.1951,-2.08981,149.31,213,-0.1,14.625,0.40625,5345
2.15705e-06,-1.58211e-08,-2.13106e-06,-0.00133837,-3.71393e-05,-0.00221463,68.9954,175.574,-2.77568,89.2736,175.674,68.9937,-2.8736,155.603,213,-0.1,10.725,0.40625,5346
2.18349e-06,4.6317e-08,-2.12646e-06,-0.00146748,-3.38338e-05,-0.00212065,55.5745,172.999,2.07546,85.645,173.182,55.5742,1.8924,151.746,213,-0.1,8.775,0.40625,5347
2.12533e-06,2.32376e-07,-2.15318e-06,-0.00143373,-8.89621e-05,-0.00211786,56.6751,166.82,0.64057,83.2988,167.029,56.675,0.43153,146.793,213,-0.1,4.875,0.40625,5348
1.89689e-06,1.29333e-06,-1.8925e-06,-0.00164918,-0.000854323,-0.00159846,-2.25471,62.8493,1.90027,35.2187,63.0745,6.78324,-7.36285,64.5377,213,-0.1,0.4875,0.401875,5349
1.9065e-06,1.29801e-06,-1.90643e-06,-0.00166087,-0.000860569,-0.00157966,-3.13451,62.4153,3.51763,34.065,62.6624,5.60353,-5.46752,63.3245,213,-0.1,0.4875,0.410625,5350
2.0066e-06,7.17738e-07,-2.15419e-06,-0.00171807,-0.000329835,-0.00186527,8.99323,122.699,-3.06333,63.6651,123.012,9.93449,-4.31793,120.836,213,-0.1,1.4625,0.410625,5351
1.83364e-06,-1.09941e-06,-2.08418e-06,-0.00166653,-0.00082167,-0.00160722,-3.08999,66.109,1.76725,37.2304,66.3728,6.50146,-8.08796,68.3441,213,-0.1,19.0125,0.401875,5352
1.84158e-06,-1.10161e-06,-2.0982e-06,-0.00167712,-0.000826085,-0.00158896,-3.66622,66.0389,3.55479,36.1924,66.3404,5.63134,-6.04432,67.3107,213,-0.1,19.0125,0.410625,5353
2.0015e-06,-5.57702e-07,-2.16482e-06,-0.00172023,-0.000289781,-0.00189366,9.66705,126.83,-4.53801,66.1422,126.989,10.2654,-5.2954,125.231,213,-0.1,18.0375,0.410625,5354
1.99797e-06,7.17033e-07,-2.13772e-06,-0.00170714,-0.000327956,-0.00187733,9.95589,122.92,-3.98315,64.0476,123.264,10.4602,-4.83136,121.175,213,-0.1,1.4625,0.401875,5355
1.99363e-06,-5.57667e-07,-2.14818e-06,-0.00171014,-0.000289816,-0.00188652,12.0311,128.365,-2.41557,66.1833,128.874,12.5987,-3.49241,125.1,213,-0.1,18.0375,0.401875,5356
2.08629e-06,-2.79924e-07,-2.17186e-06,-0.00150442,-9.91697e-05,-0.00206992,47.9366,163.035,1.61846,80.9318,163.31,47.8339,1.44625,144.372,213,-0.1,16.0875,0.410625,5357
2.05016e-06,-4.01685e-07,-2.16755e-06,-0.00151585,-0.000150544,-0.00205431,42.7776,154.605,-1.32518,78.1262,154.763,42.7834,-1.48915,139.489,213,-0.1,17.0625,0.410625,5358
1.98105e-06,-4.81497e-07,-2.17284e-06,-0.00146217,-0.000146567,-0.00208539,49.5522,157.308,-1.49376,79.5275,157.439,49.5426,-1.61559,140.637,213,-0.1,17.55,0.40625,5359
2.04393e-06,-4.01702e-07,-2.14949e-06,-0.0015112,-0.000151016,-0.0020558,43.3991,154.807,-1.20726,78.3544,155.15,43.4085,-1.55925,139.76,213,-0.1,17.0625,0.401875,5360
2.14945e-06,-1.29513e-07,-2.14405e-06,-0.00143764,-6.96668e-05,-0.00212263,57.3046,169.35,1.19995,84.2635,169.558,57.2661,1.03073,148.616,213,-0.1,14.1375,0.410625,5361
2.12525e-06,-2.00386e-07,-2.16663e-06,-0.00144721,-7.56347e-05,-0.00213645,53.8947,166.235,-2.55828,84.5219,166.393,53.8283,-2.65028,149.058,213,-0.1,15.1125,0.410625,5362
2.08017e-06,-2.79901e-07,-2.15369e-06,-0.00149994,-9.88405e-05,-0.00207145,48.5965,163.355,1.78596,81.2117,163.834,48.4934,1.41028,144.744,213,-0.1,16.0875,0.401875,5363
2.0534e-06,-2.37974e-07,-2.18135e-06,-0.00145713,-7.71453e-05,-0.00211666,53.8295,166.859,-0.189845,83.7387,167.08,53.8166,-0.397668,148.014,213,-0.1,15.6,0.40625,5364
2.11921e-06,-2.00557e-07,-2.14807e-06,-0.00144282,-7.53951e-05,-0.00212027,56.1153,168.116,0.627554,84.0846,168.492,56.0442,0.322765,148.375,213,-0.1,15.1125,0.401875,5365
2.15497e-06,-6.17519e-08,-2.16246e-06,-0.00155007,-2.18051e-05,-0.00210086,44.2663,169.441,-0.846895,85.3431,169.714,44.1178,-0.97178,153.201,213,-0.1,12.1875,0.410625,5366
2.16605e-06,-8.41589e-08,-2.14625e-06,-0.00159033,-2.40759e-05,-0.00207133,39.8062,168.092,0.409218,84.0138,168.293,39.7497,0.265046,152.177,213,-0.1,13.1625,0.410625,5367
2.15929e-06,-8.39289e-08,-2.12799e-06,-0.00158451,-2.41438e-05,-0.00209293,38.8652,166.669,-2.77726,84.9057,166.885,38.7988,-2.92667,153.269,213,-0.1,13.1625,0.401875,5368
2.10141e-06,-9.61124e-08,-2.13617e-06,-0.0014827,-5.02886e-05,-0.0021247,51.1309,168.454,-1.45331,85.137,168.637,51.1309,-1.63667,150.973,213,-0.1,13.65,0.40625,5369
2.14303e-06,-1.29556e-07,-2.12547e-06,-0.00143317,-7.01625e-05,-0.00214207,56.2875,167.926,-1.77637,85.1069,168.201,56.2492,-2.01294,149.834,213,-0.1,14.1375,0.401875,5370
2.15675e-06,2.43758e-09,-2.13528e-06,-0.00134143,-3.74931e-05,-0.00219208,70.4572,177.258,0.784382,88.3856,177.417,70.4372,0.645573,154.213,213,-0.1,10.2375,0.410625,5371
2.13524e-06,-3.37303e-08,-2.15485e-06,-0.00133898,-3.66828e-05,-0.00220924,69.4143,176.081,-1.86566,89.0543,176.192,69.3533,-1.91618,155.269,213,-0.1,11.2125,0.410625,5372
2.14849e-06,-6.18274e-08,-2.14392e-06,-0.00154559,-2.11243e-05,-0.00210566,44.6665,169.529,-1.20721,85.7376,169.969,44.526,-1.5065,153.718,213,-0.1,12.1875,0.401875,5373
2.07948e-06,-5.16968e-08,-2.16832e-06,-0.00139795,-3.20814e-05,-0.00218297,62.0699,173.943,-2.22775,88.2481,174.105,62.0718,-2.39142,154.69,213,-0.1,11.7,0.40625,5374
2.12921e-06,-3.39729e-08,-2.13567e-06,-0.00133478,-3.6902e-05,-0.00219557,71.3377,177.642,0.833536,88.7283,177.997,71.2752,0.540747,154.732,213,-0.1,11.2125,0.401875,5375
2.16613e-06,6.45795e-08,-2.14811e-06,-0.00146606,-4.14136e-05,-0.00211789,55.3866,172.074,1.99736,85.1867,172.244,55.3433,1.87059,150.918,213,-0.1,8.2875,0.410625,5376
2.17295e-06,3.16411e-08,-2.13267e-06,-0.00147218,-2.60967e-05,-0.00214575,53.2147,171.658,-1.95437,86.9507,171.832,53.1555,-2.06933,153.908,213,-0.1,9.2625,0.410625,5377
2.1506e-06,2.36471e-09,-2.11612e-06,-0.0013374,-3.76037e-05,-0.00220782,69.7299,176.191,-1.56252,89.0666,176.391,69.7088,-1.74188,155.27,213,-0.1,10.2375,0.401875,5378
2.12238e-06,2.08166e-08,-2.1292e-06,-0.00137912,-2.99561e-05,-0.00217959,65.7898,176.295,0.226657,88.268,176.529,65.7898,-0.00716182,154.527,213,-0.1,9.75,0.40625,5379
2.16674e-06,3.17468e-08,-2.11383e-06,-0.00146871,-2.62375e-05,-0.00214669,53.7138,171.861,-1.8169,87.1429,172.195,53.6537,-2.09079,154.167,213,-0.1,9.2625,0.401875,5380
2.15086e-06,1.31064e-07,-2.16674e-06,-0.00162321,-3.68365e-05,-0.00205809,34.2147,164.148,-1.40457,82.9633,164.357,34.1713,-1.56988,151.257,213,-0.1,6.3375,0.410625,5381
2.1631e-06,9.92922e-08,-2.15749e-06,-0.00161837,-2.82215e-05,-0.00206035,35.6119,165.855,-0.589389,83.385,166.032,35.5831,-0.737818,151.902,213,-0.1,7.3125,0.410625,5382
2.15649e-06,9.948e-08,-2.13932e-06,-0.00161288,-2.8093e-05,-0.00207528,35.2284,165.032,-2.64458,84.07,165.281,35.1932,-2.85867,152.712,213,-0.1,7.3125,0.401875,5383
2.10871e-06,8.67253e-08,-2.16038e-06,-0.00150431,-4.09494e-05,-0.00212407,48.3206,168.178,-2.44157,85.4698,168.338,48.3198,-2.60122,152.016,213,-0.1,7.8,0.40625,5384
2.15988e-06,6.47498e-08,-2.12957e-06,-0.00146227,-4.1482e-05,-0.00211902,55.9283,172.3,2.13663,85.4152,172.655,55.8853,1.82462,151.23,213,-0.1,8.2875,0.401875,5385
2.10062e-06,2.76871e-07,-2.15824e-06,-0.00143675,-9.32791e-05,-0.00211738,55.815,165.853,0.0669599,83.0603,166.045,55.7662,-0.0759066,146.417,213,-0.1,4.3875,0.410625,5386
2.12382e-06,1.90154e-07,-2.17242e-06,-0.00143438,-8.45641e-05,-0.00211312,57.3805,167.939,1.78743,83.2517,168.13,57.3504,1.62661,146.8,213,-0.1,5.3625,0.410625,5387
2.14431e-06,1.31015e-07,-2.14865e-06,-0.00161792,-3.65757e-05,-0.00205446,35.4688,164.991,-0.286808,82.9853,165.359,35.4259,-0.611746,151.208,213,-0.1,6.3375,0.401875,5388
2.08428e-06,1.49947e-07,-2.17897e-06,-0.00149344,-6.45942e-05,-0.00210872,49.4406,166.472,-0.954531,83.9093,166.668,49.4404,-1.15046,149.105,213,-0.1,5.85,0.40625,5389
2.11776e-06,1.90016e-07,-2.15395e-06,-0.00143024,-8.45184e-05,-0.00211469,57.9537,168.177,1.89309,83.5031,168.553,57.9231,1.54721,147.154,213,-0.1,5.3625,0.401875,5390
2.02327e-06,5.19526e-07,-2.16015e-06,-0.00145068,-0.00018983,-0.00206057,49.8724,153.143,-0.0813295,76.7592,153.287,49.8781,-0.231244,135.596,213,-0.1,2.4375,0.410625,5391
2.05051e-06,3.70639e-07,-2.1475e-06,-0.00146033,-0.00011555,-0.00210077,51.2675,161.413,-1.18849,81.4296,161.565,51.2219,-1.29452,143.973,213,-0.1,3.4125,0.410625,5392
2.04434e-06,3.70633e-07,-2.12918e-06,-0.00145598,-0.000115518,-0.00209152,52.8433,162.635,0.788894,81.2409,162.976,52.7965,0.494443,143.658,213,-0.1,3.4125,0.401875,5393
2.03791e-06,3.23402e-07,-2.15053e-06,-0.00143778,-8.96083e-05,-0.002117,56.0005,166.424,0.368051,83.2561,166.661,55.9838,0.148221,146.788,213,-0.1,3.9,0.40625,5394
2.09459e-06,2.76763e-07,-2.13969e-06,-0.00143281,-9.34483e-05,-0.00211872,56.3547,166.057,0.174357,83.2815,166.422,56.3052,-0.141036,146.723,213,-0.1,4.3875,0.401875,5395
1.98329e-06,6.21417e-07,-2.17607e-06,-0.00147248,-0.000182844,-0.00205795,46.9945,152.624,-0.95935,76.9404,152.775,46.9906,-1.10606,136.35,213,-0.1,1.95,0.40625,5396
2.01697e-06,5.19765e-07,-2.14207e-06,-0.00144672,-0.000190366,-0.00207189,49.4895,152.393,-1.71584,77.338,152.674,49.495,-2.00223,136.423,213,-0.1,2.4375,0.401875,5397
1.38201e-09,1.83641e-08,-2.56162e-06,-2.87125e-05,-2.69291e-05,-0.00316498,133.462,133.542,0.0201997,66.7609,133.542,133.462,0.0201901,133.482,213,10.0046,9.67452,0.3975,5398
1.72987e-07,1.66699e-07,-2.55241e-06,-6.29815e-05,-5.96819e-05,-0.00308967,143.722,143.886,0.280083,71.86,144,143.608,0.280001,143.524,213,5.56294,5.69055,0.3975,5399
1.57949e-07,-9.97423e-08,-2.55588e-06,-5.81559e-05,-3.98525e-05,-0.00314926,129.109,129.941,-0.21087,65.0834,129.956,129.094,-0.21107,129.738,213,5.84897,13.7254,0.3975,5400
-1.78543e-07,-9.41979e-08,-2.55592e-06,-6.31507e-05,-3.88802e-05,-0.00314454,129.635,130.743,-0.203483,65.4757,130.748,129.63,-0.203512,130.396,213,14.5848,13.5835,0.3975,5401
-1.71383e-07,1.66728e-07,-2.55288e-06,-6.21185e-05,-5.85725e-05,-0.00309433,143.662,143.855,-0.0162024,71.9776,143.939,143.578,-0.0162947,143.775,213,14.5361,5.68958,0.3975,5402
4.13675e-10,-1.83344e-07,-2.55155e-06,-2.55192e-05,-6.44596e-05,-0.0031207,140.376,138.466,0.361992,70.0071,140.376,138.466,0.36195,139.069,213,10.0512,15.2034,0.3975,5403
3.51032e-10,2.71217e-07,-2.54373e-06,-2.54162e-05,-8.82525e-05,-0.00312651,131.349,128.44,0.293701,65.5279,131.349,128.44,0.293698,129.625,213,10.05,4.43898,0.3975,5404
-3.13944e-07,1.19682e-08,-2.53835e-06,-9.4646e-05,-2.45552e-05,-0.00316896,110.701,113.456,-0.394719,56.9254,113.456,110.701,-0.394727,112.499,213,15.964,9.83306,0.3975,5405
3.06742e-07,1.20419e-08,-2.5375e-06,-0.000101941,-2.34939e-05,-0.00310814,129.649,133.328,0.163156,66.5826,133.328,129.649,0.163068,131.364,213,4.13582,9.83322,0.3975,5406
-3.59899e-07,3.48444e-07,-2.53284e-06,-0.000114529,-0.000114576,-0.00321097,76.6399,76.6513,0.0491164,38.4508,76.9505,76.3409,0.0489596,76.5985,213,16.8055,3.41598,0.3975,5407
3.60057e-07,3.48351e-07,-2.53293e-06,-0.000116655,-0.00011348,-0.00316821,90.3313,90.4008,0.589581,45.0639,90.7172,90.0151,0.589383,89.7788,213,3.29449,3.41598,0.3975,5408
3.6587e-07,-2.27489e-07,-2.53737e-06,-0.000121641,-7.64471e-05,-0.00313842,107.874,109.671,0.458363,54.6406,109.739,107.806,0.457898,108.328,213,3.29449,16.084,0.3975,5409
-3.65904e-07,-2.28124e-07,-2.53585e-06,-0.000121597,-7.53815e-05,-0.0031075,115.947,117.901,1.42125,58.2804,117.982,115.867,1.42095,115.518,213,16.8055,16.084,0.3975,5410
9.91777e-08,-1.11772e-08,-2.56043e-06,-4.40124e-05,-2.38164e-05,-0.00313462,141.492,142.503,-0.0563959,71.28,142.504,141.491,-0.0563988,142.057,213,7.09327,10.8337,0.3975,5411
-9.97198e-08,-1.07457e-08,-2.55887e-06,-4.46095e-05,-2.44114e-05,-0.00311088,149.077,150.138,0.0853734,75.0268,150.139,149.076,0.0853374,149.525,213,13.0067,10.8337,0.3975,5412
-8.45565e-08,-2.72747e-07,-2.55291e-06,-3.73657e-05,-9.40071e-05,-0.00320307,102.136,100.117,0.465924,50.8429,102.152,100.102,0.465816,100.676,213,12.9569,16.3818,0.3975,5413
9.22805e-08,-3.02975e-07,-2.55687e-06,-3.99149e-05,-0.000116174,-0.0031945,97.583,94.9142,-0.163892,48.8832,97.5964,94.9069,-0.169976,96.4497,213,6.93173,16.6565,0.3975,5414
-9.04052e-08,4.03496e-07,-2.54842e-06,-3.91485e-05,-0.000134911,-0.00304656,152.131,146.914,0.443953,75.845,152.134,146.911,0.443771,149.147,213,13.0428,3.22155,0.3975,5415
9.03918e-08,4.01075e-07,-2.54893e-06,-3.95161e-05,-0.000129883,-0.003134,119.35,115.506,0.142622,59.6054,119.353,115.504,0.141835,117.334,213,7.05697,3.22197,0.3975,5416
-3.98872e-08,1.03537e-07,-2.56046e-06,-3.01872e-05,-4.20573e-05,-0.00321675,112.519,112.056,-0.0403669,56.2803,112.52,112.055,-0.0403969,112.329,213,11.4485,7.04177,0.3975,5417
4.07231e-08,1.02056e-07,-2.55982e-06,-3.02933e-05,-4.23616e-05,-0.00316145,131.173,130.626,0.127669,65.5242,131.176,130.623,0.127634,130.773,213,8.64136,7.06189,0.3975,5418
4.53707e-07,-5.62944e-08,-2.55609e-06,-0.000154558,-2.85774e-05,-0.00303066,149.376,156.413,1.0623,77.6767,156.415,149.375,1.06163,151.956,213,2.86107,12.556,0.3975,5419
4.47233e-07,9.68664e-08,-2.55843e-06,-0.000152686,-3.80001e-05,-0.00307529,134.752,140.525,-0.19619,70.3627,140.529,134.749,-0.196705,137.926,213,2.86107,6.94395,0.3975,5420
-4.45991e-07,-5.66187e-08,-2.56712e-06,-0.000162965,-2.89987e-05,-0.00324548,88.9663,93.5017,-0.99177,47.2487,93.5053,88.9629,-0.992034,92.31,213,17.2389,12.556,0.3975,5421
-4.40279e-07,9.75111e-08,-2.56768e-06,-0.00016062,-3.83922e-05,-0.00316113,112.818,117.973,-1.4049,59.6928,117.978,112.816,-1.40773,116.89,213,17.2389,6.94395,0.3975,5422
2.80511e-08,-5.88906e-08,-2.56117e-06,-2.88326e-05,-3.19364e-05,-0.00322496,110.964,110.846,0.000540762,55.4818,110.964,110.846,0.000535063,110.905,213,9.07089,12.5109,0.3975,5423
-5.44536e-08,-8.52778e-08,-2.55984e-06,-3.30569e-05,-3.84253e-05,-0.0032193,110.511,110.302,-0.141734,55.3293,110.517,110.296,-0.141769,110.548,213,11.8993,13.2829,0.3975,5424
-1.3759e-07,5.20053e-08,-2.55531e-06,-5.45847e-05,-2.89804e-05,-0.00323443,100.467,101.375,-0.033384,50.7075,101.381,100.461,-0.0338682,100.958,213,13.7888,8.39217,0.3975,5425
1.39676e-07,5.16424e-08,-2.55735e-06,-5.49687e-05,-2.95888e-05,-0.00320539,111.348,112.348,0.0731203,56.1389,112.351,111.345,0.072935,111.779,213,6.25605,8.40327,0.3975,5426
4.63394e-10,6.06457e-07,-2.57777e-06,-1.57676e-05,-0.000139297,-0.00312169,135.128,129.735,-1.03959,68.0887,135.133,129.735,-1.0445,133.56,213,10.05,2.12359,0.3975,5427
-2.85283e-10,-4.04991e-07,-2.5733e-06,-1.69011e-05,-7.54502e-05,-0.00319037,122.115,120.198,-0.18646,61.1509,122.115,120.198,-0.186499,121.354,213,10.05,17.3764,0.3975,5428
4.97162e-08,-1.21826e-07,-2.55626e-06,-3.02699e-05,-4.63102e-05,-0.00323096,103.129,102.548,-0.0617423,51.599,103.136,102.541,-0.0618296,102.902,213,8.3247,14.1296,0.3975,5429
-1.7966e-07,5.34587e-07,-2.5694e-06,-6.08089e-05,-0.000156294,-0.00314117,117.311,113.271,-0.0348677,58.6768,117.317,113.267,-0.03675,115.382,213,14.8487,2.28395,0.3975,5430
1.72408e-07,-3.61946e-07,-2.56294e-06,-6.20702e-05,-7.15894e-05,-0.00318639,109.655,110.005,0.142619,55.204,110.546,109.119,0.137861,109.701,213,5.25615,17.2547,0.3975,5431
1.79371e-07,5.42096e-07,-2.55518e-06,-6.23004e-05,-0.00015434,-0.00312605,117.092,112.93,-0.136435,58.6176,117.098,112.924,-0.13678,115.205,213,5.25123,2.284,0.3975,5432
-1.72493e-07,-3.588e-07,-2.55594e-06,-6.22743e-05,-6.59594e-05,-0.00314967,128.837,128.661,-0.555373,65.0727,129.588,127.912,-0.557131,129.315,213,14.8385,17.2283,0.3975,5433
6.14719e-07,-4.49171e-09,-2.58641e-06,-0.000167573,-1.94983e-05,-0.0031498,113.563,119.599,-0.600652,60.1002,119.6,113.563,-0.600838,117.298,213,2.03454,10.5086,0.3975,5434
-6.04317e-07,-3.85455e-09,-2.58155e-06,-0.000172541,-2.13966e-05,-0.00316852,97.3723,103.081,-1.35699,52.2339,103.096,97.3723,-1.37191,101.727,213,18.0655,10.5086,0.3975,5435
2.0315e-07,-3.00451e-08,-2.55305e-06,-7.11703e-05,-2.53026e-05,-0.00323931,93.8372,95.3617,0.0439497,47.6595,95.3628,93.8362,0.0438369,94.5649,213,5.27175,11.6005,0.3975,5436
-2.13877e-07,-3.1275e-08,-2.55115e-06,-7.34572e-05,-2.55762e-05,-0.0032243,98.9782,100.664,0.134439,50.2686,100.671,98.971,0.13419,99.6979,213,14.9777,11.6358,0.3975,5437
4.82335e-08,2.12326e-07,-2.55163e-06,-3.07362e-05,-7.33597e-05,-0.00318812,113.177,111.491,-0.0156909,56.5979,113.18,111.488,-0.0157097,112.359,213,8.32648,5.14147,0.3975,5438
-4.83141e-08,2.10892e-07,-2.55263e-06,-2.98773e-05,-7.18887e-05,-0.00320706,106.248,104.689,-0.298799,53.2752,106.251,104.686,-0.299126,105.776,213,11.77,5.13793,0.3975,5439
-6.68882e-07,-1.301e-07,-2.58098e-06,-0.000191705,-3.64302e-05,-0.00320177,92.1412,97.4991,-0.749307,49.1303,97.5082,92.1354,-0.752545,95.6875,213,18.3168,14.3968,0.3975,5440
-6.57937e-07,1.93491e-07,-2.57776e-06,-0.000187083,-5.85517e-05,-0.00306315,128.254,134.722,0.586938,67.0766,134.74,128.237,0.586454,131.023,213,18.3168,5.10316,0.3975,5441
6.61479e-07,1.94625e-07,-2.57775e-06,-0.000177615,-5.70128e-05,-0.00312404,112.307,117.046,-0.622033,58.8406,117.057,112.297,-0.623697,115.375,213,1.78318,5.10316,0.3975,5442
6.74116e-07,-1.30029e-07,-2.58371e-06,-0.000187167,-3.76508e-05,-0.00309266,119.609,126.138,0.175094,62.9823,126.14,119.608,0.175009,122.829,213,1.78318,14.3968,0.3975,5443
-6.44883e-08,3.62277e-08,-2.56046e-06,-3.40201e-05,-2.66106e-05,-0.00321274,115.294,115.602,-0.126105,57.8654,115.605,115.291,-0.126105,115.574,213,12.1199,9.01285,0.3975,5444
6.55928e-08,3.76654e-08,-2.56123e-06,-3.40442e-05,-2.74253e-05,-0.00329816,84.7373,84.9311,0.0348259,42.4492,84.9332,84.7353,0.0347515,84.7997,213,7.93564,8.95228,0.3975,5445
5.96808e-07,-4.00481e-07,-2.59644e-06,-0.00021945,-0.000104846,-0.00304367,121.937,127.488,-0.965638,64.2384,127.51,121.916,-0.966557,125.773,213,1.79521,17.5749,0.3975,5446
5.99146e-07,5.70615e-07,-2.59604e-06,-0.000195634,-0.000196726,-0.00298647,116.524,116.545,0.203699,58.6094,117.415,115.662,0.195895,116.352,213,1.79521,1.92508,0.3975,5447
-5.95417e-07,-3.92789e-07,-2.59922e-06,-0.000217878,-0.000124586,-0.00300798,118.954,123.196,0.200484,61.5895,123.373,118.782,0.194537,120.949,213,18.3048,17.5749,0.3975,5448
-6.10122e-07,5.79512e-07,-2.60004e-06,-0.000191617,-0.000204185,-0.00296168,126.977,126.708,0.0578621,63.7817,127.615,126.077,0.0513438,126.801,213,18.3048,1.92508,0.3975,5449
-2.99841e-08,-2.9261e-08,-2.56173e-06,-2.90757e-05,-2.5747e-05,-0.00309338,159.623,159.812,0.125932,79.845,159.816,159.619,0.125869,159.592,213,11.0632,11.519,0.3975,5450
3.20462e-07,-1.17853e-07,-2.54493e-06,-0.000105581,-4.30484e-05,-0.00309319,134.84,137.914,0.180731,68.8732,137.927,134.827,0.180613,136.223,213,3.86597,14.2232,0.3975,5451
3.13651e-07,1.85066e-07,-2.53938e-06,-0.000103123,-6.30621e-05,-0.003013,159.492,161.833,0.304277,80.7904,161.885,159.44,0.30421,160.372,213,3.86597,5.2768,0.3975,5452
-3.21375e-07,-1.17889e-07,-2.5433e-06,-0.00010895,-4.29527e-05,-0.00309039,134.689,137.912,0.274881,68.8232,137.921,134.68,0.274468,136.055,213,16.234,14.2232,0.3975,5453
-3.14359e-07,1.85125e-07,-2.5403e-06,-0.000104515,-6.23667e-05,-0.00316449,108.341,110.006,-0.0545458,55.0425,110.03,108.317,-0.0546074,109.238,213,16.234,5.2768,0.3975,5454
7.55017e-07,4.75424e-08,-2.5937e-06,-0.000289115,-2.59052e-05,-0.00311981,89.3198,98.8523,0.0879508,49.3853,98.8555,89.3196,0.0849709,94.3646,213,1.53233,8.37929,0.3975,5455
-7.28851e-07,4.88541e-08,-2.57978e-06,-0.000346414,-2.77049e-05,-0.00297662,114.333,129.411,-1.91037,65.6617,129.412,114.333,-1.91135,124.471,213,18.5677,8.37929,0.3975,5456
-2.34378e-07,8.71073e-08,-2.54952e-06,-7.54651e-05,-3.78166e-05,-0.00307297,151.622,153.669,-0.053869,76.8696,153.685,151.606,-0.0538975,152.71,213,15.3361,7.3,0.3975,5457
2.42748e-07,8.26895e-08,-2.54792e-06,-8.1381e-05,-3.65188e-05,-0.00318406,110.775,112.553,-0.231797,56.3957,112.56,110.768,-0.231821,111.907,213,4.69563,7.40844,0.3975,5458
4.44895e-08,-4.99944e-07,-2.58296e-06,-2.48307e-05,-0.000148731,-0.00311344,128.871,123.683,0.699643,64.1262,128.926,123.654,0.673631,125.699,213,8.15556,17.8726,0.3975,5459
-4.76794e-08,7.40619e-07,-2.58599e-06,-2.84292e-05,-0.000253146,-0.00310924,110.647,101.689,1.05447,54.8166,110.668,101.688,1.03461,105.431,213,11.8024,1.62276,0.3975,5460
4.77072e-08,7.47576e-07,-2.5926e-06,-2.74425e-05,-0.000259594,-0.00301487,134.943,123.389,0.0954789,67.4347,134.954,123.388,0.0849631,129.474,213,8.29761,1.62276,0.3975,5461
-4.35572e-08,-5.06651e-07,-2.57978e-06,-2.08702e-05,-0.000151349,-0.0031166,129.108,123.676,0.59659,64.2747,129.132,123.666,0.582571,125.905,213,11.885,17.8638,0.3975,5462
1.83913e-07,2.87228e-07,-2.5419e-06,-6.49046e-05,-9.68949e-05,-0.00320807,93.4065,92.3461,0.0418737,46.7004,93.4425,92.3103,0.0417221,92.8398,213,5.2873,4.12494,0.3975,5463
1.81356e-07,-1.95557e-07,-2.54304e-06,-6.50844e-05,-7.14845e-05,-0.00310068,136.92,136.605,-0.259463,68.6701,137.081,136.444,-0.259505,137.023,213,5.35339,15.5038,0.3975,5464
-1.83829e-07,2.88888e-07,-2.53721e-06,-6.42381e-05,-9.98298e-05,-0.00318999,93.6086,92.4224,0.452819,46.5955,93.6438,92.3873,0.452735,92.5692,213,14.8124,4.1247,0.3975,5465
-1.8438e-07,-1.83932e-07,-2.54506e-06,-6.66895e-05,-6.28742e-05,-0.00307174,148.697,148.9,-0.00586446,74.5548,149.104,148.493,-0.00588706,148.805,213,14.7805,15.358,0.3975,5466
-4.67496e-08,-1.65041e-07,-2.55508e-06,-3.04266e-05,-6.02955e-05,-0.00309385,151.782,150.183,0.143966,75.821,151.786,150.179,0.143965,150.845,213,11.7258,14.9304,0.3975,5467
5.47849e-10,6.78587e-08,-2.56102e-06,-2.85007e-05,-3.21708e-05,-0.00311645,150.122,149.932,0.0373282,75.0425,150.122,149.932,0.0373136,149.99,213,10.049,7.98216,0.3975,5468
-4.63499e-11,1.48839e-07,-2.55762e-06,-2.69265e-05,-5.56395e-05,-0.00320773,113.084,111.95,-0.164338,56.6242,113.084,111.95,-0.164346,112.686,213,10.0475,6.13403,0.3975,5469
9.18942e-08,-5.72647e-08,-2.56028e-06,-4.12429e-05,-3.04685e-05,-0.00310402,151.679,152.265,0.0447997,76.1131,152.271,151.673,0.044798,151.928,213,7.24233,12.4858,0.3975,5470
-2.97605e-07,-4.53684e-07,-2.57128e-06,-9.02569e-05,-7.75644e-05,-0.00315879,117.609,118.321,0.64926,59.2201,119.088,116.844,0.647522,117.334,213,16.5298,17.8008,0.3975,5471
-3.12318e-07,6.63774e-07,-2.58143e-06,-8.38046e-05,-0.000173205,-0.00313489,109.051,105.984,0.535174,54.2901,109.115,105.921,0.534549,107.019,213,16.5298,1.69917,0.3975,5472
3.14128e-07,6.74392e-07,-2.5821e-06,-8.63087e-05,-0.00017298,-0.00314192,107.571,104.259,0.504683,53.5794,107.661,104.171,0.502572,105.457,213,3.57022,1.69917,0.3975,5473
2.95771e-07,-4.39433e-07,-2.57403e-06,-8.99958e-05,-9.46604e-05,-0.00315224,117.342,117.468,0.555305,59.0301,118.615,116.195,0.554796,116.869,213,3.57022,17.8008,0.3975,5474
3.84905e-08,-1.17356e-08,-2.56175e-06,-3.056e-05,-2.46073e-05,-0.00324061,106.272,106.496,0.115573,53.1908,106.497,106.271,0.115468,106.269,213,8.76949,10.8317,0.3975,5475
4.31542e-08,-2.48911e-07,-2.55176e-06,-2.78994e-05,-8.57957e-05,-0.00311023,143.47,140.58,0.593355,71.4417,143.476,140.575,0.592413,141.455,213,8.40604,16.053,0.3975,5476
-3.32699e-08,3.98994e-07,-2.54596e-06,-2.75695e-05,-0.000132848,-0.00309625,134.243,129.246,1.06248,66.5913,134.244,129.246,1.06147,130.755,213,11.3082,3.30105,0.3975,5477
3.30193e-08,3.96187e-07,-2.54481e-06,-2.69714e-05,-0.000127152,-0.00319818,110.971,107.052,-0.0570433,55.5146,110.972,107.052,-0.0574312,109.122,213,8.79125,3.30162,0.3975,5478
-1.02564e-07,8.14635e-07,-2.57291e-06,-3.81161e-05,-0.000320184,-0.00302884,114.741,102.747,-0.61835,57.6917,114.761,102.732,-0.622728,109.864,213,13.4351,1.42565,0.3975,5479
1.08778e-07,8.09702e-07,-2.58358e-06,-3.58179e-05,-0.000309514,-0.00310477,106.4,95.6139,-0.152059,53.2837,106.41,95.6102,-0.157852,101.599,213,6.6648,1.42575,0.3975,5480
-9.35119e-08,-5.64494e-07,-2.58281e-06,-2.89136e-05,-0.00020951,-0.00313861,118.47,110.978,0.111815,59.1813,118.472,110.978,0.109594,114.799,213,13.4325,18.0948,0.3975,5481
9.15337e-08,-5.79915e-07,-2.5803e-06,-3.26157e-05,-0.00025953,-0.00309606,117.083,107.467,0.215595,58.4527,117.115,107.442,0.209056,112.382,213,6.61232,18.1567,0.3975,5482
-1.1061e-07,-5.52966e-08,-2.55892e-06,-4.52765e-05,-3.06089e-05,-0.00325705,95.5069,95.9924,-0.05522,48.026,95.9967,95.5027,-0.0552622,95.8059,213,13.2888,12.4443,0.3975,5483
-1.74266e-07,1.15643e-08,-2.54853e-06,-6.63483e-05,-2.39073e-05,-0.0030694,156.33,158.686,-0.258428,79.4726,158.687,156.329,-0.258449,157.78,213,14.3478,9.91725,0.3975,5484
1.71192e-07,1.09975e-08,-2.55302e-06,-6.30956e-05,-2.38411e-05,-0.00312494,138.373,140.291,-0.104214,70.1977,140.291,138.373,-0.104215,139.446,213,5.75081,9.92104,0.3975,5485
-1.04427e-07,1.13024e-07,-2.55785e-06,-4.39199e-05,-4.44133e-05,-0.00321704,107.842,107.829,-0.0600962,53.9879,107.916,107.755,-0.0601592,107.896,213,13.2009,6.77638,0.3975,5486
1.05987e-07,1.12244e-07,-2.55843e-06,-4.36108e-05,-4.45009e-05,-0.00311522,144.568,144.526,-0.0937978,72.3694,144.645,144.449,-0.0938572,144.641,213,6.8729,6.78832,0.3975,5487
-8.88493e-07,1.06636e-07,-2.54297e-06,-0.000388544,-4.24923e-05,-0.00303991,78.3318,89.9234,-0.864281,45.3958,89.9262,78.3302,-0.86546,85.5849,213,18.9047,6.81528,0.3975,5488
8.97726e-07,1.03922e-07,-2.55125e-06,-0.000370321,-3.81232e-05,-0.00295067,116.67,133.094,0.104035,66.5034,133.103,116.669,0.0961924,125.599,213,1.19532,6.81528,0.3975,5489
-8.64744e-07,-5.90193e-08,-2.55116e-06,-0.00034571,-3.36307e-05,-0.00293196,116.124,131.08,-0.19461,65.6439,131.091,116.115,-0.196741,124.477,213,18.8042,12.5623,0.3975,5490
8.68943e-07,-6.03394e-08,-2.5659e-06,-0.000344474,-3.10083e-05,-0.0030295,92.9071,104.752,0.119204,52.3233,104.76,92.9048,0.113459,99.2514,213,1.29576,12.5623,0.3975,5491
-3.31114e-08,-2.74597e-07,-2.55465e-06,-2.74123e-05,-9.55946e-05,-0.00315336,121.56,118.638,1.43692,60.0648,121.565,118.635,1.43538,118.692,213,11.3338,16.3512,0.3975,5492
7.88875e-07,-2.39681e-07,-2.55875e-06,-0.000268897,-6.69281e-05,-0.00305821,112.87,121.91,-0.250094,61.0822,121.914,112.866,-0.25048,117.901,213,1.41135,16.0551,0.3975,5493
-7.89199e-07,-2.39246e-07,-2.56026e-06,-0.000268382,-6.84534e-05,-0.0031771,81.8757,88.1608,-0.209547,44.187,88.1643,81.8722,-0.209634,85.4019,213,18.6887,16.0551,0.3975,5494
7.62324e-07,3.39641e-07,-2.56464e-06,-0.000271995,-0.00010335,-0.00305218,105.2,112.157,0.0713749,56.0434,112.158,105.2,0.0707089,108.775,213,1.41135,3.44488,0.3975,5495
-7.52948e-07,3.3932e-07,-2.56883e-06,-0.000283773,-9.78161e-05,-0.00305296,104.263,112.117,-0.187533,56.1529,112.118,104.263,-0.188254,108.592,213,18.6887,3.44488,0.3975,5496
-7.8745e-09,-9.80758e-08,-2.55934e-06,-2.74844e-05,-4.11436e-05,-0.00318866,121.993,121.41,-0.0706126,61.0319,121.993,121.41,-0.0706339,121.773,213,10.3511,13.5792,0.3975,5497
3.99587e-07,4.78745e-08,-2.55107e-06,-0.000122554,-2.79582e-05,-0.00312649,128.071,132.51,0.233004,66.1457,132.524,128.058,0.232379,130.116,213,3.276,8.44825,0.3975,5498
-3.9465e-07,4.74884e-08,-2.56215e-06,-0.000119336,-2.77184e-05,-0.00322265,101.743,105.133,1.12414,52.0305,105.173,101.715,1.11199,102.376,213,16.824,8.44825,0.3975,5499
-3.51872e-07,-2.31317e-08,-2.5542e-06,-0.000103649,-2.33064e-05,-0.0030955,142.115,146.266,1.50853,72.4026,146.308,142.08,1.50229,142.738,213,16.4526,11.2813,0.3975,5500
3.54545e-07,-2.2579e-08,-2.54653e-06,-0.000115442,-2.36798e-05,-0.00316422,116.788,120.683,0.108796,60.2889,120.686,116.785,0.108392,118.675,213,3.65515,11.2795,0.3975,5501
-1.03248e-07,-1.37706e-07,-2.55524e-06,-4.34343e-05,-5.0905e-05,-0.00311185,142.844,142.467,-0.0712067,71.4811,142.891,142.42,-0.0712449,142.727,213,13.2342,14.4853,0.3975,5502
2.80457e-07,-6.55186e-08,-2.54892e-06,-9.53439e-05,-3.27445e-05,-0.00315458,117.919,120.576,0.170544,60.2035,120.578,117.918,0.170539,119.099,213,4.29074,12.8307,0.3975,5503
-2.76025e-07,-6.62992e-08,-2.55209e-06,-9.33353e-05,-3.26911e-05,-0.00319888,106.768,109.107,-0.764283,54.9366,109.108,106.768,-0.765246,108.722,213,15.8093,12.8307,0.3975,5504
-1.09567e-07,2.27949e-07,-2.55058e-06,-4.58242e-05,-7.84333e-05,-0.0031599,119.768,118.376,-0.469475,60.1221,119.775,118.37,-0.469655,119.548,213,13.4072,4.86033,0.3975,5505
1.09276e-07,2.28947e-07,-2.54992e-06,-4.44617e-05,-7.83883e-05,-0.00322448,95.8098,94.6609,0.249197,47.7862,95.8217,94.6491,0.249181,94.9916,213,6.69222,4.86036,0.3975,5506
9.62674e-08,-1.78279e-07,-2.55228e-06,-4.2649e-05,-6.50748e-05,-0.00320012,109.493,108.627,0.0194741,54.744,109.507,108.613,0.0192794,109.044,213,6.97297,15.2137,0.3975,5507
9.26224e-07,-7.0687e-07,-2.53775e-06,-0.000495763,-0.000381408,-0.00289747,78.1385,82.6663,-0.0593762,41.6634,83.1502,77.7718,-0.176552,80.772,213,0.835166,18.5312,0.3975,5508
-9.56736e-07,9.24398e-07,-2.51686e-06,-0.000476101,-0.000461411,-0.0028581,76.3649,76.9786,-0.5992,39.1766,77.6466,75.8044,-0.706715,77.4487,213,19.2648,0.968771,0.3975,5509
-9.2461e-07,-7.06023e-07,-2.53784e-06,-0.000490181,-0.000385416,-0.00278605,91.5593,96.3812,-0.213982,48.6303,96.9437,91.0997,-0.316839,94.4742,213,19.2648,18.5312,0.3975,5510
9.60006e-07,9.27123e-07,-2.54155e-06,-0.000497024,-0.000476867,-0.00275366,81.9758,82.841,-0.144394,41.7256,83.2044,81.7147,-0.246723,82.7163,213,0.835166,0.968771,0.3975,5511
-2.32907e-07,4.07935e-08,-2.5426e-06,-8.16954e-05,-2.78323e-05,-0.00311734,129.98,132.473,0.55543,65.9668,132.489,129.964,0.555311,130.69,213,15.1756,8.74929,0.3975,5512
2.30364e-07,4.02651e-08,-2.54575e-06,-8.0627e-05,-2.79438e-05,-0.00315433,119.01,121.243,0.234455,60.5059,121.246,119.007,0.234372,119.908,213,4.91079,8.76188,0.3975,5513
1.26275e-06,1.24284e-06,-2.28554e-06,-0.000926817,-0.000908507,-0.0022691,44.9334,45.7054,0.417838,24.1303,48.0171,43.2831,-0.243533,46.0764,213,0.367583,0.484385,0.3975,5514
7.62162e-07,1.28771e-06,-2.46551e-06,-0.000337408,-0.000965558,-0.00259495,80.765,54.0145,-1.38621,41.2648,80.9728,53.9773,-1.55678,72.8832,213,1.29031,0.484385,0.3975,5515
1.33768e-06,7.33572e-07,-2.43578e-06,-0.00102048,-0.000309063,-0.00258547,50.983,81.301,-1.52507,41.6084,81.5167,50.9423,-1.7001,72.9077,213,0.367583,1.45939,0.3975,5516
-7.59552e-07,1.2748e-06,-2.44734e-06,-0.000331106,-0.000946407,-0.00261185,81.5521,55.3402,-1.4698,41.7,81.761,55.3005,-1.63907,73.8168,213,18.8097,0.484385,0.3975,5517
-1.24863e-06,1.23085e-06,-2.28768e-06,-0.000916828,-0.000902405,-0.00231327,45.5748,46.1829,0.14011,24.7689,49.0054,43.4248,-0.532369,46.9966,213,19.7324,0.484385,0.3975,5518
-1.32693e-06,7.31402e-07,-2.41955e-06,-0.00100879,-0.000303062,-0.00259991,51.7936,81.8732,-1.66922,41.9709,82.0957,51.7479,-1.84602,73.619,213,19.7324,1.45939,0.3975,5519
1.19196e-06,-1.01141e-06,-2.39903e-06,-0.000930003,-0.000856792,-0.00232544,45.7541,48.8671,0.200278,25.7033,50.9082,44.4118,-0.498466,48.486,213,0.367583,19.0156,0.3975,5520
1.33194e-06,-5.66312e-07,-2.41889e-06,-0.00104273,-0.000229574,-0.00260991,51.7069,86.2165,-1.09237,43.9298,86.5268,51.6369,-1.33272,76.6237,213,0.367583,18.0406,0.3975,5521
6.97782e-07,-1.02636e-06,-2.53144e-06,-0.000307331,-0.000965821,-0.00260575,82.8011,54.8649,-1.27258,42.3673,83.1836,54.761,-1.55114,74.6956,213,1.29031,19.0156,0.3975,5522
-1.32869e-06,-5.64005e-07,-2.41816e-06,-0.00100586,-0.000247364,-0.002623,53.3991,85.698,-1.37678,43.7673,85.9767,53.3015,-1.55793,76.6144,213,19.7324,18.0406,0.3975,5523
-1.1872e-06,-1.0063e-06,-2.40295e-06,-0.000925365,-0.000855772,-0.00231131,45.8776,48.831,-0.177508,25.9776,51.0738,44.3388,-0.881468,48.9366,213,19.7324,19.0156,0.3975,5524
-6.99877e-07,-1.01976e-06,-2.53045e-06,-0.00032437,-0.000910811,-0.00263707,82.6898,57.707,-1.63088,42.4269,83.0388,57.5421,-1.81495,75.4105,213,18.8097,19.0156,0.3975,5525
4.2366e-07,1.05586e-06,-2.50343e-06,-0.000151248,-0.000738706,-0.00279804,98.2098,73.2773,-0.731372,49.5196,98.2586,73.2778,-0.780669,89.2118,213,2.65784,0.849583,0.3975,5526
3.18583e-07,1.05854e-06,-2.4918e-06,-8.77424e-05,-0.00082249,-0.00276131,101.057,69.8642,0.418282,50.3879,101.126,69.8625,0.350593,89.3451,213,3.58056,0.849583,0.3975,5527
5.97201e-07,9.76755e-07,-2.5593e-06,-0.000234785,-0.00068964,-0.00276112,94.3128,75.0188,0.113805,47.1649,94.3865,75.0022,0.0566615,86.2865,213,1.77033,0.962542,0.3975,5528
4.26585e-07,6.21844e-07,-2.57578e-06,-0.000158212,-0.000220599,-0.00297082,129.203,125.88,-0.622856,65.1113,129.596,125.492,-0.627031,128.22,213,2.68271,1.81212,0.3975,5529
7.36606e-07,7.11866e-07,-2.60981e-06,-0.000350888,-0.000348714,-0.00286367,94.595,94.6873,0.516736,47.598,95.6837,93.6276,0.487736,94.1847,213,1.31519,1.44693,0.3975,5530
2.37191e-07,1.11082e-06,-2.4951e-06,-8.30592e-05,-0.000727605,-0.00280577,102.927,75.6027,-0.617305,51.8506,103.02,75.5739,-0.681299,93.0646,213,4.50329,0.849583,0.3975,5531
1.25561e-07,1.2171e-06,-2.47684e-06,-3.95978e-05,-0.000852073,-0.00278891,102.586,69.2843,-1.64867,52.1832,102.652,69.2832,-1.71395,92.3212,213,6.05058,0.712873,0.3975,5532
1.00438e-07,1.21536e-06,-2.48577e-06,-4.22758e-05,-0.000902624,-0.00280287,89.5826,58.1662,1.67376,44.0842,89.7146,58.1618,1.54614,77.3776,213,6.97331,0.712873,0.3975,5533
2.40512e-07,6.0441e-07,-2.57915e-06,-8.01603e-05,-0.000204326,-0.00311973,114.269,108.681,-1.08761,57.6793,114.271,108.679,-1.08782,112.667,213,4.41072,1.99158,0.3975,5534
1.73011e-07,9.49283e-07,-2.55585e-06,-7.13243e-05,-0.000638405,-0.00280066,126.086,97.5352,1.39213,62.3842,126.124,97.5345,1.35524,113.214,213,5.3438,1.142,0.3975,5535
1.38974e-07,6.54708e-07,-2.57678e-06,-4.71811e-05,-0.000238184,-0.00321481,80.9584,75.4555,-0.0173415,40.5383,81.059,75.3552,-0.0176631,78.3806,213,5.95801,1.85487,0.3975,5536
6.3745e-08,1.16229e-06,-2.50266e-06,-3.7432e-05,-0.00086134,-0.00283984,84.6243,56.238,0.385313,42.2743,84.7937,56.209,0.244962,74.4901,213,7.78971,0.811382,0.3975,5537
3.92369e-08,1.16414e-06,-2.49739e-06,-2.57368e-05,-0.000811696,-0.0028688,91.7267,62.7904,0.684219,45.6295,91.8388,62.7826,0.579871,80.7516,213,8.71244,0.811382,0.3975,5538
7.2959e-08,7.76176e-07,-2.58732e-06,-3.73101e-05,-0.000276605,-0.00299884,137.538,125.208,0.504374,68.5355,137.557,125.207,0.4862,131.332,213,7.4812,1.52425,0.3975,5539
5.94421e-09,1.00476e-06,-2.54475e-06,-2.12795e-05,-0.000703354,-0.0028893,107.343,78.4014,-0.828728,54.1217,107.395,78.3691,-0.848387,97.0426,213,9.58864,1.06179,0.3975,5540
-6.27975e-09,1.00127e-06,-2.54998e-06,-2.06082e-05,-0.000711504,-0.00288476,107.025,77.7068,-1.17404,54.1305,107.073,77.6733,-1.18823,96.9637,213,10.5114,1.06179,0.3975,5541
2.2967e-08,6.69208e-07,-2.5875e-06,-2.83107e-05,-0.000200304,-0.00298546,154.613,145.051,0.0990999,77.2733,154.643,145.023,0.0965324,149.968,213,9.1738,1.87317,0.3975,5542
-3.84744e-08,1.1652e-06,-2.50175e-06,-2.79454e-05,-0.000816818,-0.00285988,91.7695,62.7141,1.20585,45.4119,91.8999,62.7133,1.07621,80.3117,213,11.3876,0.811382,0.3975,5543
-6.47623e-08,1.16296e-06,-2.50293e-06,-3.5165e-05,-0.000864263,-0.00288385,72.3673,48.0915,0.915009,35.9092,72.5543,48.0835,0.736003,63.2395,213,12.3103,0.811382,0.3975,5544
-2.31148e-08,6.72226e-07,-2.58372e-06,-2.87333e-05,-0.000191569,-0.00309944,119.157,113.042,0.317677,59.4441,119.197,113.01,0.309337,115.918,213,10.9262,1.87317,0.3975,5545
-9.60421e-08,1.23459e-06,-2.47985e-06,-4.05393e-05,-0.000913463,-0.0027094,103.486,66.5693,2.92711,50.4343,103.643,66.5648,2.7745,88.3699,213,13.1267,0.712826,0.3975,5546
-1.26811e-07,1.21539e-06,-2.48394e-06,-4.45518e-05,-0.000840341,-0.00283556,88.8413,60.025,-1.8228,45.4067,88.918,60.0211,-1.89551,80.361,213,14.0494,0.712826,0.3975,5547
-7.30541e-08,7.68431e-07,-2.58099e-06,-3.36418e-05,-0.000280156,-0.00308078,115.396,104.92,-1.78727,58.5996,115.407,104.915,-1.79252,112.321,213,12.6188,1.52421,0.3975,5548
-2.37737e-07,1.12016e-06,-2.4942e-06,-8.75685e-05,-0.000711537,-0.00280007,103.309,76.8298,0.0163646,51.7531,103.451,76.7595,-0.0553143,93.0766,213,15.5967,0.849583,0.3975,5549
-3.20075e-07,1.05497e-06,-2.497e-06,-8.81211e-05,-0.000832356,-0.00274754,100.617,69.021,0.0396939,50.3725,100.703,69.0172,-0.0423273,89.2266,213,16.5194,0.849583,0.3975,5550
-1.73011e-07,9.52574e-07,-2.55369e-06,-6.82308e-05,-0.000648511,-0.00283582,107.07,82.433,2.1587,52.4968,107.111,82.4325,2.1178,95.0872,213,14.7562,1.14198,0.3975,5551
-2.38379e-07,5.98819e-07,-2.58002e-06,-7.96782e-05,-0.000209439,-0.00309926,114.498,109.002,-0.839118,57.6698,114.499,109.002,-0.840272,112.691,213,15.6893,1.99156,0.3975,5552
-1.38673e-07,6.46625e-07,-2.58383e-06,-5.2118e-05,-0.000240355,-0.00307881,116.581,108.587,1.06239,57.8578,116.767,108.413,1.05102,111.773,213,14.1419,1.8548,0.3975,5553
-4.18993e-07,1.05412e-06,-2.51307e-06,-0.000143677,-0.000749916,-0.00283749,85.5699,62.8871,-0.860676,43.2784,85.6337,62.8857,-0.923086,77.721,213,17.4422,0.849583,0.3975,5554
-4.28569e-07,6.21673e-07,-2.57089e-06,-0.000165139,-0.000219365,-0.00297133,128.643,125.77,-0.760901,64.8543,128.943,125.474,-0.765426,128.009,213,17.4173,1.81212,0.3975,5555
-5.97673e-07,9.7167e-07,-2.56211e-06,-0.00024375,-0.000668424,-0.00270031,111.673,90.2601,0.550449,55.6271,111.762,90.2138,0.507769,102.198,213,18.3297,0.962542,0.3975,5556
-7.42792e-07,7.17648e-07,-2.61654e-06,-0.000338135,-0.000342918,-0.00287019,95.5934,95.3904,0.60549,47.8909,96.3604,94.6503,0.578587,94.9383,213,18.7848,1.44693,0.3975,5557
1.16878e-06,-3.17884e-07,-2.45801e-06,-0.000837409,-0.000119057,-0.00276681,67.6906,98.1613,-0.639355,49.4879,98.2492,67.69,-0.726678,87.7808,213,0.655674,16.8026,0.3975,5558
1.17962e-06,-2.29781e-07,-2.45722e-06,-0.000835907,-7.21696e-05,-0.00283864,59.9051,88.1779,-0.327073,44.3566,88.2916,59.8859,-0.421564,78.4662,213,0.655674,15.8276,0.3975,5559
1.01741e-06,-4.2155e-07,-2.5182e-06,-0.000726108,-0.000170646,-0.0027513,74.2641,97.8411,0.445364,48.7795,97.9268,74.2561,0.367727,88.1407,213,0.847604,17.5625,0.3975,5560
6.88229e-07,-3.03529e-07,-2.57664e-06,-0.000254671,-0.000106558,-0.00302777,118.994,126.146,-1.25177,63.8308,126.408,118.734,-1.25361,124.003,213,1.60328,16.815,0.3975,5561
7.29774e-07,-5.12672e-07,-2.59289e-06,-0.000376344,-0.000253762,-0.00297863,93.7454,98.9833,-2.2108,50.652,99.0928,93.6362,-2.21111,98.6888,213,1.31519,18.0531,0.3975,5562
1.07751e-06,-1.64869e-07,-2.50245e-06,-0.00078295,-5.02076e-05,-0.00282355,72.957,104.047,-0.190878,52.1968,104.149,72.9081,-0.244216,92.8043,213,0.841592,14.9984,0.3975,5563
1.09291e-06,-1.25735e-07,-2.50578e-06,-0.000770963,-4.48722e-05,-0.00286553,64.261,91.0908,-0.0984932,45.6639,91.1725,64.2362,-0.155394,81.2792,213,0.841592,14.0234,0.3975,5564
7.19576e-07,-1.76754e-07,-2.57317e-06,-0.000228558,-6.558e-05,-0.00297133,141.15,150.209,-0.730736,75.4879,150.245,141.115,-0.731228,146.624,213,1.59727,15.226,0.3975,5565
1.27644e-06,-7.8931e-08,-2.4551e-06,-0.000915196,-3.45104e-05,-0.0026988,72.9542,114.957,-1.20317,58.1424,115.032,72.9294,-1.2531,101.975,213,0.597879,13.1061,0.3975,5566
1.28194e-06,-5.49333e-08,-2.45745e-06,-0.000881683,-2.81533e-05,-0.00281008,57.6877,89.4033,-0.788376,45.2098,89.5321,57.6582,-0.88762,79.4332,213,0.597879,12.1311,0.3975,5567
7.60886e-07,-9.27489e-08,-2.57497e-06,-0.000276476,-4.07047e-05,-0.00310627,87.0459,94.8837,-0.032763,47.4776,94.914,87.0242,-0.0413178,91.2665,213,1.53947,13.4796,0.3975,5568
1.03882e-06,-1.66698e-08,-2.52689e-06,-0.000714173,-2.54736e-05,-0.00280544,88.2439,121.263,0.094529,60.6342,121.331,88.2079,0.0625541,108.565,213,0.967271,11.1043,0.3975,5569
1.04537e-06,3.62642e-09,-2.52071e-06,-0.000715181,-2.45955e-05,-0.00287355,68.1351,93.6154,0.58133,46.5722,93.6777,68.1208,0.533304,83.358,213,0.967271,10.1293,0.3975,5570
7.16823e-07,-2.86585e-08,-2.58958e-06,-0.00026321,-2.74796e-05,-0.00313549,87.8472,95.7576,-0.100176,47.9532,95.7994,87.8122,-0.106949,92.1727,213,1.66515,11.5354,0.3975,5571
1.22218e-06,3.54649e-08,-2.458e-06,-0.000842019,-2.24301e-05,-0.00277347,69.8067,104.201,-0.878207,52.5854,104.247,69.8065,-0.923919,92.8705,213,0.716167,9.06465,0.3975,5572
1.19221e-06,5.87886e-08,-2.47494e-06,-0.000848414,-3.60752e-05,-0.00285712,48.6824,72.4685,0.7266,36.027,72.6372,48.6572,0.58311,63.5529,213,0.716167,8.08965,0.3975,5573
6.76728e-07,2.11162e-08,-2.59805e-06,-0.000233692,-2.44114e-05,-0.00316289,89.3157,96.3939,-0.137528,48.271,96.4022,89.3096,-0.139747,93.1983,213,1.78344,9.44393,0.3975,5574
1.31599e-06,9.44456e-08,-2.44174e-06,-0.000946435,-3.45722e-05,-0.00267848,70.9143,114.478,-0.579342,57.6272,114.582,70.9029,-0.672203,100.783,213,0.547658,7.30764,0.3975,5575
1.29949e-06,1.25419e-07,-2.44417e-06,-0.000951842,-4.30388e-05,-0.00271805,61.987,100.564,-0.54575,50.6967,100.721,61.9566,-0.672425,88.6163,213,0.547658,6.33264,0.3975,5576
8.21392e-07,7.35431e-08,-2.57541e-06,-0.000329907,-3.56647e-05,-0.00310104,83.9783,94.0347,-0.158421,47.1128,94.0586,83.963,-0.166988,89.6053,213,1.36383,7.59729,0.3975,5577
1.07227e-06,1.81228e-07,-2.50529e-06,-0.000766923,-6.26184e-05,-0.00285923,64.0918,90.108,-0.22774,45.2466,90.1973,64.0707,-0.295913,80.6681,213,0.841592,5.47658,0.3975,5578
1.06173e-06,2.39798e-07,-2.49568e-06,-0.000772857,-6.90894e-05,-0.00282608,73.0726,102.933,-0.416911,51.7448,103.019,73.0407,-0.470855,92.23,213,0.841592,4.50158,0.3975,5579
7.65602e-07,1.44754e-07,-2.5686e-06,-0.000282234,-5.56981e-05,-0.0029925,119.519,130.087,0.128415,65.0183,130.159,119.453,0.122416,125.028,213,1.48925,5.95922,0.3975,5580
1.16727e-06,3.1912e-07,-2.44815e-06,-0.000841068,-9.21e-05,-0.0027592,68.2789,100.067,-0.151701,50.2131,100.174,68.2729,-0.252412,88.8785,213,0.655674,3.67244,0.3975,5581
1.16351e-06,4.39206e-07,-2.45352e-06,-0.00083453,-0.000159891,-0.00271648,67.053,95.6818,-0.429642,48.1423,95.7676,67.0545,-0.516952,85.6185,213,0.655674,2.69744,0.3975,5582
7.00659e-07,2.55856e-07,-2.57681e-06,-0.000218579,-8.89186e-05,-0.00310317,108.654,113.936,-0.590048,57.2653,113.94,108.651,-0.590613,111.98,213,1.59727,4.27402,0.3975,5583
6.75199e-07,4.33479e-07,-2.57479e-06,-0.000241361,-0.000149344,-0.00303149,105.552,109.457,-0.506933,55.1579,109.804,105.21,-0.511733,108.092,213,1.60328,2.68498,0.3975,5584
9.93377e-07,5.75482e-07,-2.53657e-06,-0.000726175,-0.000217656,-0.00276286,73.0747,94.6481,0.174419,47.2952,94.7114,73.0648,0.120946,85.8392,213,0.847604,1.93754,0.3975,5585
-1.16524e-06,4.36647e-07,-2.45739e-06,-0.000851353,-0.0001555,-0.00269592,66.0526,95.5817,-0.456284,48.1172,95.6831,66.0463,-0.551387,85.3659,213,19.4443,2.69744,0.3975,5586
-1.16529e-06,3.20519e-07,-2.4496e-06,-0.00085234,-9.11477e-05,-0.00275812,67.4961,99.8046,-0.301581,50.1718,99.9358,67.4711,-0.407792,88.6858,213,19.4443,3.67244,0.3975,5587
-9.86066e-07,5.74791e-07,-2.54577e-06,-0.000710108,-0.000224244,-0.00276122,74.1751,94.7847,0.576136,47.1713,94.8632,74.1521,0.520594,85.881,213,19.2524,1.93754,0.3975,5588
-6.73407e-07,4.3407e-07,-2.57872e-06,-0.000247158,-0.000154719,-0.00297313,123.87,128.736,-0.634604,64.8028,128.966,123.644,-0.639191,127.028,213,18.4967,2.68498,0.3975,5589
-1.05733e-06,2.37982e-07,-2.49383e-06,-0.000774326,-7.04645e-05,-0.00281152,73.0045,102.87,-0.299468,51.6562,102.958,72.9708,-0.354057,92.0576,213,19.2584,4.50158,0.3975,5590
-1.07761e-06,1.79986e-07,-2.4981e-06,-0.00076866,-5.96918e-05,-0.0028346,64.6221,90.7807,0.859624,45.0575,90.885,64.6075,0.769929,80.2698,213,19.2584,5.47658,0.3975,5591
-7.02761e-07,2.5645e-07,-2.57767e-06,-0.0002259,-8.91883e-05,-0.00306235,121.737,128.436,-0.666525,64.5516,128.436,121.737,-0.66683,125.887,213,18.5027,4.27402,0.3975,5592
-1.30586e-06,1.29854e-07,-2.43297e-06,-0.00093213,-4.66566e-05,-0.00269803,63.1462,100.241,-1.73734,51.0207,100.272,63.1462,-1.76887,89.456,213,19.5523,6.33264,0.3975,5593
-1.31939e-06,9.08331e-08,-2.43954e-06,-0.000897733,-3.86728e-05,-0.00282733,46.1304,71.2924,0.140357,35.769,71.4853,46.1306,-0.05275,62.823,213,19.5523,7.30764,0.3975,5594
-7.63401e-07,1.4572e-07,-2.56164e-06,-0.00028046,-5.40216e-05,-0.00303947,104.596,114.048,-1.98891,58.0422,114.092,104.555,-1.99206,111.622,213,18.6108,5.95922,0.3975,5595
-1.25069e-06,3.29771e-08,-2.4433e-06,-0.00085642,-2.79806e-05,-0.0026248,82.7332,122.517,9.5817,57.1484,123.199,82.7314,8.9019,100.38,213,19.3838,9.06465,0.3975,5596
-1.21308e-06,6.25196e-08,-2.46301e-06,-0.000836285,-3.15372e-05,-0.00272822,77.2019,115.891,-3.53777,59.7357,115.932,77.1617,-3.53896,105.568,213,19.3838,8.08965,0.3975,5597
-8.02524e-07,7.49015e-08,-2.56507e-06,-0.000364198,-3.60459e-05,-0.00298187,102.383,116.312,3.81739,56.3921,116.469,102.358,3.68504,106.433,213,18.7362,7.59729,0.3975,5598
-1.0589e-06,5.00145e-09,-2.49929e-06,-0.000724183,-2.45169e-05,-0.00277013,80.3496,110.025,5.62194,52.4148,110.238,80.3493,5.40879,93.538,213,19.1327,10.1293,0.3975,5599
-1.04433e-06,-1.99602e-08,-2.50943e-06,-0.000703114,-2.70495e-05,-0.00284443,67.6822,91.0374,6.22713,42.7475,91.3893,67.663,5.8944,76.445,213,19.1327,11.1043,0.3975,5600
-6.56017e-07,2.11878e-08,-2.58457e-06,-0.000253684,-2.43943e-05,-0.00313286,88.3393,95.978,-0.370971,48.1811,95.9845,88.3395,-0.377711,92.7763,213,18.3166,9.44392,0.3975,5601
-1.28317e-06,-5.25309e-08,-2.45745e-06,-0.000852679,-2.91895e-05,-0.00270244,78.9743,118.391,1.59333,58.5841,118.577,78.9736,1.40847,103.231,213,19.5021,12.1311,0.3975,5602
-1.28053e-06,-8.13771e-08,-2.44356e-06,-0.000895943,-3.73085e-05,-0.00266458,74.1403,115.154,-1.46314,58.3976,115.243,74.1405,-1.5523,102.616,213,19.5021,13.1061,0.3975,5603
-7.07195e-07,-2.83829e-08,-2.57694e-06,-0.000271833,-2.60813e-05,-0.00310739,86.8225,95.2554,-0.722874,48.0079,95.2917,86.7875,-0.724154,92.0588,213,18.4348,11.5354,0.3975,5604
-1.10148e-06,-1.26128e-07,-2.49829e-06,-0.000776517,-4.18757e-05,-0.00274751,83.453,118.703,0.495129,59.1507,118.759,83.4346,0.457578,105.186,213,19.2584,14.0234,0.3975,5605
-1.07694e-06,-1.64331e-07,-2.50286e-06,-0.000787578,-4.91878e-05,-0.00281348,72.5913,103.921,-0.358877,52.2068,104.012,72.5435,-0.401832,92.7725,213,19.2584,14.9984,0.3975,5606
-7.56817e-07,-9.55314e-08,-2.57027e-06,-0.000270547,-4.22407e-05,-0.00305806,106.28,116.169,0.529612,57.8326,116.191,106.261,0.526232,111.034,213,18.5605,13.4796,0.3975,5607
-1.18147e-06,-2.2941e-07,-2.45883e-06,-0.000838454,-7.22817e-05,-0.00273662,77.6843,114.359,-0.575757,57.533,114.43,77.6727,-0.635611,101.793,213,19.4443,15.8276,0.3975,5608
-1.17105e-06,-3.16769e-07,-2.45742e-06,-0.000830249,-0.000119327,-0.00281894,58.7288,85.1645,-1.0255,43.1671,85.2368,58.7283,-1.09732,76.6009,213,19.4443,16.8026,0.3975,5609
-7.19341e-07,-1.75843e-07,-2.57558e-06,-0.000224064,-6.57199e-05,-0.00318677,88.5675,94.2228,-0.178156,47.2145,94.2509,88.5394,-0.178157,91.7068,213,18.5027,15.226,0.3975,5610
-6.88304e-07,-3.00678e-07,-2.57733e-06,-0.000259039,-0.000102392,-0.00304198,105.335,111.984,-0.725888,56.4666,112.201,105.125,-0.73235,109.567,213,18.4967,16.815,0.3975,5611
-1.01834e-06,-4.1933e-07,-2.52189e-06,-0.000726424,-0.000169359,-0.00271259,87.6388,115.701,0.365404,57.7121,115.746,87.6384,0.321265,104.252,213,19.2524,17.5625,0.3975,5612
-7.26545e-07,-5.10513e-07,-2.59957e-06,-0.000371245,-0.000268151,-0.00289996,94.9905,99.3663,0.374542,49.5585,99.4704,94.9075,0.353381,96.9162,213,18.7848,18.0531,0.3975,5613
-3.83856e-07,-7.83077e-07,-2.55657e-06,-0.000151478,-0.000671378,-0.00283593,99.6371,77.5754,-0.831943,50.2895,99.6932,77.5731,-0.885739,91.5456,213,17.4422,18.6504,0.3975,5614
-2.80494e-07,-7.70218e-07,-2.54873e-06,-8.21665e-05,-0.000767696,-0.00279414,102.621,73.5163,0.396685,51.1916,102.704,73.5094,0.320663,91.3544,213,16.5194,18.6504,0.3975,5615
-5.63265e-07,-7.31221e-07,-2.58229e-06,-0.000237397,-0.000628631,-0.00279164,95.5216,78.9272,0.161492,47.7693,95.6469,78.8551,0.10825,88.3478,213,18.3297,18.5375,0.3975,5616
-4.15378e-07,-4.2166e-07,-2.57777e-06,-0.000162692,-0.00013596,-0.00307837,110.769,111.904,-0.813765,56.7452,112.674,110.001,-0.816262,112.178,213,17.4173,17.6879,0.3975,5617
-2.02914e-07,-8.27069e-07,-2.54675e-06,-8.11237e-05,-0.000641912,-0.00283154,105.738,81.9825,0.879207,52.6116,105.982,81.858,0.759279,95.4749,213,15.5967,18.6504,0.3975,5618
-9.9829e-08,-9.18605e-07,-2.55063e-06,-2.77886e-05,-0.000826608,-0.00281281,103.798,69.925,-1.59614,52.8279,103.941,69.9,-1.71445,93.4093,213,14.048,18.7974,0.3975,5619
-7.9189e-08,-9.15838e-07,-2.55151e-06,-3.29209e-05,-0.000862011,-0.00283891,89.7851,59.0192,-0.32734,45.218,89.9652,58.9826,-0.470832,79.6031,213,13.1253,18.7974,0.3975,5620
-2.28055e-07,-4.0447e-07,-2.56295e-06,-7.99886e-05,-0.000109462,-0.00316792,116.361,115.288,-1.64484,59.0093,116.369,115.285,-1.64956,117.48,213,15.6841,17.5146,0.3975,5621
-1.48354e-07,-6.74834e-07,-2.57601e-06,-6.43269e-05,-0.000579073,-0.00291672,107.826,85.9776,0.176185,53.8622,107.864,85.9771,0.139122,98.6198,213,14.7511,18.3642,0.3975,5622
-1.27773e-07,-4.43044e-07,-2.57386e-06,-4.55362e-05,-0.00014421,-0.00316864,118.229,114.194,-0.830581,59.8199,118.808,113.617,-0.832232,117.131,213,14.1355,17.6616,0.3975,5623
-5.16528e-08,-8.54952e-07,-2.55415e-06,-2.91998e-05,-0.000800326,-0.00280373,105.155,72.4337,0.0895188,52.6663,105.321,72.3682,-0.011315,93.3265,213,12.3516,18.6819,0.3975,5624
-3.33654e-08,-8.56027e-07,-2.5537e-06,-1.87959e-05,-0.000746266,-0.00286052,106.899,75.7906,-0.0731795,53.636,107.062,75.7638,-0.209694,95.548,213,11.4289,18.6819,0.3975,5625
-6.46034e-08,-5.31036e-07,-2.58123e-06,-3.35953e-05,-0.000166908,-0.00308105,140.288,133.902,-0.89448,70.5944,140.292,133.9,-0.89675,138.104,213,12.6587,17.9793,0.3975,5626
-4.00843e-09,-7.18745e-07,-2.56863e-06,-1.96422e-05,-0.00063352,-0.00286942,123.442,94.0892,-0.366684,61.9398,123.5,94.0442,-0.379613,112.093,213,10.5114,18.4382,0.3975,5627
4.35943e-09,-7.1697e-07,-2.57265e-06,-1.74237e-05,-0.000638641,-0.00286646,123.591,93.8941,-0.181653,61.9182,123.643,93.8549,-0.193931,111.955,213,9.58864,18.4382,0.3975,5628
-2.25141e-08,-4.48233e-07,-2.57776e-06,-2.50254e-05,-0.00012708,-0.00320227,98.5734,95.4389,0.220219,49.2029,98.6151,95.4081,0.209325,96.8421,213,10.9675,17.6201,0.3975,5629
3.23653e-08,-8.58821e-07,-2.55539e-06,-2.27173e-05,-0.000749026,-0.00285894,106.548,75.5468,-0.100735,53.4943,106.72,75.5422,-0.268355,95.3044,213,8.64142,18.6863,0.3975,5630
5.39021e-08,-8.56209e-07,-2.55486e-06,-2.75563e-05,-0.00080385,-0.00280848,105.13,72.1912,-0.00933491,52.6825,105.254,72.1692,-0.111216,93.3297,213,7.71869,18.6863,0.3975,5631
2.2002e-08,-4.51667e-07,-2.57808e-06,-2.52e-05,-0.000123714,-0.00319521,98.947,95.9502,0.811882,49.0998,98.9889,95.9308,0.78929,96.7069,213,9.10278,17.6245,0.3975,5632
7.71466e-08,-9.60706e-07,-2.53825e-06,-3.50421e-05,-0.000897161,-0.00279972,89.1439,57.3129,0.0167564,44.7541,89.3395,57.3027,-0.168623,78.5526,213,6.94707,18.8284,0.3975,5633
1.02436e-07,-9.3271e-07,-2.54371e-06,-3.21154e-05,-0.000828611,-0.00286378,89.8105,59.8123,-1.41997,45.7487,89.9555,59.7893,-1.54199,80.7568,213,6.02434,18.8284,0.3975,5634
6.57498e-08,-5.29735e-07,-2.58387e-06,-3.21845e-05,-0.000190984,-0.00306048,140.364,132.492,0.447808,69.9801,140.388,132.487,0.428159,136.182,213,7.38394,18.0147,0.3975,5635
2.03013e-07,-8.34436e-07,-2.54197e-06,-7.62797e-05,-0.000667246,-0.00283452,105.331,80.249,0.609504,52.5128,105.518,80.1799,0.492011,94.9277,213,4.50329,18.6504,0.3975,5636
2.78158e-07,-7.75517e-07,-2.5479e-06,-8.20681e-05,-0.000776148,-0.00277503,102.3,72.8322,0.128765,51.2019,102.433,72.7979,0.0296781,91.2688,213,3.58056,18.6504,0.3975,5637
1.49574e-07,-6.80455e-07,-2.57069e-06,-6.25373e-05,-0.0005793,-0.00296336,88.2307,70.372,0.234358,44.0474,88.2804,70.371,0.185696,80.6455,213,5.34626,18.3773,0.3975,5638
2.27601e-07,-3.96615e-07,-2.56666e-06,-7.94392e-05,-0.00012366,-0.0031409,116.265,114.737,-1.51883,58.9056,116.292,114.71,-1.51916,117.028,213,4.41318,17.5278,0.3975,5639
1.27856e-07,-4.42416e-07,-2.57826e-06,-4.86288e-05,-0.000155233,-0.00306484,139.668,134.434,-0.326024,70.3211,140.306,133.806,-0.336029,137.507,213,5.93424,17.7057,0.3975,5640
3.86939e-07,-7.92187e-07,-2.55449e-06,-0.000159086,-0.000677324,-0.00278792,99.3931,77.4281,-0.127649,49.8413,99.4738,77.4287,-0.208901,90.6924,213,2.65784,18.6504,0.3975,5641
4.14171e-07,-4.23149e-07,-2.57944e-06,-0.000164199,-0.000118943,-0.00319076,90.6753,92.1417,-0.724361,46.6254,92.5258,90.2918,-0.724988,92.1541,213,2.68271,17.6879,0.3975,5642
5.63221e-07,-7.17784e-07,-2.58484e-06,-0.000236068,-0.000638857,-0.0027197,113.055,92.7469,0.599382,56.3373,113.219,92.6376,0.544515,103.924,213,1.77033,18.5375,0.3975,5643
-1.43292e-08,-5.77557e-09,-2.56173e-06,-2.91365e-05,-2.60851e-05,-0.00319669,122.26,122.39,0.0104117,61.1899,122.39,122.26,0.0104086,122.315,213,10.5339,10.5968,0.3975,5644
-4.70683e-08,3.07192e-09,-2.56115e-06,-3.17267e-05,-2.61778e-05,-0.00313248,144.465,144.747,0.0758684,72.3358,144.747,144.465,0.0756666,144.531,213,11.5915,10.2659,0.3975,5645
-3.01246e-08,2.75826e-08,-2.56131e-06,-3.12855e-05,-2.70213e-05,-0.00323944,106.067,106.223,-0.124367,53.1741,106.224,106.066,-0.124447,106.27,213,11.0622,9.34368,0.3975,5646
-3.05554e-08,5.14974e-08,-2.56107e-06,-3.11672e-05,-2.93737e-05,-0.0031948,121.979,122.055,-0.137875,61.0999,122.062,121.972,-0.1379,122.155,213,11.0844,8.49751,0.3975,5647
1.05207e-09,4.21218e-08,-2.56138e-06,-2.84979e-05,-2.92407e-05,-0.00313172,144.731,144.696,0.264927,72.2332,144.731,144.696,0.264827,144.449,213,10.0268,8.82834,0.3975,5648
3.14446e-08,5.24167e-08,-2.56129e-06,-3.0603e-05,-2.96178e-05,-0.00319451,122.069,122.111,-0.0240637,61.073,122.121,122.059,-0.0245301,122.115,213,8.99232,8.46722,0.3975,5649
3.23794e-08,2.7842e-08,-2.56151e-06,-3.10783e-05,-2.77539e-05,-0.00319651,121.948,122.089,-0.276681,61.1835,122.09,121.947,-0.277034,122.296,213,8.97013,9.3134,0.3975,5650
5.2057e-08,1.20928e-08,-2.5615e-06,-3.21676e-05,-2.63278e-05,-0.00329826,84.8598,85.0306,0.0714997,42.4796,85.0307,84.8598,0.0714086,84.874,213,8.35256,9.89197,0.3975,5651
1.94272e-08,2.86015e-09,-2.56174e-06,-3.01453e-05,-2.58557e-05,-0.00319739,122.093,122.276,-0.193487,61.235,122.276,122.093,-0.193763,122.379,213,9.38706,10.2531,0.3975,5652
3.56187e-09,-2.06887e-08,-2.56185e-06,-2.98796e-05,-2.51107e-05,-0.00313588,144.54,144.78,-0.113293,72.4468,144.78,144.54,-0.113404,144.774,213,9.91635,11.1754,0.3975,5653
2.34151e-07,1.7642e-07,-2.54711e-06,-8.4013e-05,-6.1139e-05,-0.00308778,139.425,140.576,-0.155348,70.3857,140.616,139.385,-0.155372,140.16,213,4.71445,5.48368,0.3975,5654
2.759e-07,1.27529e-07,-2.54478e-06,-9.42129e-05,-4.94155e-05,-0.00308925,139.079,141.331,0.0833971,70.6307,141.345,139.065,0.0832668,140.136,213,4.2808,6.34262,0.3975,5655
2.05984e-07,1.20051e-07,-2.55102e-06,-7.2459e-05,-4.78439e-05,-0.00322397,97.1424,97.9897,-0.132908,49.0678,98.0027,97.1294,-0.132922,97.7019,213,5.12928,6.54949,0.3975,5656
1.78567e-07,2.20098e-07,-2.54877e-06,-6.45417e-05,-7.7851e-05,-0.0031474,118.76,118.195,-0.118409,59.4704,118.822,118.133,-0.118586,118.598,213,5.42512,4.90775,0.3975,5657
2.41584e-07,2.31167e-07,-2.54368e-06,-8.57859e-05,-8.08801e-05,-0.003134,117.427,117.635,0.0863414,58.871,117.828,117.234,0.0861902,117.446,213,4.57664,4.70087,0.3975,5658
1.64047e-07,9.68326e-08,-2.55498e-06,-6.19599e-05,-4.09561e-05,-0.00316732,120.118,121.01,0.599756,60.2112,121.022,120.106,0.599635,119.967,213,5.78426,7.09838,0.3975,5659
1.36425e-07,1.3763e-07,-2.55575e-06,-5.35966e-05,-5.22104e-05,-0.00310636,142.225,142.293,0.298653,71.0471,142.393,142.125,0.298561,141.961,213,6.21792,6.23944,0.3975,5660
1.38297e-07,1.95818e-07,-2.55239e-06,-5.40543e-05,-6.9375e-05,-0.00309775,141.737,140.964,0.292962,70.7428,141.779,140.922,0.292931,141.06,213,6.12758,5.27546,0.3975,5661
1.43167e-07,2.56695e-07,-2.5469e-06,-5.48257e-05,-8.83279e-05,-0.00320864,97.4568,96.2889,0.101778,48.6858,97.4732,96.2726,0.101668,96.7768,213,5.98976,4.49265,0.3975,5662
1.07776e-07,1.62696e-07,-2.55551e-06,-4.40213e-05,-6.08176e-05,-0.00323231,98.4549,97.8744,-0.0285693,49.2492,98.4698,97.8595,-0.0285749,98.1947,213,6.78256,5.82434,0.3975,5663
9.52184e-08,-1.10251e-07,-2.55688e-06,-4.33335e-05,-4.36832e-05,-0.00318109,120.599,120.584,-0.667558,60.6742,120.68,120.504,-0.668482,121.261,213,7.08684,13.9275,0.3975,5664
6.91612e-08,-8.56668e-08,-2.55929e-06,-3.58232e-05,-3.8369e-05,-0.00314014,137.604,137.485,0.31924,68.6637,137.646,137.443,0.319131,137.226,213,7.78351,13.3077,0.3975,5665
1.22317e-07,-7.68253e-08,-2.55833e-06,-4.95616e-05,-3.54199e-05,-0.00311839,142.901,143.615,0.150476,71.7374,143.625,142.891,0.150392,143.109,213,6.54565,13.1056,0.3975,5666
1.25389e-07,-1.3469e-07,-2.55449e-06,-5.04983e-05,-5.18783e-05,-0.00322835,98.587,98.5415,0.565397,49.0408,98.6468,98.4818,0.56524,97.9992,213,6.41097,14.4695,0.3975,5667
7.09013e-08,-1.47698e-07,-2.55388e-06,-3.64648e-05,-5.48693e-05,-0.00321359,105.432,104.755,0.236382,52.6034,105.443,104.744,0.236375,104.859,213,7.64883,14.6717,0.3975,5668
1.39345e-07,-4.26047e-08,-2.55838e-06,-5.59257e-05,-2.8348e-05,-0.00324344,98.4779,99.4286,0.0929562,49.6688,99.4304,98.4763,0.0927689,98.864,213,6.25704,12.0431,0.3975,5669
1.80471e-07,-6.08635e-08,-2.55563e-06,-6.52044e-05,-3.26867e-05,-0.00311064,141.811,143.452,0.236582,71.6109,143.458,141.805,0.236335,142.402,213,5.56036,12.6629,0.3975,5670
2.38933e-07,-4.67648e-08,-2.55104e-06,-8.2118e-05,-2.90191e-05,-0.00322488,97.0137,98.8491,-0.0500937,49.4503,98.8505,97.0124,-0.0501517,97.9945,213,4.78124,12.2156,0.3975,5671
2.12571e-07,-8.18158e-08,-2.55338e-06,-7.64014e-05,-3.64915e-05,-0.0031673,118.851,120.544,-0.231595,60.391,120.55,118.845,-0.231602,119.938,213,5.06986,13.2781,0.3975,5672
2.26757e-07,-1.08637e-07,-2.55156e-06,-8.30206e-05,-4.10835e-05,-0.00316347,118.387,120.167,-0.105945,60.1406,120.175,118.38,-0.106331,119.394,213,4.85747,13.9743,0.3975,5673
2.4258e-07,-1.51636e-07,-2.54315e-06,-8.70626e-05,-5.70184e-05,-0.0030844,139.468,140.982,0.170463,70.4288,141.028,139.422,0.170346,140.062,213,4.60968,14.8635,0.3975,5674
1.70405e-07,-1.40751e-07,-2.55143e-06,-6.15987e-05,-5.47355e-05,-0.00316294,119.435,119.728,-0.161592,59.9773,119.793,119.371,-0.161891,119.744,213,5.60118,14.6146,0.3975,5675
2.9981e-07,-9.0045e-08,-2.54752e-06,-0.000102316,-3.78912e-05,-0.00314926,117.333,120.05,0.0785216,59.9867,120.052,117.331,0.0784701,118.636,213,4.07836,13.527,0.3975,5676
1.34258e-07,-1.87683e-07,-2.55041e-06,-5.35331e-05,-6.83855e-05,-0.00310436,141.371,140.618,-0.529955,70.9722,141.413,140.577,-0.531336,141.528,213,6.16318,15.3587,0.3975,5677
-1.95073e-07,-5.9451e-08,-2.55538e-06,-6.76235e-05,-3.22979e-05,-0.0031054,142.118,143.902,1.16435,71.3739,143.911,142.111,1.16282,141.857,213,14.7812,12.6097,0.3975,5678
-1.55977e-07,-4.24774e-08,-2.55616e-06,-5.94524e-05,-2.85755e-05,-0.00322199,104.629,105.764,0.199929,52.7845,105.769,104.624,0.199924,105.001,213,14.1332,12.0401,0.3975,5679
-1.41752e-07,-7.33979e-08,-2.55761e-06,-5.44785e-05,-3.48128e-05,-0.0032397,98.3918,99.0709,0.00803068,49.5334,99.0748,98.388,0.00797135,98.7252,213,13.9368,13.0139,0.3975,5680
-2.22709e-07,-7.97367e-08,-2.55472e-06,-7.79991e-05,-3.60129e-05,-0.00311459,139.88,141.995,-1.4264,71.714,142,139.877,-1.42818,142.378,213,15.197,13.2071,0.3975,5681
-2.42066e-07,-4.78385e-08,-2.55236e-06,-8.11186e-05,-2.91101e-05,-0.00326765,82.4499,83.9732,-0.282473,42.1291,83.9757,82.4475,-0.282522,83.5046,213,15.3935,12.2333,0.3975,5682
-1.82285e-07,-1.33587e-07,-2.55231e-06,-6.55276e-05,-5.0819e-05,-0.00316351,119.332,119.956,-0.0458569,60.0143,119.983,119.306,-0.0459883,119.691,213,14.6827,14.4707,0.3975,5683
-2.45489e-07,-1.47669e-07,-2.54519e-06,-8.94222e-05,-5.39458e-05,-0.0030878,139.27,141.07,0.00586653,70.5473,141.1,139.24,0.0055916,140.174,213,15.5073,14.7906,0.3975,5684
-2.39532e-07,-1.06174e-07,-2.55166e-06,-8.69867e-05,-4.06969e-05,-0.00316015,118.155,120.116,-0.086212,60.1017,120.117,118.154,-0.0862824,119.234,213,15.4094,13.9034,0.3975,5685
-2.96841e-07,-9.05999e-08,-2.54943e-06,-0.000104517,-3.73298e-05,-0.00315649,116.856,119.742,-0.447322,60.0947,119.742,116.856,-0.447345,118.773,213,16.0216,13.527,0.3975,5686
-1.37603e-07,-1.14252e-07,-2.55579e-06,-5.38262e-05,-4.52324e-05,-0.00317096,120.228,120.591,-0.0150884,60.3169,120.619,120.2,-0.0151,120.425,213,13.9095,14.0344,0.3975,5687
-1.3955e-07,-1.59566e-07,-2.55163e-06,-5.50648e-05,-5.77751e-05,-0.00309998,141.949,141.815,0.26242,70.9079,142.078,141.686,0.262367,141.62,213,14.0073,14.9217,0.3975,5688
-1.0726e-07,-9.10676e-08,-2.55807e-06,-4.44519e-05,-4.03305e-05,-0.00317965,120.966,121.141,0.0309247,60.5733,121.177,120.93,0.0307627,121.023,213,13.2615,13.4648,0.3975,5689
-2.01318e-07,1.22815e-07,-2.55212e-06,-6.96012e-05,-4.85534e-05,-0.00310147,141.011,142.073,0.138048,70.9795,142.097,140.988,0.13775,141.408,213,14.9361,6.49479,0.3975,5690
-2.69351e-07,1.30658e-07,-2.54737e-06,-9.17732e-05,-4.978e-05,-0.00315576,117.711,119.494,0.0521468,59.7232,119.498,117.707,0.0520919,118.561,213,15.7851,6.2884,0.3975,5691
-2.33622e-07,1.76241e-07,-2.54806e-06,-8.47517e-05,-6.02014e-05,-0.00315342,117.921,118.964,0.02969,59.4757,118.98,117.905,0.0291077,118.417,213,15.3851,5.48319,0.3975,5692
-2.40764e-07,2.31414e-07,-2.54168e-06,-8.59568e-05,-8.21541e-05,-0.00313114,117.402,117.555,0.0976921,58.8418,117.781,117.176,0.097621,117.382,213,15.5232,4.70075,0.3975,5693
-1.77989e-07,2.19705e-07,-2.54835e-06,-6.32001e-05,-7.90393e-05,-0.00308048,141.096,140.305,0.907144,70.1227,141.152,140.249,0.906994,139.796,213,14.6742,4.90714,0.3975,5694
-1.35338e-07,1.37876e-07,-2.55542e-06,-5.24966e-05,-5.20309e-05,-0.00323499,97.9934,98.0081,-0.368013,49.2272,98.0864,97.9152,-0.368087,98.369,213,13.8685,6.23298,0.3975,5695
-1.60609e-07,9.91708e-08,-2.55455e-06,-6.00273e-05,-4.17828e-05,-0.00310924,141.901,142.819,0.0953989,71.3714,142.838,141.882,0.0952727,142.267,213,14.2685,7.03819,0.3975,5696
-1.4363e-07,2.57869e-07,-2.54698e-06,-5.47783e-05,-9.00034e-05,-0.00324557,82.9762,81.9445,0.258268,41.3647,82.9876,81.9332,0.258202,82.2073,213,14.1098,4.49252,0.3975,5697
-1.38451e-07,1.95527e-07,-2.55233e-06,-5.30595e-05,-6.94773e-05,-0.00310365,141.174,140.346,-0.923706,71.06,141.196,140.324,-0.923728,141.686,213,13.9717,5.27495,0.3975,5698
-1.06961e-07,1.62389e-07,-2.55522e-06,-4.51981e-05,-6.02376e-05,-0.00316541,120.76,120.124,0.580367,60.0973,120.775,120.11,0.580076,119.863,213,13.3041,5.81835,0.3975,5699
2.17497e-08,-2.14072e-07,-2.54988e-06,-2.64474e-05,-7.67178e-05,-0.00311176,143.395,140.86,-0.207959,71.8016,143.395,140.86,-0.208033,142.353,213,9.22861,15.6282,0.3975,5700
2.03712e-08,-3.17504e-07,-2.55644e-06,-2.53725e-05,-0.000116335,-0.00317106,119.597,115.718,-1.69347,60.6491,119.601,115.718,-1.69717,119.404,213,9.22802,16.7147,0.3975,5701
4.93207e-10,-2.73167e-07,-2.55329e-06,-2.42694e-05,-0.000101998,-0.00310474,142.61,138.697,-0.764656,71.6874,142.61,138.697,-0.764656,141.459,213,10.0506,16.2899,0.3975,5702
-1.55361e-08,-3.34353e-07,-2.56071e-06,-2.58587e-05,-0.000120973,-0.00315816,119.748,115.699,-1.15378,60.4536,119.752,115.697,-1.15557,118.932,213,10.6919,16.8638,0.3975,5703
-1.60454e-08,-2.2529e-07,-2.55181e-06,-2.68632e-05,-8.02994e-05,-0.00316232,121.688,119.41,0.945848,60.3716,121.689,119.409,0.945664,119.62,213,10.6925,15.7773,0.3975,5704
2.35815e-08,-1.50539e-07,-2.55376e-06,-2.81145e-05,-5.53616e-05,-0.00317677,121.714,120.559,0.0800684,60.8177,121.715,120.558,0.0800364,121.061,213,9.18794,14.6665,0.3975,5705
4.65464e-08,-1.74618e-07,-2.55183e-06,-2.90472e-05,-6.59881e-05,-0.00323729,98.9775,97.7005,-0.358053,49.6703,98.9822,97.6963,-0.358523,98.704,213,8.36537,15.0913,0.3975,5706
-3.72236e-09,-1.36176e-07,-2.55625e-06,-2.62593e-05,-5.24954e-05,-0.00324231,99.6119,98.7037,0.107369,49.7523,99.6119,98.7037,0.107368,99.0536,213,10.2011,14.3913,0.3975,5707
2.00102e-08,-1.10031e-07,-2.55786e-06,-2.86741e-05,-4.43171e-05,-0.003124,144.193,143.405,0.0118565,72.0912,144.194,143.404,0.0118214,143.789,213,9.33788,13.8544,0.3975,5708
-3.97321e-08,-2.142e-07,-2.55406e-06,-2.87501e-05,-7.68717e-05,-0.00317201,121.254,119.211,0.190122,60.5326,121.255,119.21,0.190119,120.055,213,11.5298,15.6408,0.3975,5709
-2.20469e-08,-1.74414e-07,-2.55399e-06,-2.80048e-05,-6.27812e-05,-0.00311707,143.613,141.856,-0.262621,71.9385,143.614,141.855,-0.262798,143.006,213,10.8885,15.0669,0.3975,5710
-2.702e-08,-1.28776e-07,-2.55737e-06,-2.91346e-05,-5.02347e-05,-0.00311677,144.428,143.363,0.826465,71.802,144.43,143.362,0.825926,143.073,213,11.0384,14.2548,0.3975,5711
-1.61106e-08,3.28432e-07,-2.54255e-06,-2.70642e-05,-0.000110587,-0.00315264,120.572,117.027,0.106102,60.2332,120.572,117.027,0.105947,118.733,213,10.6791,3.87002,0.3975,5712
-1.5884e-08,4.90653e-07,-2.55543e-06,-2.70403e-05,-0.000174011,-0.0030541,141.056,133.682,0.261445,70.3977,141.057,133.682,0.261197,137.257,213,10.6791,2.71232,0.3975,5713
7.62921e-10,4.03457e-07,-2.5426e-06,-2.5136e-05,-0.000144786,-0.00320719,97.6313,93.4896,-0.630176,49.1316,97.6322,93.4896,-0.63106,96.2588,213,10.05,3.28128,0.3975,5714
1.60356e-08,4.89192e-07,-2.55262e-06,-2.55451e-05,-0.000170371,-0.00315152,119.215,113.064,-0.141007,59.6805,119.22,113.06,-0.141224,116.403,213,9.42062,2.7126,0.3975,5715
1.64541e-08,3.28426e-07,-2.53935e-06,-2.59072e-05,-0.000108539,-0.00310612,142.521,138.359,-0.367037,71.4442,142.521,138.359,-0.367136,140.853,213,9.42062,3.8703,0.3975,5716
2.29423e-08,2.4114e-07,-2.54773e-06,-2.75167e-05,-8.17174e-05,-0.00309971,143.326,140.595,0.0651054,71.6309,143.327,140.594,0.0649167,141.915,213,9.18824,4.79022,0.3975,5717
2.35135e-08,1.78722e-07,-2.55393e-06,-2.85158e-05,-6.48323e-05,-0.00323556,99.0325,97.7796,-0.344207,49.6886,99.0329,97.7792,-0.344242,98.7563,213,9.18701,5.63775,0.3975,5718
8.84892e-11,2.02803e-07,-2.55295e-06,-2.60827e-05,-7.21966e-05,-0.00316684,121.598,119.64,0.319951,60.6391,121.598,119.64,0.319948,120.311,213,10.0488,5.28651,0.3975,5719
4.00417e-08,2.91832e-07,-2.5456e-06,-2.8614e-05,-9.96509e-05,-0.00324196,98.0471,95.5954,-1.01491,49.5324,98.0488,95.5948,-1.01606,97.861,213,8.55886,4.22154,0.3975,5720
-2.36378e-08,1.784e-07,-2.55646e-06,-2.84803e-05,-6.40947e-05,-0.00317493,121.494,119.982,0.0743037,60.7104,121.495,119.981,0.0742976,120.671,213,10.9088,5.63598,0.3975,5721
-2.29514e-08,2.40029e-07,-2.54982e-06,-2.79413e-05,-8.08939e-05,-0.00315992,121.31,119.061,0.368989,60.4715,121.312,119.059,0.36897,119.832,213,10.91,4.78846,0.3975,5722
-4.04094e-08,2.90977e-07,-2.5473e-06,-2.87861e-05,-0.000102125,-0.0031478,120.858,117.749,0.519684,60.1695,120.859,117.748,0.519651,118.814,213,11.5391,4.21949,0.3975,5723
-4.2842e-07,3.22267e-09,-2.56262e-06,-0.00013964,-2.38151e-05,-0.00312177,134.331,140.158,-3.63709,71.934,140.196,134.329,-3.67246,141.026,213,17.0148,10.1708,0.3975,5724
-4.92821e-07,2.01051e-08,-2.571e-06,-0.00015535,-2.47153e-05,-0.00311907,117.544,123.089,6.53381,58.4139,123.228,117.538,6.4004,114.089,213,17.4447,9.4784,0.3975,5725
-3.51416e-07,2.94707e-08,-2.54952e-06,-0.000104998,-2.63225e-05,-0.00323032,100.49,103.362,-2.99392,53.1886,103.376,100.483,-3.00108,104.961,213,16.394,9.14066,0.3975,5726
-3.33255e-07,-5.96792e-09,-2.54585e-06,-9.68541e-05,-2.40664e-05,-0.00318054,117.43,120.589,-0.752364,60.6743,120.596,117.424,-0.753008,119.794,213,16.2083,10.5572,0.3975,5727
-4.57206e-07,-1.35135e-08,-2.57045e-06,-0.000151769,-2.25869e-05,-0.00315716,114.892,120.375,0.92008,59.7372,120.39,114.882,0.915305,116.818,213,17.259,10.8949,0.3975,5728
-2.36538e-07,1.1998e-08,-2.54031e-06,-8.64396e-05,-2.38632e-05,-0.0030831,140.733,143.881,0.833352,71.5246,143.882,140.733,0.832785,141.501,213,15.1559,9.87516,0.3975,5729
-1.95552e-07,-9.58436e-09,-2.54785e-06,-7.10952e-05,-2.46625e-05,-0.00311106,140.969,143.306,-0.927868,72.118,143.308,140.968,-0.928183,143.08,213,14.6627,10.7765,0.3975,5730
-2.61245e-07,-9.40659e-09,-2.54147e-06,-8.85468e-05,-2.47786e-05,-0.00324383,82.4118,84.2799,0.154594,42.0649,84.284,82.4082,0.1541,83.2079,213,15.4709,10.7344,0.3975,5731
-2.7629e-07,-2.7395e-08,-2.54682e-06,-9.07785e-05,-2.42884e-05,-0.00309717,139.868,143.215,-0.163122,71.7012,143.239,139.845,-0.163572,141.736,213,15.7151,11.4585,0.3975,5732
-2.71656e-07,2.58351e-08,-2.53882e-06,-9.27733e-05,-2.59867e-05,-0.00313855,118.205,121.035,0.102821,60.4731,121.047,118.194,0.101104,119.545,213,15.5698,9.29117,0.3975,5733
-2.03048e-07,2.55987e-08,-2.54414e-06,-7.50926e-05,-2.56384e-05,-0.00315582,119.376,121.475,0.153755,60.6623,121.478,119.373,0.153652,120.286,213,14.7617,9.33327,0.3975,5734
-3.06245e-07,4.45932e-08,-2.54524e-06,-0.000100142,-2.77613e-05,-0.0031794,115.604,118.666,-3.8958,61.3003,118.695,115.585,-3.90589,121.076,213,15.9998,8.59877,0.3975,5735
3.51693e-07,2.92699e-08,-2.54181e-06,-0.000114561,-2.63238e-05,-0.0031504,116.855,120.601,0.237429,60.1833,120.604,116.852,0.237289,118.535,213,3.70591,9.14074,0.3975,5736
4.96556e-07,1.98496e-08,-2.56463e-06,-0.000160714,-2.55535e-05,-0.0030877,133.957,140.762,-1.17287,70.9703,140.767,133.952,-1.1731,138.658,213,2.65527,9.47841,0.3975,5737
4.34128e-07,3.23144e-09,-2.55073e-06,-0.000146802,-2.30529e-05,-0.00314561,114.709,119.979,0.0136528,59.9834,119.98,114.709,0.0129471,117.42,213,3.08518,10.1709,0.3975,5738
4.66607e-07,-1.35196e-08,-2.55743e-06,-0.000157849,-2.3072e-05,-0.00320535,98.8217,103.789,-0.561078,52.1776,103.793,98.8196,-0.562525,101.96,213,2.84484,10.894,0.3975,5739
3.30628e-07,-5.16949e-09,-2.54113e-06,-0.00010783,-2.3615e-05,-0.00309412,138.261,142.512,-0.742589,71.6278,142.513,138.26,-0.742793,141.177,213,3.89548,10.5564,0.3975,5740
2.50391e-07,-8.32763e-09,-2.54457e-06,-8.76219e-05,-2.41443e-05,-0.00315192,118.606,121.3,0.166172,60.5673,121.301,118.605,0.16607,119.81,213,4.70378,10.7169,0.3975,5741
1.8742e-07,-9.33868e-09,-2.55213e-06,-6.76483e-05,-2.44671e-05,-0.003173,119.646,121.48,-0.298257,60.8892,121.48,119.646,-0.298272,120.872,213,5.51128,10.7608,0.3975,5742
2.30639e-07,1.17928e-08,-2.54523e-06,-8.39766e-05,-2.3413e-05,-0.00309621,140.743,143.79,0.467653,71.6615,143.79,140.743,0.467557,141.824,213,4.94331,9.87713,0.3975,5743
2.69404e-07,-2.60931e-08,-2.54628e-06,-9.27955e-05,-2.45638e-05,-0.00320344,102.76,105.271,0.0496027,52.6125,105.274,102.758,0.0489241,103.99,213,4.46345,11.44,0.3975,5744
1.99373e-07,2.50929e-08,-2.54911e-06,-7.21282e-05,-2.56978e-05,-0.00316649,119.52,121.49,0.0631662,60.7139,121.491,119.519,0.0630448,120.454,213,5.3308,9.34146,0.3975,5745
2.66117e-07,2.55061e-08,-2.54092e-06,-9.35345e-05,-2.58419e-05,-0.00320322,96.589,98.9289,0.173853,49.379,98.9316,96.5865,0.17363,97.6066,213,4.5233,9.29755,0.3975,5746
3.05559e-07,4.41227e-08,-2.54224e-06,-0.000104705,-2.81058e-05,-0.00309173,138.65,142.504,-0.264495,71.3882,142.512,138.642,-0.264501,140.881,213,4.0934,8.60507,0.3975,5747
-2.54365e-07,4.3639e-07,-2.5344e-06,-8.91969e-05,-0.00014865,-0.00310158,115.651,113.127,-0.0185865,57.8533,115.687,113.092,-0.0194921,114.431,213,15.8271,2.84997,0.3975,5748
-1.80767e-07,3.95677e-07,-2.53282e-06,-6.22846e-05,-0.00013367,-0.00316592,102.258,99.6294,-0.177858,51.2292,102.28,99.6082,-0.178553,101.149,213,14.8306,3.20432,0.3975,5749
-2.58964e-07,3.17908e-07,-2.53085e-06,-9.10001e-05,-0.000109483,-0.00317183,95.1384,94.4894,0.0441703,47.6022,95.2482,94.3799,0.043892,94.7731,213,15.809,3.77034,0.3975,5750
-3.35987e-07,4.74304e-07,-2.53677e-06,-0.000106397,-0.000181695,-0.00313797,93.04,90.4467,0.0664179,46.5189,93.1033,90.3843,0.0654403,91.7086,213,16.6676,2.55757,0.3975,5751
-3.36056e-07,2.55082e-07,-2.53917e-06,-0.000111021,-8.9926e-05,-0.00317677,94.4095,95.1374,-0.0226072,47.6306,95.2385,94.3086,-0.022793,94.7998,213,16.5198,4.34639,0.3975,5752
-4.50011e-07,1.87069e-07,-2.54787e-06,-0.000166283,-6.45897e-05,-0.00305927,127.341,132.232,0.199506,66.0344,132.267,127.306,0.198743,129.659,213,17.2754,5.18998,0.3975,5753
-4.85875e-07,2.58109e-07,-2.55369e-06,-0.000179359,-8.92456e-05,-0.00308637,111.161,114.986,0.0165435,57.5066,115.029,111.12,0.0154331,113.109,213,17.5612,4.25957,0.3975,5754
-5.08185e-07,3.4108e-07,-2.54861e-06,-0.000208449,-0.000109214,-0.00310829,89.0392,92.4954,0.141168,46.198,92.5352,89.0013,0.139213,90.6807,213,17.7471,3.43043,0.3975,5755
-4.61686e-07,4.46016e-07,-2.53951e-06,-0.000175382,-0.000167157,-0.00311879,89.5912,89.8786,-0.116061,45.1173,90.1173,89.3538,-0.117361,89.8553,213,17.5552,2.67053,0.3975,5756
2.59138e-07,3.16891e-07,-2.5347e-06,-9.14176e-05,-0.000107322,-0.00316371,101.241,100.669,0.025262,50.6701,101.365,100.545,0.0250779,100.933,213,4.29089,3.77046,0.3975,5757
1.81239e-07,3.946e-07,-2.53083e-06,-6.17019e-05,-0.000138628,-0.00312443,117.766,114.493,0.182602,58.8031,117.789,114.471,0.182449,115.983,213,5.26927,3.20447,0.3975,5758
2.53735e-07,4.36246e-07,-2.53418e-06,-8.9713e-05,-0.000151909,-0.00309161,115.582,112.942,0.0532368,57.7861,115.624,112.901,0.052159,114.235,213,4.27286,2.84999,0.3975,5759
3.36091e-07,4.75319e-07,-2.5387e-06,-0.000107652,-0.000187803,-0.00313361,92.887,90.1058,0.069897,46.4359,92.9408,90.0528,0.0691027,91.4619,213,3.43235,2.55757,0.3975,5760
4.87681e-07,2.58284e-07,-2.55442e-06,-0.00017842,-8.86165e-05,-0.00314979,91.0631,94.1455,0.234372,46.9799,94.1937,91.0154,0.233892,92.4116,213,2.53883,4.25957,0.3975,5761
4.50743e-07,1.8717e-07,-2.54683e-06,-0.000167828,-6.47123e-05,-0.00304491,133.078,138.268,0.164375,69.0628,138.286,133.065,0.160132,135.59,213,2.82458,5.18998,0.3975,5762
3.36469e-07,2.55504e-07,-2.53844e-06,-0.000110825,-8.99226e-05,-0.00305543,136.96,138.005,0.489884,68.8282,138.146,136.82,0.489091,136.999,213,3.58023,4.34639,0.3975,5763
5.11846e-07,3.41725e-07,-2.54906e-06,-0.000213458,-0.000111822,-0.00305385,108.509,112.823,0.115815,56.3663,112.844,108.492,0.111827,110.62,213,2.35292,3.43043,0.3975,5764
4.61304e-07,4.44434e-07,-2.53845e-06,-0.000174035,-0.000161217,-0.00309332,95.5306,95.9968,-0.0578791,48.1839,96.3093,95.2186,-0.0584181,95.827,213,2.54485,2.67053,0.3975,5765
2.53936e-07,-2.88017e-07,-2.54088e-06,-9.16498e-05,-0.000100409,-0.00312376,116.673,116.301,0.196596,58.3807,116.957,116.018,0.19574,116.295,213,4.27532,16.6693,0.3975,5766
1.77791e-07,-2.6884e-07,-2.54354e-06,-6.34513e-05,-9.54814e-05,-0.00319845,96.9588,95.855,0.267881,48.3837,97.0319,95.7853,0.264521,96.1501,213,5.30477,16.3792,0.3975,5767
2.59775e-07,-2.11306e-07,-2.53542e-06,-9.26036e-05,-7.50408e-05,-0.00313701,117,117.73,-0.118609,58.9945,117.869,116.862,-0.11985,117.489,213,4.32394,15.7939,0.3975,5768
3.35332e-07,-3.12981e-07,-2.54629e-06,-0.000110883,-0.000123322,-0.00310685,114.908,114.387,0.154428,57.5433,115.241,114.054,0.154421,114.498,213,3.43235,16.9424,0.3975,5769
3.43615e-07,-1.65195e-07,-2.53869e-06,-0.000114575,-5.96778e-05,-0.00313169,115.987,118.307,-0.0211205,59.1817,118.342,115.952,-0.0212191,117.187,213,3.58023,15.1536,0.3975,5770
4.60827e-07,-1.21616e-07,-2.55071e-06,-0.000170624,-4.50947e-05,-0.0031142,112.498,117.834,-0.374628,59.1083,117.841,112.492,-0.375545,115.635,213,2.82458,14.31,0.3975,5771
4.97987e-07,-1.71207e-07,-2.55712e-06,-0.000182678,-5.97647e-05,-0.00310025,111.602,116.819,0.0208936,58.4124,116.845,111.578,0.019644,114.283,213,2.53883,15.2404,0.3975,5772
5.262e-07,-2.28593e-07,-2.56008e-06,-0.000224401,-7.54879e-05,-0.00317173,75.5142,79.8919,0.00596629,39.947,79.8971,75.5118,0.00317419,77.794,213,2.35292,16.0696,0.3975,5773
4.66995e-07,-2.98796e-07,-2.5608e-06,-0.000180724,-0.000118005,-0.00300499,130.676,133.818,0.166629,66.9085,133.983,130.513,0.165551,132.116,213,2.54485,16.8295,0.3975,5774
-2.61964e-07,-2.04818e-07,-2.53629e-06,-9.37429e-05,-7.09379e-05,-0.00313954,117.136,118.119,0.0764219,59.068,118.212,117.043,0.0763656,117.556,213,15.793,15.721,0.3975,5775
-1.79037e-07,-2.55687e-07,-2.54151e-06,-6.41596e-05,-9.36998e-05,-0.0030755,140.374,138.891,0.402893,70.0325,140.468,138.797,0.402864,139.237,213,14.8095,16.2932,0.3975,5776
-2.53233e-07,-2.8676e-07,-2.53962e-06,-9.11459e-05,-0.000105851,-0.00312081,116.534,115.91,0.0984974,58.3022,116.703,115.742,0.0981061,116.127,213,15.822,16.6562,0.3975,5777
-3.34123e-07,-3.15732e-07,-2.54401e-06,-0.000111025,-0.000130216,-0.00309771,114.817,114.001,0.303535,57.4241,115.15,113.669,0.302226,114.115,213,16.6676,16.9424,0.3975,5778
-4.97447e-07,-1.71308e-07,-2.55672e-06,-0.000181364,-5.95456e-05,-0.00316843,91.2822,95.4952,0.00450883,47.7554,95.5141,91.2646,0.00325143,93.4586,213,17.5612,15.2404,0.3975,5779
-4.60532e-07,-1.21112e-07,-2.54923e-06,-0.000168178,-4.59232e-05,-0.00305194,133.359,139.515,-0.182815,69.861,139.538,133.338,-0.184309,136.728,213,17.2754,14.31,0.3975,5780
-3.43732e-07,-1.6608e-07,-2.53919e-06,-0.000114565,-5.99696e-05,-0.00308699,131.414,134.043,0.546922,66.7687,134.084,131.373,0.54666,132.203,213,16.5198,15.1536,0.3975,5781
-5.25717e-07,-2.28308e-07,-2.55963e-06,-0.000224559,-7.57406e-05,-0.00310418,94.5589,100.033,0.366797,49.8375,100.038,94.5573,0.363194,97.0507,213,17.7471,16.0696,0.3975,5782
-4.65766e-07,-2.97137e-07,-2.55886e-06,-0.00018034,-0.000112899,-0.00301542,125.471,128.716,0.918851,63.9755,128.869,125.319,0.917855,126.214,213,17.5552,16.8295,0.3975,5783
1.44888e-07,-2.04103e-08,-2.55754e-06,-5.77929e-05,-2.47065e-05,-0.00322551,104.655,105.871,-0.0718691,52.972,105.872,104.654,-0.0719961,105.34,213,6.18251,11.2171,0.3975,5784
9.54686e-08,-3.26402e-08,-2.56082e-06,-4.21001e-05,-2.78175e-05,-0.00313028,143.364,144.089,-0.421397,72.2567,144.091,143.362,-0.421963,144.15,213,7.1678,11.6597,0.3975,5785
1.32349e-07,-8.47028e-11,-2.5575e-06,-5.36181e-05,-2.39473e-05,-0.00308015,157.553,159.202,0.0271018,79.5875,159.202,157.553,0.0270297,158.357,213,6.42204,10.3774,0.3975,5786
6.60064e-08,-1.14419e-08,-2.56159e-06,-3.62051e-05,-2.41911e-05,-0.00325732,99.4615,99.8788,-0.15427,50.0168,99.8794,99.461,-0.154281,99.8251,213,7.93138,10.8327,0.3975,5787
8.14398e-08,1.19723e-08,-2.561e-06,-3.91706e-05,-2.58363e-05,-0.00319121,121.797,122.364,0.356456,61.0042,122.365,121.797,0.356197,121.725,213,7.51445,9.89298,0.3975,5788
1.10722e-07,2.35024e-08,-2.55919e-06,-4.81516e-05,-2.59659e-05,-0.00318445,121.199,122.14,0.325252,60.9086,122.141,121.198,0.324343,121.348,213,6.84322,9.43666,0.3975,5789
6.28363e-08,-3.32174e-08,-2.56159e-06,-3.56858e-05,-2.80368e-05,-0.00312864,144.321,144.707,0.467962,72.1225,144.711,144.319,0.466219,144.049,213,8.00591,11.6587,0.3975,5790
-1.05384e-07,-3.16944e-08,-2.55906e-06,-4.45048e-05,-2.77942e-05,-0.00314494,136.915,137.723,-0.284257,69.0048,137.725,136.913,-0.284264,137.605,213,13.1477,11.639,0.3975,5791
-1.5007e-07,-2.06123e-08,-2.555e-06,-5.95618e-05,-2.5139e-05,-0.00323923,98.2747,99.4599,-0.0450937,49.7545,99.4636,98.2713,-0.0454157,98.9183,213,13.9922,11.2347,0.3975,5792
-1.33972e-07,5.99181e-10,-2.55466e-06,-5.55166e-05,-2.42723e-05,-0.00307638,157.42,159.157,0.0966163,79.5303,159.157,157.42,0.0965095,158.199,213,13.6773,10.3755,0.3975,5793
-8.10121e-08,1.18829e-08,-2.55978e-06,-3.93558e-05,-2.57556e-05,-0.00323244,105.968,106.472,0.511094,52.981,106.473,105.968,0.510602,105.711,213,12.5633,9.92326,0.3975,5794
-6.1267e-08,-1.99901e-08,-2.56107e-06,-3.57093e-05,-2.52738e-05,-0.0031331,144.045,144.57,-0.198387,72.3852,144.572,144.044,-0.198811,144.507,213,12.035,11.1764,0.3975,5795
-1.10663e-07,2.34357e-08,-2.5571e-06,-4.91234e-05,-2.5479e-05,-0.00318335,120.957,121.96,-0.0383567,60.9998,121.961,120.956,-0.0387621,121.501,213,13.2338,9.46505,0.3975,5796
-6.57827e-08,-4.19894e-08,-2.56092e-06,-3.66918e-05,-2.86324e-05,-0.00319197,121.694,122.036,-0.0310836,61.0348,122.038,121.692,-0.0312238,121.897,213,12.176,11.9817,0.3975,5797
-1.22463e-07,-3.14785e-07,-2.55495e-06,-5.04208e-05,-0.000112912,-0.00313822,118.905,116.281,-0.124746,59.5292,118.934,116.252,-0.124799,117.741,213,13.8977,16.8051,0.3975,5798
-1.27702e-07,-2.25018e-07,-2.5482e-06,-5.14841e-05,-7.94864e-05,-0.00316492,119.471,118.306,-0.306399,59.9072,119.508,118.269,-0.306493,119.2,213,13.8687,15.8699,0.3975,5799
-8.85385e-08,-3.85015e-07,-2.56408e-06,-3.91669e-05,-0.000172096,-0.00316826,96.8816,92.2637,0.30405,48.2949,96.8938,92.2516,0.303927,94.3545,213,13.1947,17.2383,0.3975,5800
-6.20561e-08,-3.68623e-07,-2.56216e-06,-3.0625e-05,-0.000153735,-0.00312323,119.382,114.163,0.0575767,59.6701,119.396,114.151,0.055693,116.806,213,12.421,17.1228,0.3975,5801
-5.64114e-08,-2.74539e-07,-2.5548e-06,-3.17505e-05,-9.44483e-05,-0.00315556,121.099,118.407,1.04073,60.0354,121.108,118.401,1.03731,118.741,213,12.1453,16.3665,0.3975,5802
-3.92188e-08,-3.68515e-07,-2.56316e-06,-2.55146e-05,-0.000152761,-0.00312626,119.9,114.499,0.415618,59.746,119.904,114.499,0.411781,116.883,213,11.6094,17.1075,0.3975,5803
-9.40597e-08,-1.95313e-07,-2.55223e-06,-4.0473e-05,-7.07446e-05,-0.0032336,98.3881,97.3439,-0.165651,49.2841,98.4024,97.3298,-0.165784,98.0363,213,13.0955,15.4336,0.3975,5804
-6.49442e-08,-2.139e-07,-2.55369e-06,-3.42189e-05,-7.65435e-05,-0.00312528,136.695,134.658,0.180232,68.262,136.704,134.649,0.180219,135.508,213,12.3414,15.6561,0.3975,5805
-7.24613e-08,-1.50926e-07,-2.55524e-06,-3.67479e-05,-5.52344e-05,-0.00311392,143.374,142.44,0.178075,71.6041,143.386,142.428,0.177898,142.732,213,12.48,14.7079,0.3975,5806
1.31304e-07,-2.44924e-07,-2.54834e-06,-5.21123e-05,-9.03276e-05,-0.00309494,140.93,139.006,-0.486071,70.7342,140.967,138.985,-0.501816,140.488,213,6.14256,16.0802,0.3975,5807
1.27704e-07,-3.33972e-07,-2.5588e-06,-5.07318e-05,-0.000115027,-0.00312965,119.911,117.152,1.98966,58.9919,119.959,117.119,1.97486,116.59,213,6.09394,16.9556,0.3975,5808
9.36495e-08,-4.18986e-07,-2.56578e-06,-3.93746e-05,-0.000186945,-0.00320288,81.2625,76.94,-1.50445,41.4161,81.3048,76.9207,-1.52743,80.7295,213,6.77203,17.4066,0.3975,5809
6.61074e-08,-3.9009e-07,-2.56626e-06,-3.38717e-05,-0.000157001,-0.00311886,118.864,113.629,-0.35495,59.6165,118.875,113.62,-0.357688,116.694,213,7.54364,17.2645,0.3975,5810
4.45958e-08,-3.48284e-07,-2.5611e-06,-2.70524e-05,-0.000138315,-0.00312632,120.47,115.748,1.08616,59.7025,120.482,115.745,1.07707,117.108,213,8.2808,16.9628,0.3975,5811
6.56709e-08,-2.74181e-07,-2.5544e-06,-3.46803e-05,-9.86806e-05,-0.00309021,142.977,139.749,1.30584,70.8407,142.987,139.739,1.3057,140.086,213,7.66888,16.3547,0.3975,5812
9.44566e-08,-2.32873e-07,-2.55293e-06,-4.1069e-05,-8.64778e-05,-0.00326555,83.7606,82.4309,0.487839,41.6398,83.7667,82.4256,0.487006,82.6173,213,6.95235,15.9351,0.3975,5813
6.70355e-08,-2.11507e-07,-2.55232e-06,-3.55076e-05,-7.69571e-05,-0.00311044,142.932,140.841,0.244708,71.3516,142.947,140.827,0.243737,141.655,213,7.6895,15.6333,0.3975,5814
-1.31133e-07,3.43562e-07,-2.54007e-06,-5.11482e-05,-0.000119214,-0.00313478,119.048,116.159,0.532207,59.262,119.056,116.151,0.532027,117.099,213,13.9276,3.67312,0.3975,5815
-1.29942e-07,4.70216e-07,-2.54739e-06,-4.99772e-05,-0.000151751,-0.00308022,138.582,133.438,-2.18018,70.3847,138.589,133.431,-2.18033,138.263,213,13.9457,2.75275,0.3975,5816
-9.67934e-08,5.63839e-07,-2.55552e-06,-4.06582e-05,-0.000231206,-0.00307813,116.984,108.896,0.0324621,58.4969,117.01,108.887,0.0156638,113.152,213,13.239,2.3236,0.3975,5817
-5.90721e-08,4.02384e-07,-2.54823e-06,-3.29699e-05,-0.000133288,-0.00314288,119.486,115.228,-0.280934,59.8844,119.488,115.226,-0.281022,117.696,213,12.1755,3.2613,0.3975,5818
-6.78335e-08,2.92785e-07,-2.54806e-06,-3.47844e-05,-0.000103149,-0.00309019,142.081,138.641,-0.174074,71.13,142.086,138.636,-0.174168,140.567,213,12.4064,4.17974,0.3975,5819
-7.56421e-08,2.1946e-07,-2.55171e-06,-3.77189e-05,-7.48591e-05,-0.00320658,104.639,103.267,-0.407225,52.526,104.644,103.263,-0.408098,104.368,213,12.5886,4.99913,0.3975,5820
-9.93455e-08,3.03752e-07,-2.54701e-06,-4.24304e-05,-0.000106676,-0.0030985,140.785,137.546,-1.36402,71.0774,140.789,137.543,-1.36538,140.56,213,13.225,4.04094,0.3975,5821
-6.6934e-08,5.43836e-07,-2.55813e-06,-3.39827e-05,-0.00020487,-0.00303227,140.809,132.195,2.39872,69.2272,140.833,132.191,2.37883,134.342,213,12.4226,2.42216,0.3975,5822
-4.03317e-08,5.39037e-07,-2.56048e-06,-2.79031e-05,-0.000204179,-0.00310271,118.459,110.984,0.145723,59.1625,118.465,110.984,0.13987,114.768,213,11.5553,2.46191,0.3975,5823
1.30045e-07,4.69036e-07,-2.54742e-06,-5.0675e-05,-0.000158644,-0.0030689,139.066,133.617,-0.822014,69.9475,139.072,133.611,-0.822656,137.246,213,6.1541,2.75298,0.3975,5824
1.3164e-07,3.41585e-07,-2.54138e-06,-5.16605e-05,-0.000115607,-0.00320057,97.0238,94.8062,-0.109311,48.5707,97.0319,94.7982,-0.10947,96.044,213,6.17213,3.67346,0.3975,5825
9.76926e-08,5.59385e-07,-2.56184e-06,-4.16855e-05,-0.000229643,-0.00308427,117.326,109.302,0.692872,58.3268,117.339,109.295,0.685924,112.847,213,6.86088,2.32386,0.3975,5826
6.7879e-08,2.93631e-07,-2.54772e-06,-3.54359e-05,-0.000100714,-0.00309845,141.399,138.113,-1.51014,71.4577,141.405,138.108,-1.51079,141.296,213,7.69172,4.18172,0.3975,5827
5.8872e-08,3.99739e-07,-2.55017e-06,-3.31054e-05,-0.000127424,-0.00319037,104.235,100.763,0.252815,51.9919,104.236,100.762,0.252651,102.291,213,7.92411,3.26179,0.3975,5828
9.92252e-08,3.04799e-07,-2.54606e-06,-4.21555e-05,-0.000104094,-0.00314441,119.708,117.081,0.0492181,59.833,119.715,117.074,0.0491296,118.368,213,6.87459,4.04116,0.3975,5829
7.61559e-08,2.20864e-07,-2.5514e-06,-3.77418e-05,-7.55818e-05,-0.00321976,98.7203,97.4122,0.359315,49.1836,98.7264,97.4062,0.35923,97.7138,213,7.50935,5.00092,0.3975,5830
4.01388e-08,5.3519e-07,-2.56262e-06,-2.82449e-05,-0.000209193,-0.00308724,118.246,110.554,-0.0322104,59.145,118.252,110.554,-0.0381291,114.635,213,8.54443,2.46219,0.3975,5831
6.70926e-08,5.4159e-07,-2.56483e-06,-3.28263e-05,-0.000212615,-0.00309295,117.513,109.882,-0.711132,59.1134,117.516,109.88,-0.711207,114.6,213,7.67729,2.42237,0.3975,5832
-4.44704e-08,1.50128e-07,-2.55834e-06,-3.00433e-05,-5.66676e-05,-0.00324207,99.3428,98.423,0.12132,49.6116,99.3445,98.4213,0.121301,98.7648,213,11.6092,6.08985,0.3975,5833
-1.94564e-08,1.24724e-07,-2.55971e-06,-2.83506e-05,-4.91296e-05,-0.00323233,105.861,105.097,-0.0204028,52.9408,105.861,105.097,-0.0204425,105.502,213,10.748,6.5879,0.3975,5834
-6.94078e-08,1.08459e-07,-2.55967e-06,-3.7053e-05,-4.29239e-05,-0.00322966,105.544,105.329,0.0731008,52.7405,105.554,105.319,0.0730604,105.364,213,12.3247,6.90907,0.3975,5835
-7.34529e-08,1.55975e-07,-2.55684e-06,-3.68239e-05,-5.78578e-05,-0.00323723,98.9042,98.1784,0.0116765,49.4498,98.9113,98.1714,0.0116578,98.5317,213,12.4855,5.95715,0.3975,5836
-1.97404e-08,8.46487e-08,-2.56078e-06,-2.92223e-05,-3.76301e-05,-0.0031295,144.315,143.892,-0.00813916,72.1617,144.315,143.892,-0.00820061,144.112,213,10.7487,7.51197,0.3975,5837
-5.18486e-08,6.58395e-08,-2.56082e-06,-3.22873e-05,-3.38748e-05,-0.00319236,121.806,121.747,-0.114582,60.9735,121.832,121.721,-0.11465,121.891,213,11.7842,8.02731,0.3975,5838
-8.34665e-08,6.94224e-08,-2.55973e-06,-3.92084e-05,-3.50553e-05,-0.00312593,143.573,143.784,-0.0945494,71.9484,143.802,143.555,-0.0945606,143.773,213,12.6604,7.89461,0.3975,5839
2.36393e-10,1.02887e-07,-2.56019e-06,-2.78818e-05,-4.38173e-05,-0.00313011,144.039,143.238,-0.42176,72.2305,144.039,143.238,-0.421762,144.062,213,10.0483,7.0581,0.3975,5840
1.97153e-08,1.24318e-07,-2.55852e-06,-2.85269e-05,-4.94473e-05,-0.00318365,121.924,121.038,0.281666,60.822,121.925,121.037,0.281251,121.202,213,9.34445,6.59796,0.3975,5841
4.4691e-08,1.49748e-07,-2.55663e-06,-3.05285e-05,-5.76574e-05,-0.00321824,105.738,104.738,0.286937,52.7268,105.74,104.736,0.286749,104.955,213,8.48392,6.10168,0.3975,5842
7.46872e-08,1.5625e-07,-2.55672e-06,-3.75902e-05,-5.90134e-05,-0.00311252,143.119,142.041,0.0034242,71.5622,143.128,142.032,0.00339293,142.58,213,7.59969,5.9649,0.3975,5843
7.04296e-08,1.07374e-07,-2.55954e-06,-3.71374e-05,-4.31452e-05,-0.00308153,158.361,158.025,-0.0280361,79.2011,158.374,158.012,-0.0280919,158.221,213,7.75713,6.92511,0.3975,5844
5.29963e-08,6.62542e-08,-2.56108e-06,-3.24821e-05,-3.38121e-05,-0.00323803,105.781,105.733,-0.295766,53.0466,105.797,105.718,-0.296644,106.054,213,8.2885,8.00709,0.3975,5845
2.04677e-08,8.38059e-08,-2.56063e-06,-2.90262e-05,-3.74905e-05,-0.00319061,122.078,121.719,0.131563,60.9738,122.079,121.718,0.131497,121.767,213,9.34518,7.52203,0.3975,5846
8.51751e-08,7.01768e-08,-2.56036e-06,-3.92995e-05,-3.51227e-05,-0.00318922,121.314,121.492,-0.160016,60.8308,121.501,121.305,-0.160154,121.563,213,7.40427,7.8703,0.3975,5847
5.30258e-07,-2.88676e-08,-2.56856e-06,-0.000181646,-2.51716e-05,-0.00308161,132.235,140.123,-1.38069,70.7535,140.126,132.233,-1.38115,137.73,213,2.4478,11.5323,0.3975,5848
6.1824e-07,-5.81171e-08,-2.56743e-06,-0.000265266,-3.04997e-05,-0.00300975,127.049,138.872,1.18933,68.8479,138.879,127.049,1.18284,132.179,213,2.07841,12.5592,0.3975,5849
4.0061e-07,-3.85867e-08,-2.55233e-06,-0.000132813,-2.62954e-05,-0.00316273,115.394,119.915,-0.306623,60.1122,119.917,115.392,-0.306863,118.027,213,3.25811,11.9178,0.3975,5850
5.57531e-07,-8.7532e-08,-2.55988e-06,-0.00020373,-3.75772e-05,-0.00310485,110.637,117.69,-0.16284,58.9288,117.693,110.636,-0.164545,114.492,213,2.32212,13.4764,0.3975,5851
3.82826e-07,-8.42016e-08,-2.54796e-06,-0.000130709,-3.5909e-05,-0.00307616,136.956,141.746,0.744555,70.5014,141.747,136.955,0.744358,138.669,213,3.36352,13.3896,0.3975,5852
3.58439e-07,-6.08751e-08,-2.54942e-06,-0.00012072,-3.10769e-05,-0.00308671,137.53,142.041,0.0898514,70.9763,142.042,137.529,0.0897568,139.75,213,3.5759,12.6934,0.3975,5853
3.15234e-07,-4.22883e-08,-2.54842e-06,-0.000106073,-2.7738e-05,-0.00315811,117.404,120.728,0.294504,60.2181,120.731,117.402,0.294331,118.807,213,3.97294,12.0551,0.3975,5854
3.76351e-07,1.35793e-07,-2.54398e-06,-0.000126952,-5.02794e-05,-0.00308368,136.06,139.915,-0.8569,70.3913,139.925,136.05,-0.857015,138.885,213,3.36352,6.11038,0.3975,5855
5.46008e-07,1.37941e-07,-2.5634e-06,-0.000201211,-5.23209e-05,-0.00316091,90.0176,95.1969,-0.57111,47.8844,95.1973,90.0176,-0.571506,93.2869,213,2.32212,6.02355,0.3975,5856
6.24216e-07,9.94092e-08,-2.56734e-06,-0.000270733,-3.90771e-05,-0.00299509,126.149,137.813,0.686883,68.5669,137.817,126.149,0.682979,131.688,213,2.02819,6.87962,0.3975,5857
3.30453e-07,9.0099e-08,-2.54698e-06,-0.000112257,-3.78124e-05,-0.00315769,116.254,119.412,-0.709005,60.0625,119.416,116.25,-0.709205,118.574,213,3.77835,7.1762,0.3975,5858
5.80968e-07,7.13199e-08,-2.5744e-06,-0.000230043,-3.35561e-05,-0.0030348,129.231,139.115,0.343215,69.39,139.119,129.231,0.339271,134.109,213,2.1967,7.66162,0.3975,5859
5.37029e-07,4.83003e-08,-2.57457e-06,-0.000203916,-2.77404e-05,-0.00311958,111.203,118.685,0.520213,59.0859,118.689,111.202,0.517035,114.612,213,2.40417,8.41377,0.3975,5860
4.21072e-07,7.02033e-08,-2.55721e-06,-0.000136738,-3.27597e-05,-0.00315515,115.027,119.44,-0.249711,59.8473,119.445,115.022,-0.249896,117.546,213,3.06853,7.6961,0.3975,5861
3.12195e-07,6.40862e-08,-2.54547e-06,-0.00010505,-3.18337e-05,-0.0032242,95.8117,98.3431,0.0537623,49.1494,98.3522,95.803,0.0533674,97.0493,213,3.98581,7.92834,0.3975,5862
-6.17564e-07,-5.734e-08,-2.56771e-06,-0.000267462,-3.14921e-05,-0.00299876,127.432,139.318,2.29163,68.546,139.358,127.417,2.26626,131.529,213,18.0216,12.5592,0.3975,5863
-5.21132e-07,-2.8303e-08,-2.57765e-06,-0.000189181,-2.54913e-05,-0.00321622,106.203,113.101,-11.1156,62.3322,113.325,106.203,-11.3394,121.26,213,17.6522,11.5323,0.3975,5864
-3.89779e-07,-3.87725e-08,-2.5644e-06,-0.000129344,-2.66532e-05,-0.00316601,116.738,121.068,1.77611,59.6546,121.079,116.734,1.76945,117.197,213,16.8458,11.9187,0.3975,5865
-3.81923e-07,-8.50001e-08,-2.55022e-06,-0.000135625,-3.49819e-05,-0.00313695,115.273,119.545,0.180876,59.6835,119.547,115.271,0.180331,117.287,213,16.7365,13.3896,0.3975,5866
-5.62544e-07,-8.60797e-08,-2.55626e-06,-0.000203678,-3.65049e-05,-0.00321994,76.9963,81.884,-0.0829521,40.9868,81.8887,76.9935,-0.0848507,79.6389,213,17.7779,13.4764,0.3975,5867
-3.52514e-07,-6.17307e-08,-2.5549e-06,-0.000119932,-3.14789e-05,-0.00326889,80.542,83.1328,-0.551513,41.8437,83.1353,80.54,-0.552019,82.4203,213,16.5241,12.6934,0.3975,5868
-3.09038e-07,-4.29945e-08,-2.55344e-06,-9.8872e-05,-2.77883e-05,-0.00309552,139.725,143.31,0.940625,71.1931,143.324,139.714,0.937895,140.616,213,16.1309,12.056,0.3975,5869
-5.51556e-07,1.37067e-07,-2.56326e-06,-0.000206904,-5.09899e-05,-0.00301066,131.671,139.55,2.56415,68.5152,139.572,131.671,2.54178,133.256,213,17.7779,6.02355,0.3975,5870
-3.74451e-07,1.36476e-07,-2.54768e-06,-0.000130613,-4.99131e-05,-0.00315315,114.815,118.244,-0.674543,59.4594,118.244,114.815,-0.674609,117.242,213,16.7365,6.11038,0.3975,5871
-6.25232e-07,1.00351e-07,-2.56644e-06,-0.000268341,-3.98811e-05,-0.00313785,86.2296,94.1353,-1.56227,47.8543,94.1424,86.2265,-1.56624,92.0064,213,18.0718,6.87962,0.3975,5872
-3.19772e-07,9.27172e-08,-2.55247e-06,-0.000108256,-3.86565e-05,-0.00310537,137.831,141.334,-0.782742,71.0587,141.335,137.83,-0.782743,140.398,213,16.2875,7.12198,0.3975,5873
-5.71646e-07,7.09266e-08,-2.5776e-06,-0.000226263,-3.39545e-05,-0.00305629,127.367,137.053,-3.72484,70.4119,137.078,127.362,-3.74543,136.226,213,17.9033,7.66162,0.3975,5874
-4.11738e-07,7.05067e-08,-2.56851e-06,-0.000138186,-3.37534e-05,-0.00322454,99.7434,103.59,-0.518614,52.0593,103.599,99.7353,-0.519558,102.241,213,17.0315,7.6961,0.3975,5875
-5.27254e-07,4.74624e-08,-2.57922e-06,-0.000191727,-2.77945e-05,-0.00317034,107.711,114.658,-7.66353,61.3252,114.822,107.711,-7.82808,119.254,213,17.6958,8.41377,0.3975,5876
-3.04356e-07,6.60292e-08,-2.55037e-06,-9.73626e-05,-3.25986e-05,-0.00316547,117.668,120.417,-0.0683956,60.2621,120.454,117.632,-0.0698777,119.138,213,16.0801,7.87413,0.3975,5877
5.69371e-08,-5.82039e-08,-2.56101e-06,-3.49056e-05,-3.09307e-05,-0.00319206,121.763,121.931,-0.0231711,60.9786,121.934,121.76,-0.0231772,121.87,213,8.15661,12.4983,0.3975,5878
3.92245e-08,-8.73233e-08,-2.55955e-06,-2.98189e-05,-3.93432e-05,-0.00323291,105.995,105.646,0.0351281,52.9809,105.997,105.644,0.0350939,105.786,213,8.6978,13.3203,0.3975,5879
9.76575e-09,-7.73598e-08,-2.56044e-06,-2.81868e-05,-3.67048e-05,-0.00325267,99.7578,99.4636,0.0393228,49.8593,99.7578,99.4636,0.0393224,99.5717,213,9.71098,13.045,0.3975,5880
-6.86847e-10,-4.32812e-08,-2.56168e-06,-2.89839e-05,-2.90694e-05,-0.00313405,144.513,144.508,-0.0964119,72.3122,144.528,144.493,-0.0966177,144.607,213,10.0671,12.015,0.3975,5881
3.3194e-08,-3.38135e-08,-2.56177e-06,-2.9583e-05,-2.80708e-05,-0.00323997,106.213,106.272,0.0194771,53.1286,106.277,106.208,0.0194771,106.223,213,8.92019,11.6713,0.3975,5882
-1.87068e-08,-5.98589e-08,-2.56116e-06,-2.86202e-05,-3.33484e-05,-0.003131,144.516,144.279,0.0745346,72.2221,144.519,144.277,0.0744528,144.323,213,10.7071,12.5491,0.3975,5883
-8.04301e-08,-6.94829e-08,-2.55991e-06,-3.94499e-05,-3.44163e-05,-0.00323132,105.511,105.695,-0.0438075,52.8745,105.705,105.501,-0.0438489,105.647,213,12.594,12.8636,0.3975,5884
-4.19044e-08,-5.46602e-08,-2.56119e-06,-3.08941e-05,-3.19751e-05,-0.00319244,122.034,121.988,0.0445791,61.0006,122.046,121.976,0.0445643,121.966,213,11.4813,12.4009,0.3975,5885
-3.03219e-08,-9.18035e-08,-2.55964e-06,-2.99432e-05,-3.96911e-05,-0.00323366,105.812,105.45,-0.29028,53.0521,105.814,105.448,-0.290343,105.922,213,11.1252,13.431,0.3975,5886
-5.0661e-08,-1.20997e-07,-2.55774e-06,-3.16797e-05,-4.83081e-05,-0.00324205,99.6275,99.0516,0.539059,49.5458,99.6305,99.0488,0.538846,98.8021,213,11.8126,14.1066,0.3975,5887
-7.75572e-08,-1.09938e-07,-2.55803e-06,-3.84318e-05,-4.48141e-05,-0.00312132,143.244,142.921,-0.348412,71.8059,143.263,142.902,-0.348646,143.432,213,12.5667,13.8841,0.3975,5888
-9.68589e-08,4.39121e-08,-2.55868e-06,-4.44512e-05,-2.7575e-05,-0.0032479,99.0746,99.6597,0.0523051,49.8053,99.663,99.0714,0.0522855,99.3162,213,12.9544,8.70251,0.3975,5889
-1.55812e-07,3.07846e-08,-2.55145e-06,-6.02764e-05,-2.62704e-05,-0.0031107,142.378,144.09,0.264642,71.9141,144.093,142.375,0.264512,142.977,213,14.0683,9.15471,0.3975,5890
-1.19854e-07,7.91652e-08,-2.55729e-06,-4.94582e-05,-3.70987e-05,-0.00322169,105.01,105.467,0.17398,52.6533,105.481,104.996,0.173958,105.065,213,13.4949,7.58427,0.3975,5891
-1.82077e-07,6.84438e-08,-2.55234e-06,-6.5606e-05,-3.30777e-05,-0.00317433,119.426,120.807,-0.60832,60.712,120.815,119.418,-0.608585,120.731,213,14.5625,7.84609,0.3975,5892
-1.80389e-07,4.64834e-08,-2.54951e-06,-6.74036e-05,-2.82922e-05,-0.00319999,104.816,106.254,1.4013,52.4311,106.263,104.808,1.40065,104.142,213,14.4822,8.57073,0.3975,5893
-2.33303e-07,6.22963e-08,-2.54636e-06,-7.86604e-05,-3.20386e-05,-0.00309754,140.738,143.084,0.109376,71.4969,143.103,140.719,0.109317,141.817,213,15.2559,8.02464,0.3975,5894
1.55275e-07,3.0184e-08,-2.55496e-06,-5.886e-05,-2.66306e-05,-0.00317731,120.316,121.684,-0.0124608,60.8487,121.685,120.315,-0.0124891,121.018,213,6.00343,9.16216,0.3975,5895
9.84219e-08,4.43976e-08,-2.56013e-06,-4.4419e-05,-2.8261e-05,-0.00329126,84.2753,84.7486,0.0546661,42.3478,84.7502,84.2737,0.0546397,84.4583,213,7.09584,8.67778,0.3975,5896
1.21837e-07,7.88776e-08,-2.55854e-06,-4.9382e-05,-3.69753e-05,-0.00313837,136.348,136.947,-0.252646,68.6054,136.958,136.337,-0.25265,136.901,213,6.56448,7.5958,0.3975,5897
1.86512e-07,6.65084e-08,-2.55332e-06,-6.78262e-05,-3.27844e-05,-0.00316776,119.763,121.25,0.298386,60.478,121.254,119.759,0.298374,120.215,213,5.47584,7.90586,0.3975,5898
2.36632e-07,6.02097e-08,-2.54666e-06,-8.10003e-05,-3.1527e-05,-0.00315703,118.677,120.775,-0.210403,60.4953,120.78,118.672,-0.210454,119.95,213,4.80321,8.08516,0.3975,5899
1.80843e-07,4.59862e-08,-2.55268e-06,-6.68629e-05,-2.86779e-05,-0.00316541,120.199,121.819,0.843433,60.489,121.821,120.197,0.843362,120.174,213,5.58342,8.58258,0.3975,5900
-1.96464e-06,9.34018e-07,-2.08137e-06,-0.00169008,-0.000583213,-0.00171308,4.73791,95.397,2.85415,47.1237,96.1537,4.92899,1.90637,92.7729,213,20.2,0.975,0.40625,5901
-2.11988e-06,-7.15539e-08,-2.21023e-06,-0.00146699,-2.71929e-05,-0.00211921,56.3812,174.309,2.96023,85.7636,174.402,56.3731,2.87506,152.011,213,20.2,12.675,0.40625,5902
-2.11863e-06,1.16693e-07,-2.2093e-06,-0.00149414,-3.83699e-05,-0.00208726,53.5858,172.823,5.00588,84.2567,173.175,53.5788,4.66123,150.155,213,20.2,6.825,0.40625,5903
-2.13219e-06,4.57008e-08,-2.18435e-06,-0.00131359,-3.32307e-05,-0.00223381,71.8762,176.746,-3.49571,90.1596,176.796,71.8545,-3.52364,156.859,213,20.2,8.775,0.40625,5904
-2.12638e-06,2.35369e-07,-2.1609e-06,-0.00143357,-8.69013e-05,-0.00212952,55.8435,166.144,-1.15943,83.8128,166.305,55.8435,-1.32055,147.594,213,20.2,4.875,0.40625,5905
-1.94488e-06,-7.59033e-07,-2.15202e-06,-0.00169666,-0.000550356,-0.00172532,5.45422,99.3437,3.10693,49.0332,100.112,5.74751,2.04542,96.2689,213,20.2,18.525,0.40625,5906
-2.06261e-06,4.37144e-07,-2.1234e-06,-0.00147127,-0.000151759,-0.00206752,49.127,157.203,0.290613,78.6266,157.377,49.1208,0.123299,139.371,213,20.2,2.925,0.40625,5907
-2.13e-06,-1.41427e-08,-2.1881e-06,-0.00129851,-3.15672e-05,-0.00222141,75.7188,179.489,0.127688,89.9746,179.797,75.6909,-0.152334,156.48,213,20.2,10.725,0.40625,5908
-2.15363e-06,-1.6617e-07,-2.14024e-06,-0.00143358,-7.12072e-05,-0.00213686,56.5899,168.176,-1.01307,84.7636,168.345,56.591,-1.1827,149.275,213,20.2,14.625,0.40625,5909
-2.08446e-06,-3.34421e-07,-2.1437e-06,-0.00150914,-0.000124382,-0.0020526,46.4222,159.842,1.90942,79.2313,160.111,46.4136,1.64873,141.495,213,20.2,16.575,0.40625,5910
-1.8834e-06,1.28018e-06,-1.97108e-06,-0.00165857,-0.000841833,-0.00159959,-2.84679,64.0489,1.98398,35.8556,64.3385,6.22026,-7.3727,65.9735,213,20.2,0.4875,0.401875,5911
-1.89134e-06,1.28371e-06,-1.98503e-06,-0.00166837,-0.000846986,-0.00158232,-3.44274,63.8338,3.6055,34.8432,64.1358,5.41131,-5.55056,64.9035,213,20.2,0.4875,0.410625,5912
-1.99429e-06,7.1352e-07,-2.15124e-06,-0.00172102,-0.00032269,-0.00186667,9.00329,123.535,-2.9267,63.9146,123.833,9.77524,-3.99639,121.53,213,20.2,1.4625,0.410625,5913
-1.83648e-06,-1.09297e-06,-2.1315e-06,-0.00167976,-0.000817775,-0.00160256,-4.592,66.0097,1.7308,36.8895,66.223,4.48156,-7.55603,68.5574,213,20.2,19.0125,0.410625,5914
-1.82918e-06,-1.09109e-06,-2.11747e-06,-0.00167015,-0.000813456,-0.00159635,-2.00334,68.1654,4.04162,36.9734,68.6407,6.86917,-5.30617,68.6735,213,20.2,19.0125,0.401875,5915
-1.9977e-06,-5.55188e-07,-2.17523e-06,-0.00172263,-0.000285299,-0.00188687,10.2637,127.99,-3.18858,66.1822,128.267,10.8962,-4.0977,125.541,213,20.2,18.0375,0.410625,5916
-1.98619e-06,7.13157e-07,-2.13476e-06,-0.00171193,-0.000321404,-0.00187856,9.61087,123.504,-4.03719,64.2929,123.843,9.9776,-4.7429,121.894,213,20.2,1.4625,0.401875,5917
-1.99017e-06,-5.55319e-07,-2.15857e-06,-0.00171381,-0.000285424,-0.00189861,10.7158,127.709,-4.42049,66.5388,128.037,11.007,-5.04018,125.824,213,20.2,18.0375,0.401875,5918
-2.0323e-06,5.19744e-07,-2.14401e-06,-0.00147131,-0.000187185,-0.0020534,47.2129,152.391,-0.463744,76.5674,152.532,47.2101,-0.60236,135.7,213,20.2,2.4375,0.410625,5919
-2.06788e-06,3.71891e-07,-2.13731e-06,-0.00147485,-0.000116034,-0.00209186,49.5325,160.828,-1.00483,81.0616,161.018,49.443,-1.1053,143.68,213,20.2,3.4125,0.410625,5920
-1.96427e-06,6.19953e-07,-2.16298e-06,-0.00147421,-0.000181648,-0.00205803,46.7977,152.667,-1.02112,77.0293,152.872,46.7585,-1.18674,136.552,213,20.2,1.95,0.40625,5921
-2.02575e-06,5.19947e-07,-2.12598e-06,-0.00146736,-0.000187756,-0.00206379,46.9093,151.717,-1.94194,77.0954,151.987,46.9021,-2.2043,136.435,213,20.2,2.4375,0.401875,5922
-2.09992e-06,2.78784e-07,-2.16215e-06,-0.00143968,-9.08658e-05,-0.00212897,54.4917,164.968,-1.96541,83.5993,165.122,54.4485,-2.07644,147.308,213,20.2,4.3875,0.410625,5923
-2.12666e-06,1.94119e-07,-2.18265e-06,-0.00143092,-8.2818e-05,-0.00212025,57.4923,167.91,1.03193,83.591,168.08,57.4552,0.89856,147.286,213,20.2,5.3625,0.410625,5924
-2.03575e-06,3.23992e-07,-2.14935e-06,-0.00144281,-9.18186e-05,-0.00211353,55.2503,165.905,0.314608,83.0198,166.13,55.2485,0.0909472,146.469,213,20.2,3.9,0.40625,5925
-2.09393e-06,2.78619e-07,-2.14363e-06,-0.00143553,-9.09627e-05,-0.00211577,56.3748,166.503,0.659409,83.289,166.892,56.3306,0.314305,146.816,213,20.2,4.3875,0.401875,5926
-2.06164e-06,3.71817e-07,-2.11906e-06,-0.0014706,-0.000116044,-0.0020826,51.088,162.035,0.961664,80.8434,162.388,50.9946,0.701693,143.319,213,20.2,3.4125,0.401875,5927
-2.11738e-06,1.35651e-07,-2.20997e-06,-0.00151952,-3.89019e-05,-0.00209582,48.4238,169.696,1.22151,84.4305,169.89,48.4218,1.02927,150.855,213,20.2,6.3375,0.410625,5928
-2.10427e-06,9.80991e-08,-2.22536e-06,-0.00147184,-3.80538e-05,-0.00213798,52.8983,170.334,-1.66242,86.1356,170.505,52.8319,-1.76659,152.488,213,20.2,7.3125,0.410625,5929
-2.08951e-06,1.54601e-07,-2.19032e-06,-0.00146088,-6.04645e-05,-0.0021253,53.9056,168.609,-0.51396,84.7697,168.828,53.884,-0.711431,149.894,213,20.2,5.85,0.40625,5930
-2.11161e-06,1.35397e-07,-2.19155e-06,-0.00151543,-3.88769e-05,-0.00209665,49.0531,169.992,1.44721,84.6855,170.406,49.0518,1.03469,151.194,213,20.2,6.3375,0.401875,5931
-2.12097e-06,1.93879e-07,-2.1641e-06,-0.00142721,-8.28826e-05,-0.00213127,57.1368,167.245,-0.530139,84.1495,167.525,57.0999,-0.77369,148.101,213,20.2,5.3625,0.401875,5932
-2.10651e-06,6.22078e-08,-2.20906e-06,-0.00130515,-3.50583e-05,-0.00222471,73.9738,178.002,-1.3435,89.7148,178.074,73.9136,-1.35543,156.061,213,20.2,8.2875,0.410625,5933
-2.14973e-06,2.98722e-08,-2.1854e-06,-0.00132296,-3.1245e-05,-0.0022215,71.549,177.349,-2.0465,89.74,177.393,71.5461,-2.08732,156.267,213,20.2,9.2625,0.410625,5934
-2.09893e-06,9.81765e-08,-2.20654e-06,-0.00146799,-3.74811e-05,-0.00213897,53.5207,170.689,-1.43612,86.3892,171.048,53.4561,-1.73042,152.849,213,20.2,7.3125,0.401875,5935
-2.06373e-06,7.98911e-08,-2.22069e-06,-0.00134832,-3.57339e-05,-0.00220978,67.8514,175.36,-2.70745,89.1279,175.461,67.8385,-2.79518,155.478,213,20.2,7.8,0.40625,5936
-2.10189e-06,6.24817e-08,-2.18965e-06,-0.00130265,-3.50674e-05,-0.00222578,74.3062,178.129,-1.30427,89.861,178.304,74.2447,-1.41783,156.29,213,20.2,8.2875,0.401875,5937
-2.14909e-06,9.31116e-10,-2.18702e-06,-0.00131103,-2.98268e-05,-0.00221441,74.3548,179.293,0.362443,89.6344,179.465,74.3499,0.195708,156.021,213,20.2,10.2375,0.410625,5938
-2.10304e-06,-2.97752e-08,-2.2153e-06,-0.00128887,-3.31439e-05,-0.00221222,78.052,180.904,2.42451,89.5125,181.212,77.982,2.18674,155.646,213,20.2,11.2125,0.410625,5939
-2.14495e-06,3.00151e-08,-2.16596e-06,-0.00132191,-3.15704e-05,-0.00222188,71.6665,177.354,-2.04595,89.8622,177.517,71.6642,-2.20709,156.465,213,20.2,9.2625,0.401875,5940
-2.14994e-06,1.50746e-08,-2.17333e-06,-0.00132365,-2.8546e-05,-0.00220266,73.358,179.435,1.36152,89.2954,179.694,73.358,1.10289,155.6,213,20.2,9.75,0.40625,5941
-2.14386e-06,7.82009e-10,-2.16762e-06,-0.00130856,-3.01007e-05,-0.00221481,74.7184,179.432,0.490557,89.8484,179.812,74.7137,0.115246,156.367,213,20.2,10.2375,0.401875,5942
-2.10016e-06,-5.86921e-08,-2.23536e-06,-0.00144422,-2.6202e-05,-0.00215248,57.3949,173.539,-0.616262,87.1883,173.683,57.3279,-0.693434,153.805,213,20.2,12.1875,0.410625,5943
-2.12726e-06,-8.53934e-08,-2.19233e-06,-0.00149291,-2.85364e-05,-0.00211949,51.7933,171.734,0.47218,85.7171,171.819,51.7948,0.385241,152.379,213,20.2,13.1625,0.410625,5944
-2.05748e-06,-4.64885e-08,-2.22998e-06,-0.00132483,-3.04708e-05,-0.00219895,73.3163,179.332,1.71998,89.2406,179.774,73.302,1.2925,155.527,213,20.2,11.7,0.40625,5945
-2.09481e-06,-5.86261e-08,-2.21638e-06,-0.0014406,-2.5248e-05,-0.00215399,57.965,173.891,-0.46613,87.4718,174.219,57.8965,-0.72518,154.228,213,20.2,12.1875,0.401875,5946
-2.0974e-06,-3.00671e-08,-2.196e-06,-0.00128472,-3.32029e-05,-0.0022133,78.6623,181.169,2.60576,89.8397,181.763,78.5911,2.08329,156.177,213,20.2,11.2125,0.401875,5947
-2.15292e-06,-1.32182e-07,-2.14683e-06,-0.00142849,-6.8011e-05,-0.00212736,58.5971,170.029,1.35504,84.526,170.233,58.5667,1.1812,148.898,213,20.2,14.1375,0.410625,5948
-2.12556e-06,-2.01473e-07,-2.16181e-06,-0.00144281,-7.41154e-05,-0.00212011,56.2464,168.351,0.770701,83.9633,168.555,56.1841,0.628682,148.177,213,20.2,15.1125,0.410625,5949
-2.12141e-06,-8.49174e-08,-2.17381e-06,-0.00148825,-2.86704e-05,-0.00212084,52.4589,172.007,0.645515,85.932,172.258,52.4597,0.393817,152.643,213,20.2,13.1625,0.401875,5950
-2.11119e-06,-9.94372e-08,-2.14439e-06,-0.00145788,-4.92683e-05,-0.00213281,54.7501,170.124,-0.531357,85.5994,170.4,54.7411,-0.798609,151.279,213,20.2,13.65,0.40625,5951
-2.14661e-06,-1.32078e-07,-2.12822e-06,-0.00142398,-6.88565e-05,-0.0021413,58.0479,169.041,-0.705128,85.1194,169.303,58.0172,-0.936066,149.735,213,20.2,14.1375,0.401875,5952
-2.09018e-06,-2.80076e-07,-2.16111e-06,-0.00150664,-9.88029e-05,-0.00206532,47.9999,163.311,2.24077,80.7781,163.607,47.8948,2.05039,144.207,213,20.2,16.0875,0.410625,5953
-2.05191e-06,-4.01284e-07,-2.15843e-06,-0.0015162,-0.000149767,-0.00205074,43.106,155.026,-0.675857,78.0232,155.194,43.1148,-0.852506,139.365,213,20.2,17.0625,0.410625,5954
-2.11947e-06,-2.01623e-07,-2.14324e-06,-0.0014386,-7.37865e-05,-0.00213631,55.5469,167.334,-1.6002,84.7016,167.599,55.4861,-1.80431,149.246,213,20.2,15.1125,0.401875,5955
-2.0567e-06,-2.3826e-07,-2.17438e-06,-0.00145873,-7.68683e-05,-0.00211887,53.3821,166.565,-0.687548,83.8217,166.764,53.374,-0.878901,148.164,213,20.2,15.6,0.40625,5956
-2.08388e-06,-2.80043e-07,-2.14293e-06,-0.00150182,-9.84678e-05,-0.00208476,47.1179,162.061,-0.628508,81.6704,162.439,47.0123,-0.901358,145.429,213,20.2,16.0875,0.401875,5957
-1.98012e-06,-4.80735e-07,-2.16915e-06,-0.00146064,-0.000144158,-0.00208964,49.6508,157.479,-1.86815,79.7978,157.612,49.6332,-1.98362,141.058,213,20.2,17.55,0.40625,5958
-2.04555e-06,-4.01355e-07,-2.14037e-06,-0.00151124,-0.000150352,-0.00206928,42.2453,153.711,-3.46154,78.8371,153.958,42.254,-3.71676,140.45,213,20.2,17.0625,0.401875,5959
8.62659e-07,-1.69097e-06,-2.2862e-06,-0.000601065,-0.00165617,-0.00171548,95.1564,8.73659,3.87905,46.6037,96.0944,8.79046,2.88713,90.4003,213,0.822727,19.5,0.40625,5960
-3.75471e-07,-1.70185e-06,-2.39899e-06,-0.000151266,-0.00147449,-0.0020716,156.634,48.254,-0.652797,78.9537,157.007,48.1286,-0.900351,139.988,213,17.4318,19.5,0.40625,5961
-1.05614e-07,-1.81092e-06,-2.3838e-06,-2.78979e-05,-0.00159193,-0.00201937,171.942,43.8376,8.82776,81.8844,172.271,43.8351,8.50173,149.272,213,13.7409,19.5,0.40625,5962
-4.45011e-10,-1.78509e-06,-2.41867e-06,-3.27467e-05,-0.00132136,-0.00222373,177.036,71.4904,-2.41938,89.8577,177.166,71.4899,-2.54918,156.44,213,10.05,19.5,0.40625,5963
4.66607e-08,-1.78875e-06,-2.40958e-06,-2.35515e-05,-0.00146596,-0.00213847,173.302,55.16,0.0776274,86.6783,173.376,55.1443,0.0193461,153.411,213,8.20455,19.5,0.40625,5964
-8.57828e-07,-1.68669e-06,-2.30265e-06,-0.000602306,-0.00165041,-0.00171606,95.4071,9.56077,4.1837,46.5217,96.3246,9.54568,3.28124,90.0747,213,19.2773,19.5,0.40625,5965
1.08385e-07,-1.7928e-06,-2.3977e-06,-2.96667e-05,-0.00156748,-0.00203914,172.058,46.1014,7.47006,82.5253,172.293,46.0941,7.2424,149.461,213,6.35909,19.5,0.40625,5966
1.94326e-07,-1.7232e-06,-2.41397e-06,-7.79749e-05,-0.0014265,-0.00213993,167.375,56.922,-1.51231,84.5755,167.526,56.883,-1.62469,148.79,213,4.51364,19.5,0.40625,5967
-1.95502e-07,-1.7002e-06,-2.41697e-06,-7.61779e-05,-0.00142226,-0.00214734,167.399,57.146,-2.2426,84.9789,167.57,57.1209,-2.38816,149.375,213,15.5864,19.5,0.40625,5968
-4.52601e-08,-1.80436e-06,-2.40364e-06,-2.37294e-05,-0.00147461,-0.00212912,173.334,54.498,0.890005,86.3378,173.451,54.4955,0.775463,153.057,213,11.8955,19.5,0.40625,5969
3.73926e-07,-1.68804e-06,-2.39732e-06,-0.000152484,-0.00143317,-0.00210026,157.559,52.6629,-1.97581,79.987,157.827,52.5659,-2.1469,140.828,213,2.66818,19.5,0.40625,5970
1.19899e-06,-1.64883e-06,-2.1718e-06,-0.000862837,-0.00163484,-0.00160095,62.4501,-0.782074,1.9941,34.9186,62.9533,7.59271,-6.88386,63.8419,213,0.361364,19.5,0.401875,5971
1.20277e-06,-1.65471e-06,-2.18577e-06,-0.000868284,-0.00164392,-0.00158138,62.4559,-1.07322,4.04902,33.5922,62.9868,6.64249,-4.19762,62.4738,213,0.361364,19.5,0.410625,5972
6.46844e-07,-1.68746e-06,-2.37279e-06,-0.000336831,-0.00167698,-0.00189522,122.497,12.7304,-5.14503,64.2857,122.686,13.2808,-5.88487,120.141,213,1.28409,19.5,0.410625,5973
-1.19511e-06,-1.64439e-06,-2.19835e-06,-0.000864626,-0.00163477,-0.00158562,63.5216,0.442235,4.46753,34.1856,64.3887,8.02526,-3.98257,63.2284,213,19.7386,19.5,0.401875,5974
-1.19854e-06,-1.64981e-06,-2.21233e-06,-0.00086953,-0.00164306,-0.00159505,61.0953,-2.26191,1.67075,34.0053,61.5931,5.32853,-6.41754,62.9648,213,19.7386,19.5,0.410625,5975
-6.41258e-07,-1.67554e-06,-2.38462e-06,-0.000338247,-0.00166528,-0.00189294,123.505,14.8126,-3.83369,64.2769,123.785,15.4683,-4.76908,119.725,213,18.8159,19.5,0.410625,5976
6.46094e-07,-1.68172e-06,-2.35609e-06,-0.000335799,-0.00166861,-0.00188878,123.998,14.8329,-3.20053,64.4499,124.567,15.3968,-4.33312,120.255,213,1.28409,19.5,0.401875,5977
-6.40549e-07,-1.67025e-06,-2.36787e-06,-0.000337213,-0.00165803,-0.00190541,123.215,15.0318,-5.22989,64.7271,123.564,15.3431,-5.89018,120.252,213,18.8159,19.5,0.401875,5978
-3.13456e-07,-1.73855e-06,-2.40076e-06,-0.000117249,-0.0015194,-0.00205027,160.354,45.5088,2.02745,79.4064,160.638,45.4269,1.82531,142.12,213,16.9705,19.5,0.410625,5979
-4.52978e-07,-1.66018e-06,-2.41959e-06,-0.00018515,-0.00143279,-0.00208075,153.74,51.5512,-1.5211,77.8922,154.095,51.365,-1.68968,137.181,213,17.8932,19.5,0.410625,5980
-4.53064e-07,-1.65626e-06,-2.40129e-06,-0.000184738,-0.00142935,-0.00210114,152.294,50.3525,-4.67187,78.8309,152.733,50.1695,-4.92833,138.586,213,17.8932,19.5,0.401875,5981
-5.46117e-07,-1.60584e-06,-2.42613e-06,-0.000192433,-0.00135893,-0.00212272,155.345,59.8012,-2.7575,79.2416,155.603,59.6652,-2.87986,138.262,213,18.3545,19.5,0.40625,5982
-1.60675e-07,-1.68521e-06,-2.43254e-06,-7.50645e-05,-0.00135299,-0.0021892,170.043,65.3731,-3.1177,86.701,170.168,65.3644,-3.23402,151.258,213,15.125,19.5,0.410625,5983
-2.31061e-07,-1.72832e-06,-2.41473e-06,-7.74858e-05,-0.0014941,-0.00209647,165.299,49.2692,-0.0683242,82.82,165.46,49.2198,-0.179938,147.29,213,16.0477,19.5,0.410625,5984
-3.13449e-07,-1.73444e-06,-2.38279e-06,-0.000117853,-0.00151603,-0.00207035,158.756,44.2372,-1.16561,80.3212,159.157,44.1551,-1.48496,143.378,213,16.9705,19.5,0.401875,5985
-2.66991e-07,-1.76246e-06,-2.38881e-06,-8.1295e-05,-0.00156205,-0.0020606,161.776,40.4929,-0.34158,81.3066,162.023,40.4945,-0.590143,146.458,213,16.5091,19.5,0.40625,5986
-2.30845e-07,-1.72453e-06,-2.39641e-06,-7.74253e-05,-0.00149082,-0.00211178,164.233,48.4671,-2.39377,83.5709,164.514,48.4197,-2.62762,148.358,213,16.0477,19.5,0.401875,5987
-9.15079e-08,-1.80836e-06,-2.39611e-06,-3.30776e-05,-0.00160031,-0.00204237,168.247,39.8811,3.67344,82.5385,168.531,39.8163,3.45416,150.233,213,13.2795,19.5,0.410625,5988
-1.1721e-07,-1.76964e-06,-2.40527e-06,-2.25411e-05,-0.00158752,-0.00210089,165.961,37.7788,-4.26931,85.3202,166.233,37.6443,-4.40714,153.983,213,14.2023,19.5,0.410625,5989
-1.17256e-07,-1.76548e-06,-2.3867e-06,-2.24617e-05,-0.00158354,-0.00210207,166.226,38.3638,-4.1073,85.5185,166.641,38.2368,-4.39564,154.206,213,14.2023,19.5,0.401875,5990
-1.26345e-07,-1.6763e-06,-2.42367e-06,-5.6135e-05,-0.00130742,-0.00221881,174.714,72.2262,-2.42204,88.7953,174.951,72.207,-2.63971,154.429,213,14.6636,19.5,0.40625,5991
-1.60599e-07,-1.68163e-06,-2.41346e-06,-7.48117e-05,-0.00135036,-0.00217631,171.474,66.9982,-0.652128,86.4083,171.823,66.9899,-0.993239,150.794,213,15.125,19.5,0.401875,5992
-3.63921e-08,-1.77343e-06,-2.42391e-06,-1.53281e-05,-0.00145737,-0.00216177,173.396,55.2839,-2.41078,88.0636,173.659,55.078,-2.46803,155.554,213,11.4341,19.5,0.410625,5993
-5.82617e-08,-1.80014e-06,-2.41004e-06,-3.20736e-05,-0.00149342,-0.00211215,171.74,52.0463,1.36851,85.3149,171.873,52.0396,1.24267,151.748,213,12.3568,19.5,0.410625,5994
-9.15724e-08,-1.80383e-06,-2.37811e-06,-3.31776e-05,-0.00159634,-0.00204324,168.507,40.4738,3.87013,82.7863,169.006,40.4116,3.43338,150.529,213,13.2795,19.5,0.401875,5995
-7.5069e-08,-1.75338e-06,-2.40593e-06,-3.86014e-05,-0.00153379,-0.00210146,167.965,45.4996,-0.995611,84.7586,168.244,45.4988,-1.27352,151.641,213,12.8182,19.5,0.40625,5996
-5.81113e-08,-1.79611e-06,-2.39158e-06,-3.25425e-05,-0.00149015,-0.00211297,171.878,52.4911,1.47899,85.5011,172.183,52.4841,1.18091,151.99,213,12.3568,19.5,0.401875,5997
1.45027e-08,-1.77044e-06,-2.42889e-06,-3.19482e-05,-0.00132621,-0.00220304,178.589,72.5809,0.763584,89.089,178.802,72.5076,0.623964,155.263,213,9.58864,19.5,0.410625,5998
-1.57302e-08,-1.76401e-06,-2.43294e-06,-3.3515e-05,-0.00131866,-0.00220613,178.721,73.4599,0.7705,89.1603,178.956,73.3608,0.635024,155.302,213,10.5114,19.5,0.410625,5999
-1.57295e-08,-1.76061e-06,-2.41364e-06,-3.34659e-05,-0.00131636,-0.00222434,177.305,72.2287,-2.14031,89.9691,177.602,72.127,-2.33593,156.601,213,10.5114,19.5,0.401875,6000
-3.13544e-08,-1.70067e-06,-2.43314e-06,-2.33453e-05,-0.00135031,-0.00220031,178.151,69.4649,-0.155727,89.3899,178.388,69.4631,-0.391427,156.055,213,10.9727,19.5,0.40625,6001
-3.6228e-08,-1.77014e-06,-2.40492e-06,-1.48473e-05,-0.00145626,-0.0021622,173.538,55.4773,-2.34385,88.2349,173.935,55.2717,-2.53501,155.827,213,11.4341,19.5,0.401875,6002
5.86199e-08,-1.79493e-06,-2.41542e-06,-2.78584e-05,-0.00148673,-0.00211924,172.425,52.9344,1.12802,85.7268,172.5,52.9419,1.04595,152.288,213,7.74318,19.5,0.410625,6003
3.68922e-08,-1.76374e-06,-2.42538e-06,-1.9264e-05,-0.00144618,-0.00216487,173.444,56.5704,-2.29459,87.9683,173.603,56.4498,-2.33332,155.136,213,8.66591,19.5,0.410625,6004
1.44915e-08,-1.76698e-06,-2.40962e-06,-3.20432e-05,-0.00132399,-0.00222185,177.089,71.2702,-2.26983,89.9127,177.36,71.1943,-2.46517,156.579,213,9.58864,19.5,0.401875,6005
2.90926e-08,-1.71346e-06,-2.42506e-06,-2.48854e-05,-0.0013554,-0.00219412,177.987,69.0098,0.313369,89.0934,178.244,69.0089,0.0572087,155.623,213,9.12727,19.5,0.40625,6006
3.67803e-08,-1.76058e-06,-2.40638e-06,-1.8842e-05,-0.00144593,-0.0021651,173.519,56.6314,-2.27308,88.1152,173.799,56.5096,-2.43133,155.383,213,8.66591,19.5,0.401875,6007
1.19878e-07,-1.74847e-06,-2.41623e-06,-2.04426e-05,-0.00156363,-0.00211446,167.245,40.8483,-4.26854,85.9166,167.475,40.7075,-4.35792,154.317,213,5.89773,19.5,0.410625,6008
9.25339e-08,-1.80434e-06,-2.40633e-06,-3.87581e-05,-0.00157451,-0.00205559,168.4,42.6121,3.20848,82.7808,168.594,42.5944,3.03228,149.753,213,6.82045,19.5,0.410625,6009
5.84945e-08,-1.79098e-06,-2.39691e-06,-2.81713e-05,-0.0014834,-0.00212019,172.585,53.3929,1.23628,85.9024,172.809,53.4011,1.00419,152.513,213,7.74318,19.5,0.401875,6010
7.25132e-08,-1.7751e-06,-2.40562e-06,-3.59626e-05,-0.00152757,-0.00210358,168.784,46.6124,-0.566058,85.006,169.116,46.6112,-0.896437,151.935,213,7.28182,19.5,0.40625,6011
9.26074e-08,-1.80011e-06,-2.38822e-06,-3.90298e-05,-0.00157096,-0.00205622,168.615,43.1403,3.39444,83.0094,169.023,43.1231,3.00394,150.037,213,6.82045,19.5,0.401875,6012
2.31575e-07,-1.74743e-06,-2.41076e-06,-8.30627e-05,-0.00148585,-0.00210903,163.958,49.061,-1.98115,83.0736,164.073,49.0394,-2.07438,147.394,213,4.05227,19.5,0.410625,6013
1.59597e-07,-1.69756e-06,-2.43127e-06,-7.2944e-05,-0.0013693,-0.00218359,169.449,63.269,-3.42662,86.569,169.609,63.2123,-3.52948,151.247,213,4.975,19.5,0.410625,6014
1.19929e-07,-1.74459e-06,-2.39758e-06,-2.0155e-05,-0.00156015,-0.00211552,167.511,41.3758,-4.11285,86.1161,167.884,41.2385,-4.34837,154.566,213,5.89773,19.5,0.401875,6015
1.27086e-07,-1.66369e-06,-2.42488e-06,-5.17577e-05,-0.00130416,-0.00222175,175.493,72.9136,-2.24293,89.1172,175.742,72.9136,-2.49219,154.963,213,5.43636,19.5,0.40625,6016
1.59467e-07,-1.69411e-06,-2.41219e-06,-7.27659e-05,-0.0013671,-0.00217305,170.619,64.605,-1.40676,86.3315,170.965,64.5494,-1.69752,150.873,213,4.975,19.5,0.401875,6017
4.53679e-07,-1.65982e-06,-2.41418e-06,-0.000193529,-0.00138053,-0.00209703,155.523,58.3003,-0.386055,78.1443,155.755,58.2161,-0.533737,136.732,213,2.20682,19.5,0.410625,6018
3.13021e-07,-1.72506e-06,-2.39962e-06,-0.000111364,-0.00148841,-0.00209127,160.468,47.6796,-1.6987,81.2636,160.702,47.5714,-1.82492,144.315,213,3.12955,19.5,0.410625,6019
2.31375e-07,-1.74371e-06,-2.39241e-06,-8.3096e-05,-0.00148266,-0.00209748,165.271,50.6374,0.280635,82.765,165.552,50.6141,0.0225045,146.919,213,4.05227,19.5,0.401875,6020
2.70969e-07,-1.76329e-06,-2.38459e-06,-7.94082e-05,-0.00154123,-0.00207042,163.083,43.3512,0.00706074,81.8159,163.368,43.3381,-0.264361,146.771,213,3.59091,19.5,0.40625,6021
3.13002e-07,-1.72108e-06,-2.38143e-06,-0.000111784,-0.00148518,-0.0020803,161.666,49.1765,0.43244,81.0062,162.11,49.0682,0.0971862,143.918,213,3.12955,19.5,0.401875,6022
5.52371e-07,-1.63275e-06,-2.41353e-06,-0.000189266,-0.00138457,-0.00210561,155.124,57.2213,-1.8358,78.7008,155.397,57.1174,-2.00471,137.713,213,1.74545,19.5,0.40625,6023
4.53727e-07,-1.6559e-06,-2.3958e-06,-0.000193242,-0.00137792,-0.00211129,154.53,57.4972,-2.56987,78.8511,154.873,57.4126,-2.82868,137.836,213,2.20682,19.5,0.401875,6024
-1.37244e-07,2.05096e-06,-2.13443e-06,-4.2358e-05,-0.00149083,-0.00269247,8.22106,3.89727,0.310279,8.57946,12.8449,3.89768,-4.31399,14.8646,213,13.7409,0,0.38625,6025
4.49506e-07,1.93096e-06,-2.13964e-06,-0.000160435,-0.00140511,-0.0025583,8.19151,4.47607,1.0337,9.35245,13.9653,4.4756,-4.73961,16.1995,213,2.66818,0,0.38625,6026
1.36703e-07,2.06541e-06,-2.12952e-06,-4.16817e-05,-0.00152104,-0.00255196,8.57505,4.15905,1.08168,8.74841,13.5767,4.15927,-3.92015,15.1674,213,6.35909,0,0.38625,6027
5.62113e-08,2.0629e-06,-2.12785e-06,-3.12227e-05,-0.00141993,-0.00267502,8.56985,4.42447,0.677931,8.66871,13.2925,4.42468,-4.04493,15.016,213,8.20455,0,0.38625,6028
2.46208e-07,1.97017e-06,-2.14466e-06,-8.60861e-05,-0.00139844,-0.00264002,8.41122,4.49374,0.787539,9.35763,13.9558,4.49624,-4.7595,16.2082,213,4.51364,0,0.38625,6029
5.90122e-10,2.05202e-06,-2.12673e-06,-3.92621e-05,-0.0012906,-0.00276004,8.66089,4.92556,0.539158,8.53881,13.1388,4.92558,-3.9388,14.7932,213,10.05,0,0.38625,6030
-5.74123e-08,2.05491e-06,-2.12675e-06,-3.05646e-05,-0.00141546,-0.00270539,8.49174,4.35771,0.507199,8.49729,12.9966,4.35795,-3.99795,14.7184,213,11.8955,0,0.38625,6031
-2.47808e-07,1.95909e-06,-2.14681e-06,-8.5192e-05,-0.00136856,-0.00275241,8.15506,4.32412,0.193218,8.98174,13.1543,4.32723,-4.80916,15.5576,213,15.5864,0,0.38625,6032
-4.54795e-07,1.96299e-06,-2.12603e-06,-0.000157716,-0.00145516,-0.00255524,8.05923,4.18627,0.902451,8.59184,13.074,4.18354,-4.10964,14.8845,213,17.4318,0,0.38625,6033
9.40132e-07,1.88366e-06,-2.04549e-06,-0.000591658,-0.00159029,-0.00229172,5.79477,2.81377,0.719961,7.30781,10.5,2.9441,-4.11561,12.6599,213,0.822727,0,0.38625,6034
-9.29382e-07,1.87651e-06,-2.06875e-06,-0.000586498,-0.0015971,-0.00226239,5.89795,2.88122,0.895303,7.33217,10.6596,3.01957,-4.00472,12.7034,213,19.2773,0,0.38625,6035
1.25429e-06,1.7982e-06,-1.86707e-06,-0.000818494,-0.00155028,-0.00198913,5.48481,3.30039,1.99037,7.53215,11.0534,3.73307,-4.0109,13.0478,213,0.361364,0,0.380625,6036
1.28831e-06,1.85558e-06,-1.88933e-06,-0.000867178,-0.00159646,-0.00209913,4.68972,2.51276,1.01225,7.40306,10.0213,2.97826,-4.78483,12.8275,213,0.361364,0,0.391875,6037
7.29974e-07,1.9165e-06,-2.16595e-06,-0.00034359,-0.00162772,-0.00250192,6.53667,2.70345,0.0938992,7.59781,10.8906,2.74842,-4.30501,13.171,213,1.28409,0,0.391875,6038
-1.27296e-06,1.84717e-06,-1.96349e-06,-0.000857983,-0.00160921,-0.00198073,5.0814,2.83893,1.72991,7.42744,10.621,3.26309,-4.23386,12.8649,213,19.7386,0,0.391875,6039
-1.23933e-06,1.79058e-06,-1.94146e-06,-0.000808492,-0.00156634,-0.00209256,5.16738,2.90514,1.33434,7.80425,10.8098,3.39568,-4.79866,13.523,213,19.7386,0,0.380625,6040
-7.21683e-07,1.9006e-06,-2.16275e-06,-0.000339472,-0.00162699,-0.00248259,6.62566,2.78234,0.22831,7.73553,11.1385,2.83042,-4.33259,13.4106,213,18.8159,0,0.391875,6041
7.20093e-07,1.85448e-06,-2.1383e-06,-0.00033845,-0.00157672,-0.00241486,7.00617,3.30984,0.80794,7.8909,11.7833,3.33917,-3.99851,13.6786,213,1.28409,0,0.380625,6042
-7.11974e-07,1.83743e-06,-2.13537e-06,-0.00033546,-0.00157545,-0.00238198,7.13293,3.43148,1.02393,8.05111,12.1126,3.46541,-3.98964,13.9577,213,18.8159,0,0.380625,6043
5.32641e-07,1.92014e-06,-2.17862e-06,-0.000193354,-0.00139661,-0.00262382,7.80797,4.21616,0.552835,8.53569,12.7148,4.21884,-4.35662,14.7843,213,2.20682,0,0.391875,6044
3.83427e-07,2.00789e-06,-2.13897e-06,-0.000130054,-0.00148495,-0.0025937,8.01306,3.9686,0.658879,8.89847,13.2349,3.96759,-4.56199,15.417,213,3.12955,0,0.391875,6045
6.26052e-07,1.83309e-06,-2.19808e-06,-0.000201261,-0.00130324,-0.00266007,7.94045,4.65095,0.60071,8.4853,12.7489,4.66487,-4.22168,14.7025,213,1.74545,0,0.38625,6046
5.28537e-07,1.84958e-06,-2.14967e-06,-0.000190053,-0.00131602,-0.00254749,8.32601,4.96492,1.28888,9.78384,14.5893,4.96891,-4.97838,16.9469,213,2.20682,0,0.380625,6047
2.87575e-07,2.02429e-06,-2.148e-06,-9.0802e-05,-0.00147777,-0.00264451,8.11636,3.97616,0.493351,8.88303,13.1869,3.97809,-4.57915,15.3893,213,4.05227,0,0.391875,6048
2.07834e-07,1.98805e-06,-2.16791e-06,-8.17745e-05,-0.00139086,-0.00263481,8.47833,4.5706,0.857339,9.78281,14.4504,4.57105,-5.1152,16.9446,213,4.975,0,0.391875,6049
3.82218e-07,1.9334e-06,-2.11024e-06,-0.000127739,-0.00140803,-0.002519,8.5082,4.68645,1.37011,10.0687,15.0088,4.6845,-5.12855,17.4413,213,3.12955,0,0.380625,6050
3.30599e-07,2.00491e-06,-2.11899e-06,-9.70967e-05,-0.00148161,-0.00262537,8.12609,3.9932,0.578991,9.04656,13.399,3.99334,-4.6941,15.6732,213,3.59091,0,0.38625,6051
2.86826e-07,1.95038e-06,-2.11872e-06,-9.19256e-05,-0.00140154,-0.00258385,8.54359,4.63429,1.10502,10.0024,14.8261,4.63555,-5.17876,17.3257,213,4.05227,0,0.380625,6052
1.55372e-07,2.05718e-06,-2.15334e-06,-3.69545e-05,-0.0015532,-0.00257469,8.43007,3.90394,0.854741,9.09771,13.7418,3.90062,-4.45365,15.7752,213,5.89773,0,0.391875,6053
1.16748e-07,2.09692e-06,-2.14513e-06,-4.6096e-05,-0.00155683,-0.00259509,8.29757,3.78791,0.68863,8.61195,13.1041,3.78973,-4.11976,14.9329,213,6.82045,0,0.391875,6054
1.71606e-07,1.93459e-06,-2.15824e-06,-6.66094e-05,-0.00128879,-0.00271882,8.62898,4.98068,0.711927,8.99983,13.6701,4.98099,-4.32953,15.5913,213,5.43636,0,0.38625,6055
1.54917e-07,1.98897e-06,-2.124e-06,-3.82383e-05,-0.00148735,-0.0026442,8.41056,4.08484,0.63157,8.54767,13.0699,4.08243,-4.0254,14.8115,213,5.89773,0,0.380625,6056
2.07514e-07,1.91667e-06,-2.13802e-06,-7.9712e-05,-0.00131551,-0.00270742,8.49973,4.81077,0.65583,8.8683,13.4456,4.81174,-4.29101,15.3621,213,4.975,0,0.380625,6057
7.31603e-08,2.08921e-06,-2.14739e-06,-4.1699e-05,-0.00146552,-0.00267208,8.37007,4.11988,0.518183,8.54348,12.9879,4.11932,-4.09907,14.8013,213,7.74318,0,0.391875,6058
4.44397e-08,2.07304e-06,-2.14275e-06,-2.03358e-05,-0.00143462,-0.00272728,8.42452,4.20278,0.344082,8.44239,12.8265,4.20315,-4.05827,14.6238,213,8.66591,0,0.391875,6059
1.16012e-07,2.02472e-06,-2.1165e-06,-4.56392e-05,-0.00148026,-0.0025109,8.81027,4.52783,1.45126,9.59635,14.7258,4.53053,-4.46694,16.6322,213,6.82045,0,0.380625,6060
9.42898e-08,2.01018e-06,-2.14248e-06,-5.01167e-05,-0.00145085,-0.00260744,8.56982,4.38854,0.936028,9.56885,14.3216,4.3889,-4.8161,16.5777,213,7.28182,0,0.38625,6061
7.26843e-08,2.01753e-06,-2.11805e-06,-4.09294e-05,-0.0013954,-0.00258811,8.86352,4.82034,1.25999,9.60321,14.6654,4.81947,-4.54102,16.635,213,7.74318,0,0.380625,6062
1.90197e-08,2.06745e-06,-2.14338e-06,-4.02879e-05,-0.00131531,-0.00277008,8.54434,4.73831,0.395697,8.25478,12.7252,4.7376,-3.7844,14.3002,213,9.58864,0,0.391875,6063
-1.77091e-08,2.07545e-06,-2.14322e-06,-3.94737e-05,-0.00132604,-0.00275174,8.57348,4.73297,0.477152,8.26637,12.792,4.73241,-3.74077,14.3193,213,10.5114,0,0.391875,6064
4.39425e-08,2.00273e-06,-2.11302e-06,-2.14469e-05,-0.00136534,-0.00262659,8.95677,4.94515,1.18022,9.53462,14.6027,4.9459,-4.4665,16.5149,213,8.66591,0,0.380625,6065
3.69114e-08,1.97915e-06,-2.13283e-06,-3.01342e-05,-0.00129219,-0.00268393,8.95342,5.1861,1.03163,9.47011,14.4624,5.18655,-4.4778,16.4039,213,9.12727,0,0.38625,6066
1.83499e-08,1.99592e-06,-2.1131e-06,-3.88076e-05,-0.00124668,-0.00268585,9.03828,5.43269,1.13666,9.76879,14.857,5.43119,-4.68057,16.9235,213,9.58864,0,0.380625,6067
-4.5075e-08,2.06987e-06,-2.14345e-06,-2.35837e-05,-0.00142894,-0.002721,8.44246,4.24738,0.390468,8.32982,12.7461,4.24775,-3.91354,14.4287,213,11.4341,0,0.391875,6068
-7.32097e-08,2.08962e-06,-2.14224e-06,-3.73005e-05,-0.00146132,-0.00267929,8.38761,4.13681,0.501078,8.49792,12.9422,4.13692,-4.05363,14.722,213,12.3568,0,0.391875,6069
-1.70506e-08,2.00337e-06,-2.1133e-06,-3.84261e-05,-0.00125672,-0.00266129,9.08667,5.44998,1.25722,9.80317,14.9757,5.44888,-4.63068,16.9818,213,10.5114,0,0.380625,6070
-3.5222e-08,1.9946e-06,-2.13287e-06,-3.15803e-05,-0.00130521,-0.00263486,9.05886,5.25696,1.28789,9.5336,14.707,5.25685,-4.36017,16.5129,213,10.9727,0,0.38625,6071
-4.45499e-08,2.00004e-06,-2.11366e-06,-2.4399e-05,-0.0013607,-0.00264484,8.89542,4.90646,1.07321,9.41934,14.4033,4.90722,-4.4354,16.315,213,11.4341,0,0.380625,6072
-1.16463e-07,2.09251e-06,-2.14642e-06,-4.96971e-05,-0.00152626,-0.00266602,8.14742,3.73978,0.337514,8.59297,12.8345,3.7416,-4.35141,14.8919,213,13.2795,0,0.391875,6073
-1.55287e-07,2.0482e-06,-2.15403e-06,-3.43223e-05,-0.00151472,-0.0027381,8.05002,3.63091,-0.0209724,8.34664,12.3618,3.62957,-4.33144,14.4619,213,14.2023,0,0.391875,6074
-9.16296e-08,2.03209e-06,-2.13072e-06,-4.71531e-05,-0.00144325,-0.0025853,8.68234,4.51487,1.10578,9.77803,14.6719,4.51529,-4.88417,16.9403,213,12.8182,0,0.38625,6075
-1.15684e-07,2.02076e-06,-2.117e-06,-4.89522e-05,-0.00145252,-0.00260031,8.59425,4.40448,0.978249,9.52037,14.3053,4.40705,-4.73541,16.4941,213,13.2795,0,0.380625,6076
-7.28254e-08,2.01771e-06,-2.11274e-06,-3.68808e-05,-0.00139146,-0.00261954,8.80125,4.75773,1.09181,9.56018,14.5068,4.75759,-4.61358,16.5598,213,12.3568,0,0.380625,6077
-2.08844e-07,1.98345e-06,-2.16534e-06,-8.59712e-05,-0.00132881,-0.00275336,8.27328,4.5633,0.310919,8.57876,12.8703,4.56439,-4.28721,14.8614,213,15.125,0,0.391875,6078
-2.87793e-07,2.01491e-06,-2.15073e-06,-8.5247e-05,-0.00147217,-0.00269335,8.01341,3.87333,0.228032,8.75686,12.876,3.87658,-4.63776,15.1693,213,16.0477,0,0.391875,6079
-1.54932e-07,1.98023e-06,-2.12391e-06,-3.61557e-05,-0.00145054,-0.00266769,8.46564,4.24361,0.610306,9.1916,13.7305,4.2417,-4.65267,15.9231,213,14.2023,0,0.380625,6080
-1.69632e-07,1.94714e-06,-2.14529e-06,-6.54921e-05,-0.00123864,-0.00271867,8.79539,5.29346,0.875441,9.20201,14.0373,5.29377,-4.36675,15.9449,213,14.6636,0,0.38625,6081
-2.08378e-07,1.91365e-06,-2.13457e-06,-8.35535e-05,-0.00126347,-0.00273813,8.54374,5.02161,0.619634,9.71673,14.298,5.02235,-5.13542,16.8357,213,15.125,0,0.380625,6082
-3.86979e-07,2.03628e-06,-2.12851e-06,-0.000139209,-0.00151146,-0.00257187,7.94188,3.84562,0.680217,8.52193,12.8326,3.84634,-4.21125,14.7677,213,16.9705,0,0.391875,6083
-5.34235e-07,1.92946e-06,-2.16682e-06,-0.000179176,-0.00146663,-0.00254261,7.93078,4.08764,0.875747,9.11799,13.5243,4.08148,-4.71165,15.7962,213,17.8932,0,0.391875,6084
-2.86767e-07,1.94139e-06,-2.12099e-06,-8.63206e-05,-0.0013935,-0.00265819,8.36782,4.46578,0.690594,9.82908,14.3572,4.468,-5.30099,17.0246,213,16.0477,0,0.380625,6085
-3.27049e-07,2.00684e-06,-2.117e-06,-0.000102663,-0.00148879,-0.00257311,8.23483,4.09714,0.860379,9.42849,13.9757,4.09786,-4.88125,16.3368,213,16.5091,0,0.38625,6086
-3.85806e-07,1.96353e-06,-2.10001e-06,-0.000137754,-0.00143294,-0.00250285,8.41875,4.55251,1.35877,9.58401,14.4725,4.55309,-4.69555,16.6034,213,16.9705,0,0.380625,6087
-5.30141e-07,1.86079e-06,-2.13798e-06,-0.000174955,-0.00140195,-0.00263463,7.87007,4.20741,0.527755,8.3371,12.5402,4.19896,-4.13396,14.4403,213,17.8932,0,0.380625,6088
-6.18552e-07,1.7971e-06,-2.19338e-06,-0.000199307,-0.00130549,-0.00264711,7.98646,4.68441,0.679576,8.89375,13.2221,4.69376,-4.56541,15.4088,213,18.3545,0,0.38625,6089
1.99718e-06,-3.32283e-07,-2.10924e-06,-0.00142016,-0.000123122,-0.00254713,4.53717,8.40893,1.1731,9.49184,14.2811,4.54065,-4.70256,16.4422,213,-0.1,16.575,0.38625,6090
2.10272e-06,-7.20013e-08,-2.09334e-06,-0.00148662,-2.3305e-05,-0.00282209,3.5725,7.94061,-0.41397,8.70771,12.4709,3.57272,-4.9445,15.0834,213,-0.1,12.675,0.38625,6091
2.09674e-06,1.13869e-07,-2.09876e-06,-0.00153961,-3.30245e-05,-0.00274916,3.44673,7.944,-0.163871,8.69744,12.5874,3.44699,-4.80751,15.0709,213,-0.1,6.825,0.38625,6092
1.96175e-06,4.34292e-07,-2.09102e-06,-0.00137146,-0.000151158,-0.00266852,4.36307,8.00577,0.491261,9.04815,13.2948,4.36681,-4.8015,15.6723,213,-0.1,2.925,0.38625,6093
1.88129e-06,-7.49473e-07,-2.08923e-06,-0.00163835,-0.000528852,-0.00226976,2.78672,6.09867,0.901938,7.42553,10.8627,2.91307,-3.9884,12.8721,213,-0.1,18.525,0.38625,6094
2.07366e-06,-1.64024e-07,-2.09388e-06,-0.00135754,-7.23348e-05,-0.00268281,4.65348,8.4899,0.697428,8.69451,13.288,4.65388,-4.10104,15.0595,213,-0.1,14.625,0.38625,6095
2.07911e-06,-1.57945e-08,-2.08081e-06,-0.00126138,-3.68436e-05,-0.00279762,4.99393,8.64925,0.408119,8.48342,13.0122,4.99384,-3.9547,14.7011,213,-0.1,10.725,0.38625,6096
2.10593e-06,4.62916e-08,-2.0772e-06,-0.00139014,-3.37756e-05,-0.00273238,4.41786,8.4667,0.411171,8.79649,13.2354,4.418,-4.35762,15.236,213,-0.1,8.775,0.38625,6097
2.04613e-06,2.31684e-07,-2.10573e-06,-0.001357,-8.8296e-05,-0.00266598,4.65954,8.44672,0.75214,8.67561,13.2751,4.65948,-4.07615,15.0267,213,-0.1,4.875,0.38625,6098
1.90548e-06,9.24954e-07,-2.01373e-06,-0.00162825,-0.000563116,-0.00228363,2.69626,5.87577,0.739916,7.12817,10.3792,2.80993,-3.87716,12.3542,213,-0.1,0.975,0.38625,6099
1.80632e-06,1.24366e-06,-1.85183e-06,-0.00158036,-0.000786371,-0.00199228,3.20707,5.57718,1.97746,7.30602,10.832,3.70971,-3.78002,12.6557,213,-0.1,0.4875,0.380625,6100
1.86348e-06,1.27632e-06,-1.87407e-06,-0.00162159,-0.000834403,-0.00210073,2.45692,4.80673,1.02663,7.24184,9.89267,2.98862,-4.591,12.5478,213,-0.1,0.4875,0.391875,6101
1.96182e-06,7.15027e-07,-2.1161e-06,-0.0016744,-0.000317333,-0.00245983,2.63283,6.68376,0.288243,7.65619,11.1289,2.65948,-4.18352,13.2858,213,-0.1,1.4625,0.391875,6102
1.74371e-06,-1.05201e-06,-2.0438e-06,-0.0015956,-0.000754974,-0.00209426,2.88937,5.3987,1.40083,7.89525,10.9923,3.49474,-4.79817,13.6808,213,-0.1,19.0125,0.380625,6103
1.80092e-06,-1.08409e-06,-2.06582e-06,-0.00163805,-0.000804238,-0.00198934,2.80451,5.29352,1.7559,7.49895,10.7536,3.34459,-4.24429,12.9889,213,-0.1,19.0125,0.391875,6104
1.95834e-06,-5.56594e-07,-2.12638e-06,-0.00168287,-0.000279003,-0.0024116,2.85519,7.04584,0.679894,7.78501,11.6405,2.86996,-3.92953,13.52,213,-0.1,18.0375,0.391875,6105
1.89766e-06,7.06177e-07,-2.08915e-06,-0.00162487,-0.000315339,-0.00235675,3.271,7.18006,1.08631,7.9449,12.0686,3.29002,-3.82122,13.7862,213,-0.1,1.4625,0.380625,6106
1.89545e-06,-5.48889e-07,-2.09914e-06,-0.00163363,-0.000276987,-0.00245982,3.01183,7.06151,0.54559,7.88277,11.673,3.03843,-4.09252,13.674,213,-0.1,18.0375,0.380625,6107
2.0381e-06,-2.7903e-07,-2.13057e-06,-0.00144746,-9.77719e-05,-0.00262195,4.21219,8.24111,0.706234,8.9374,13.4098,4.2147,-4.46498,15.4822,213,-0.1,16.0875,0.391875,6108
2.00266e-06,-4.00353e-07,-2.12652e-06,-0.00147059,-0.000150321,-0.00249645,4.30115,8.24226,1.2389,9.67942,14.4174,4.30634,-4.94144,16.7708,213,-0.1,17.0625,0.391875,6109
1.9304e-06,-3.97234e-07,-2.0981e-06,-0.0013868,-0.000147743,-0.00261279,4.45621,8.15489,0.796529,8.84523,13.3187,4.4606,-4.37172,15.3204,213,-0.1,17.0625,0.380625,6110
1.90987e-06,-4.77891e-07,-2.12535e-06,-0.00140306,-0.000145378,-0.00260825,4.378,8.13229,0.780437,8.62696,13.0777,4.38919,-4.17619,14.9425,213,-0.1,17.55,0.38625,6111
2.10282e-06,-1.29443e-07,-2.10156e-06,-0.00138515,-7.02315e-05,-0.00268691,4.47715,8.40228,0.591315,8.41048,12.9069,4.47791,-3.91407,14.5674,213,-0.1,14.1375,0.391875,6112
2.07957e-06,-2.00393e-07,-2.12413e-06,-0.00139295,-7.53975e-05,-0.00270097,4.36816,8.30114,0.46361,8.3425,12.7258,4.36627,-3.95918,14.4496,213,-0.1,15.1125,0.391875,6113
1.96381e-06,-2.77798e-07,-2.10184e-06,-0.0013672,-9.68809e-05,-0.0025105,5.06266,8.85465,1.64981,10.18,15.4307,5.06578,-4.92934,17.6333,213,-0.1,16.0875,0.380625,6114
1.97868e-06,-2.37266e-07,-2.13319e-06,-0.00135883,-7.59385e-05,-0.00264157,4.76485,8.59439,0.935773,9.22774,13.9931,4.76423,-4.46235,15.9829,213,-0.1,15.6,0.38625,6115
2.00865e-06,-1.99459e-07,-2.09453e-06,-0.00132333,-7.51291e-05,-0.00262305,5.04476,8.77073,1.16499,9.66322,14.6322,5.04245,-4.6942,16.7373,213,-0.1,15.1125,0.380625,6116
2.10999e-06,-6.14339e-08,-2.11896e-06,-0.00149792,-2.11675e-05,-0.00283486,3.46922,7.87743,-0.52166,8.49079,12.1684,3.46975,-4.81317,14.7079,213,-0.1,12.1875,0.391875,6117
2.12026e-06,-8.37989e-08,-2.10356e-06,-0.0015341,-2.45341e-05,-0.00277283,3.43255,7.9387,-0.265167,8.51408,12.351,3.43226,-4.67717,14.7524,213,-0.1,13.1625,0.391875,6118
2.04991e-06,-8.38548e-08,-2.07314e-06,-0.00146452,-2.58751e-05,-0.00271168,4.05059,8.34506,0.327744,9.44833,13.7848,4.05037,-5.11182,16.3675,213,-0.1,13.1625,0.380625,6119
2.02345e-06,-9.65865e-08,-2.08814e-06,-0.00138266,-4.96684e-05,-0.00262441,4.75593,8.735,1.04919,9.42757,14.3193,4.75663,-4.53582,16.3296,213,-0.1,13.65,0.38625,6120
2.03019e-06,-1.29708e-07,-2.07205e-06,-0.00131161,-6.8407e-05,-0.002615,5.1638,8.87484,1.27308,9.78718,14.8611,5.16377,-4.7132,16.9521,213,-0.1,14.1375,0.380625,6121
2.11094e-06,2.34173e-09,-2.09123e-06,-0.00129231,-3.75025e-05,-0.00275806,4.92686,8.67256,0.551476,8.29443,12.9065,4.92673,-3.68234,14.3698,213,-0.1,10.2375,0.391875,6122
2.09037e-06,-3.39222e-08,-2.11044e-06,-0.00128869,-3.69129e-05,-0.00281073,4.78399,8.52063,0.240563,8.21881,12.6001,4.78258,-3.83752,14.2411,213,-0.1,11.2125,0.391875,6123
2.04107e-06,-6.08534e-08,-2.08741e-06,-0.00142975,-2.13814e-05,-0.00279886,4.00242,8.2065,-0.0844856,9.39568,13.4564,4.00301,-5.33497,16.2739,213,-0.1,12.1875,0.380625,6124
2.0043e-06,-5.12723e-08,-2.11781e-06,-0.00130671,-3.09871e-05,-0.0027989,4.72932,8.53746,0.275022,9.33498,13.7408,4.73014,-4.92915,16.1719,213,-0.1,11.7,0.38625,6125
2.02028e-06,-3.33118e-08,-2.07903e-06,-0.00122425,-3.60755e-05,-0.00279121,5.24528,8.79207,0.56778,9.62669,14.3076,5.24337,-4.9458,16.6834,213,-0.1,11.2125,0.380625,6126
2.12129e-06,6.47336e-08,-2.10485e-06,-0.00141905,-4.14231e-05,-0.00274833,4.16501,8.27732,0.196998,8.59594,12.8337,4.16382,-4.35818,14.8888,213,-0.1,8.2875,0.391875,6127
2.12717e-06,3.16821e-08,-2.08928e-06,-0.00141912,-2.63582e-05,-0.00271825,4.30774,8.46524,0.42973,8.62789,13.0753,4.30789,-4.18048,14.9446,213,-0.1,9.2625,0.391875,6128
2.03881e-06,2.10188e-09,-2.06073e-06,-0.00122385,-3.68467e-05,-0.00272177,5.46556,9.00885,0.994162,9.78805,14.7897,5.46527,-4.7864,16.9597,213,-0.1,10.2375,0.380625,6129
2.04335e-06,2.0439e-08,-2.08031e-06,-0.00128508,-2.96964e-05,-0.00265909,5.31004,9.05745,1.2085,9.68554,14.8184,5.3102,-4.55264,16.7768,213,-0.1,9.75,0.38625,6130
2.0558e-06,3.15306e-08,-2.05908e-06,-0.00135534,-2.6773e-05,-0.00268346,4.80946,8.77532,0.844898,9.69267,14.5028,4.80935,-4.88251,16.7882,213,-0.1,9.2625,0.380625,6131
2.10584e-06,1.31026e-07,-2.12453e-06,-0.0015711,-3.67718e-05,-0.00270898,3.36844,7.94851,-0.0282418,8.5451,12.5061,3.36668,-4.58409,14.8125,213,-0.1,6.3375,0.391875,6132
2.11827e-06,9.9211e-08,-2.11472e-06,-0.00156687,-2.82885e-05,-0.00276174,3.25403,7.84681,-0.312755,8.57922,12.3456,3.25526,-4.81281,14.8684,213,-0.1,7.3125,0.391875,6133
2.04886e-06,9.85463e-08,-2.08358e-06,-0.00149934,-2.86137e-05,-0.00275565,3.68808,8.0783,-0.0621174,9.34982,13.3572,3.68947,-5.34243,16.1975,213,-0.1,7.3125,0.380625,6134
2.03228e-06,8.61222e-08,-2.11066e-06,-0.00141361,-3.99683e-05,-0.00277293,4.12507,8.2255,0.0674193,9.40956,13.5557,4.1258,-5.26347,16.2978,213,-0.1,7.8,0.38625,6135
2.05048e-06,6.41898e-08,-2.0739e-06,-0.00134927,-4.03844e-05,-0.00273948,4.62599,8.53311,0.476114,9.58239,14.0878,4.62447,-5.07701,16.5976,213,-0.1,8.2875,0.380625,6136
2.05494e-06,2.76377e-07,-2.11593e-06,-0.00140011,-9.31829e-05,-0.00258465,4.6366,8.53787,1.10066,9.50213,14.3222,4.63508,-4.68211,16.4592,213,-0.1,4.3875,0.391875,6137
2.07796e-06,1.89778e-07,-2.13032e-06,-0.0013833,-8.43906e-05,-0.00267098,4.49412,8.37148,0.65032,8.43754,12.9484,4.49417,-3.92666,14.6143,213,-0.1,5.3625,0.391875,6138
2.03595e-06,1.31118e-07,-2.0947e-06,-0.0015023,-3.81663e-05,-0.00265818,3.94867,8.31923,0.498287,9.36262,13.7722,3.94708,-4.95307,16.2231,213,-0.1,6.3375,0.380625,6139
2.00689e-06,1.50455e-07,-2.13161e-06,-0.00139705,-6.37949e-05,-0.00257649,4.77452,8.75438,1.25381,9.4472,14.4511,4.77485,-4.44327,16.3646,213,-0.1,5.85,0.38625,6140
2.00557e-06,1.89955e-07,-2.1013e-06,-0.00131009,-8.25398e-05,-0.00256841,5.27604,8.94037,1.51985,9.76878,14.9991,5.27553,-4.53842,16.9201,213,-0.1,5.3625,0.380625,6141
1.97695e-06,5.18441e-07,-2.11862e-06,-0.00139454,-0.000189692,-0.00263605,4.20174,7.79831,0.495756,8.5918,12.734,4.21141,-4.44961,14.8816,213,-0.1,2.4375,0.391875,6142
2.00435e-06,3.70072e-07,-2.10525e-06,-0.00142082,-0.000114771,-0.00262099,4.32533,8.22399,0.742736,9.55629,14.0386,4.3274,-5.07396,16.5527,213,-0.1,3.4125,0.391875,6143
1.93201e-06,3.69004e-07,-2.07591e-06,-0.00134518,-0.000114691,-0.00270203,4.53426,8.20737,0.483982,8.83295,13.1778,4.536,-4.48814,15.3003,213,-0.1,3.4125,0.380625,6144
1.96174e-06,3.22493e-07,-2.10268e-06,-0.00137713,-8.95083e-05,-0.0026139,4.69694,8.54059,1.00511,9.31155,14.0847,4.69629,-4.53838,16.1283,213,-0.1,3.9,0.38625,6145
1.98342e-06,2.75417e-07,-2.08676e-06,-0.00133026,-9.29366e-05,-0.00270161,4.69643,8.38994,0.602865,8.49184,12.9892,4.69456,-3.9945,14.7096,213,-0.1,4.3875,0.380625,6146
1.90616e-06,5.15061e-07,-2.08946e-06,-0.0013247,-0.000185337,-0.00257907,4.82627,8.22735,1.08188,9.59736,14.2472,4.83583,-4.94753,16.6242,213,-0.1,2.4375,0.380625,6147
1.90838e-06,6.16952e-07,-2.1296e-06,-0.001378,-0.000183053,-0.0025395,4.63086,8.19787,1.16372,8.96282,13.635,4.64805,-4.29062,15.5241,213,-0.1,1.95,0.38625,6148
1.35608e-09,1.82352e-08,-2.48276e-06,-2.83815e-05,-2.66066e-05,-0.00882684,15.3943,15.3984,-0.00547286,7.70194,15.3984,15.3943,-0.00547714,15.4018,213,10.0046,9.67452,0.375,6149
1.71878e-07,1.65635e-07,-2.4744e-06,-6.28533e-05,-5.91996e-05,-0.00760609,14.1153,14.1242,0.00477159,7.06281,14.1298,14.1103,0.00415548,14.1159,213,5.56294,5.69055,0.375,6150
1.57142e-07,-9.90977e-08,-2.47757e-06,-5.7831e-05,-3.98086e-05,-0.00692909,13.5046,13.5501,0.00833452,6.77158,13.5512,13.5038,0.00801384,13.5196,213,5.84897,13.7254,0.375,6151
-1.77657e-07,-9.35839e-08,-2.4776e-06,-6.30834e-05,-3.86405e-05,-0.00940161,15.8051,15.8586,-0.0388799,7.94908,15.859,15.8049,-0.0391248,15.8712,213,14.5848,13.5835,0.375,6152
-1.70561e-07,1.65663e-07,-2.47475e-06,-6.14134e-05,-5.85798e-05,-0.0088935,15.3291,15.3356,-0.01878,7.67983,15.3404,15.3248,-0.0192471,15.3518,213,14.5361,5.68958,0.375,6153
3.78206e-10,-1.82472e-07,-2.47337e-06,-2.54455e-05,-6.4427e-05,-0.00938526,15.951,15.8658,0.055526,7.94782,15.9511,15.8658,0.0554471,15.8532,213,10.0512,15.2034,0.375,6154
3.84307e-10,2.69969e-07,-2.4662e-06,-2.5284e-05,-8.76234e-05,-0.00774552,14.429,14.2791,0.114377,7.15754,14.4292,14.2791,0.114163,14.2406,213,10.05,4.43898,0.375,6155
-3.10343e-07,1.19243e-08,-2.46128e-06,-9.36825e-05,-2.43988e-05,-0.0100045,16.451,16.5969,0.158452,8.22302,16.6007,16.4509,0.154681,16.3717,213,15.964,9.83306,0.375,6156
3.04294e-07,1.20378e-08,-2.46034e-06,-0.00010132,-2.34075e-05,-0.0093324,15.8175,15.9887,0.194684,7.89847,15.9902,15.8175,0.193231,15.7113,213,4.13582,9.83322,0.375,6157
-3.57889e-07,3.46458e-07,-2.45583e-06,-0.000115363,-0.000112939,-0.00881855,15.1365,15.1422,0.0916257,7.53841,15.1666,15.114,0.0897569,15.0506,213,16.8055,3.41598,0.375,6158
3.58056e-07,3.46401e-07,-2.45608e-06,-0.000115279,-0.000111696,-0.00932874,15.5614,15.5693,-0.0104946,7.8007,15.5888,15.544,-0.0125926,15.579,213,3.29449,3.41598,0.375,6159
3.63732e-07,-2.2619e-07,-2.46005e-06,-0.000121837,-7.61162e-05,-0.0107253,16.9509,17.0428,0.0399846,8.50422,17.0472,16.9478,0.0387276,16.959,213,3.29449,16.084,0.375,6160
-3.63777e-07,-2.26749e-07,-2.45857e-06,-0.00012199,-7.46444e-05,-0.0114913,17.663,17.7527,-0.0027606,8.88012,17.7566,17.66,-0.00366792,17.7122,213,16.8055,16.084,0.375,6161
9.86593e-08,-1.11463e-08,-2.48167e-06,-4.33384e-05,-2.377e-05,-0.00882341,15.3391,15.3837,-0.018724,7.70128,15.3838,15.3391,-0.0187889,15.3803,213,7.09327,10.8337,0.375,6162
-9.91308e-08,-1.07573e-08,-2.48024e-06,-4.40127e-05,-2.4323e-05,-0.0088156,15.3523,15.397,0.0120095,7.69259,15.3971,15.3523,0.0119341,15.3628,213,13.0067,10.8337,0.375,6163
-8.40854e-08,-2.70936e-07,-2.47481e-06,-3.70828e-05,-9.24511e-05,-0.00938698,15.8301,15.7085,-0.0388269,7.93594,15.8319,15.7078,-0.0399699,15.8102,213,12.9569,16.3818,0.375,6164
9.16222e-08,-3.0005e-07,-2.47923e-06,-3.96478e-05,-0.000114216,-0.0108114,17.2767,17.129,0.0974265,8.5919,17.2792,17.1286,0.0953647,17.109,213,6.93173,16.6565,0.375,6165
-8.99499e-08,4.00936e-07,-2.47042e-06,-3.88343e-05,-0.000132025,-0.00798173,14.4425,14.2207,-0.0592897,7.25236,14.444,14.2206,-0.0607146,14.3943,213,13.0428,3.22155,0.375,6166
9.00187e-08,3.98807e-07,-2.47124e-06,-3.88424e-05,-0.000129315,-0.00937154,15.7744,15.5771,-0.0535056,7.91466,15.7751,15.5771,-0.0541899,15.7312,213,7.05697,3.22197,0.375,6167
-3.97211e-08,1.02925e-07,-2.48171e-06,-3.00598e-05,-4.17222e-05,-0.00941686,15.913,15.8873,-0.0366574,7.97497,15.9132,15.8872,-0.0367716,15.937,213,11.4485,7.04177,0.375,6168
4.04869e-08,1.01511e-07,-2.48114e-06,-3.02181e-05,-4.18951e-05,-0.0100018,16.4837,16.4591,-0.0125349,8.24826,16.4839,16.459,-0.012611,16.4841,213,8.64136,7.06189,0.375,6169
4.51637e-07,-5.59458e-08,-2.47797e-06,-0.000151447,-2.85796e-05,-0.009414,15.4103,15.6793,-0.250964,7.96623,15.6804,15.4103,-0.252068,15.7992,213,2.86107,12.556,0.375,6170
4.44832e-07,9.62877e-08,-2.48065e-06,-0.000152324,-3.78472e-05,-0.00937771,15.4687,15.7184,-0.11677,7.91883,15.7197,15.4686,-0.117989,15.7137,213,2.86107,6.94395,0.375,6171
-4.44961e-07,-5.61673e-08,-2.4882e-06,-0.000159702,-2.83239e-05,-0.0117254,17.5297,17.7793,-0.353939,9.06752,17.7804,17.5293,-0.354661,18.0108,213,17.2389,12.556,0.375,6172
-4.38591e-07,9.67826e-08,-2.48935e-06,-0.000160853,-3.78181e-05,-0.0102507,16.1943,16.4514,-0.234091,8.34398,16.4527,16.1942,-0.235284,16.5602,213,17.2389,6.94395,0.375,6173
2.78913e-08,-5.85483e-08,-2.48235e-06,-2.87258e-05,-3.1604e-05,-0.0104935,16.9537,16.9478,-0.0179117,8.48584,16.9537,16.9478,-0.0179456,16.9687,213,9.07089,12.5109,0.375,6174
-5.41976e-08,-8.4784e-08,-2.48117e-06,-3.26929e-05,-3.80157e-05,-0.0086704,15.2268,15.2145,-0.00442926,7.61588,15.2273,15.2141,-0.00450886,15.2252,213,11.8993,13.2829,0.375,6175
-1.36589e-07,5.18231e-08,-2.47697e-06,-5.4024e-05,-2.8911e-05,-0.00939118,15.89,15.9452,0.0441745,7.95088,15.9457,15.8897,0.0439599,15.8738,213,13.7888,8.39217,0.375,6176
1.3879e-07,5.14321e-08,-2.47888e-06,-5.44397e-05,-2.94175e-05,-0.00940043,15.8671,15.9221,0.00428166,7.95916,15.9224,15.867,0.00410123,15.8907,213,6.25605,8.40327,0.375,6177
3.99856e-10,5.99792e-07,-2.50007e-06,-1.942e-05,-0.000159083,-0.0100403,16.1266,15.8608,-0.492504,8.36517,16.1822,15.8608,-0.548118,16.572,213,10.05,2.12359,0.375,6178
-1.8245e-10,-4.00303e-07,-2.49457e-06,-1.55586e-05,-5.84334e-05,-0.00874143,14.9596,14.8914,-0.522572,7.85307,15.0719,14.8908,-0.634267,15.6164,213,10.05,17.3764,0.375,6179
4.94266e-08,-1.21072e-07,-2.47782e-06,-3.00797e-05,-4.61886e-05,-0.0115361,17.9944,17.9637,0.0657504,8.96458,17.9948,17.9634,0.0656726,17.9134,213,8.3247,14.1296,0.375,6180
-1.78599e-07,5.2717e-07,-2.49003e-06,-6.07378e-05,-0.000162124,-0.0111522,17.0456,16.8664,-0.523612,8.80677,17.0682,16.8656,-0.545366,17.5131,213,14.8487,2.28395,0.375,6181
1.71227e-07,-3.58345e-07,-2.48447e-06,-6.20264e-05,-8.8396e-05,-0.00990717,16.0262,15.9913,-0.362607,8.23137,16.0701,15.9775,-0.392656,16.4166,213,5.25615,17.2547,0.375,6182
1.78569e-07,5.3358e-07,-2.47883e-06,-6.15079e-05,-0.000161853,-0.00979384,16.1106,15.8971,-0.0281093,8.07548,16.1166,15.8974,-0.0343922,16.0425,213,5.25123,2.284,0.375,6183
-1.71168e-07,-3.50058e-07,-2.47881e-06,-6.21198e-05,-0.000111548,-0.0101412,16.3822,16.286,-0.135294,8.26584,16.3916,16.2814,-0.140076,16.4768,213,14.8385,17.2283,0.375,6184
6.09307e-07,-4.50325e-09,-2.50851e-06,-0.000149338,-1.77521e-05,-0.00806066,14.0952,14.3908,-0.330807,7.41246,14.4424,14.0952,-0.382478,14.6544,213,2.03454,10.5086,0.375,6185
-6.00785e-07,-3.93103e-09,-2.50392e-06,-0.000195564,-2.14656e-05,-0.00872482,14.6529,15.0342,-0.253194,7.6875,15.078,14.6529,-0.296992,15.1669,213,18.0655,10.5086,0.375,6186
2.01705e-07,-2.99484e-08,-2.47488e-06,-7.07347e-05,-2.52438e-05,-0.0115333,17.8853,17.9722,0.0441753,8.96442,17.9726,17.8852,0.0437947,17.8853,213,5.27175,11.6005,0.375,6187
-2.12361e-07,-3.12236e-08,-2.4729e-06,-7.29429e-05,-2.52866e-05,-0.00995986,16.4199,16.521,0.0929715,8.21478,16.522,16.4195,0.0924152,16.3786,213,14.9777,11.6358,0.375,6188
4.8028e-08,2.10986e-07,-2.47351e-06,-3.04515e-05,-7.27515e-05,-0.0101594,16.6832,16.595,0.0783176,8.30291,16.6838,16.5948,0.0779402,16.5615,213,8.32648,5.14147,0.375,6189
-4.81058e-08,2.09752e-07,-2.47459e-06,-2.98403e-05,-7.17069e-05,-0.00938305,15.9183,15.8263,0.0373104,7.9409,15.9188,15.8261,0.0369919,15.8357,213,11.77,5.13793,0.375,6190
-6.60666e-07,-1.29281e-07,-2.50332e-06,-0.000203119,-3.68273e-05,-0.0089439,14.6676,15.0278,-0.437262,7.74382,15.0393,14.6671,-0.448321,15.3049,213,18.3168,14.3968,0.375,6191
-6.49846e-07,1.9225e-07,-2.50051e-06,-0.000190811,-5.72978e-05,-0.00819605,13.856,14.1559,-0.575886,7.39624,14.1864,13.8558,-0.606135,14.63,213,18.3168,5.10316,0.375,6192
6.5285e-07,1.93228e-07,-2.50138e-06,-0.000190531,-5.76865e-05,-0.00980507,15.5223,15.7897,-0.46415,8.14263,15.8053,15.5224,-0.479917,16.1457,213,1.78318,5.10316,0.375,6193
6.6506e-07,-1.29317e-07,-2.5068e-06,-0.000181514,-3.70282e-05,-0.00729702,13.1881,13.5334,-0.38902,6.97484,13.547,13.1882,-0.402697,13.7738,213,1.78318,14.3968,0.375,6194
-6.40753e-08,3.59516e-08,-2.48167e-06,-3.4009e-05,-2.61149e-05,-0.00941611,15.9326,15.9499,-0.0085275,7.97933,15.9501,15.9325,-0.00857503,15.9499,213,12.1199,9.01285,0.375,6195
6.52381e-08,3.74115e-08,-2.48239e-06,-3.39705e-05,-2.70429e-05,-0.0110321,17.4481,17.4617,-0.0213625,8.74162,17.4618,17.448,-0.0214072,17.4763,213,7.93564,8.95228,0.375,6196
5.86047e-07,-3.89511e-07,-2.52155e-06,-0.000238475,-0.000138563,-0.0102332,15.7687,15.9741,-0.415039,8.19836,15.9789,15.7666,-0.417783,16.2916,213,1.79521,17.5749,0.375,6197
5.86408e-07,5.60418e-07,-2.52107e-06,-0.000188533,-0.000188186,-0.00970635,15.4807,15.4765,-0.303418,7.90755,15.5084,15.4521,-0.306731,15.7871,213,1.79521,1.92508,0.375,6198
-5.84736e-07,-3.84188e-07,-2.52338e-06,-0.00021179,-0.000137439,-0.00895122,14.6754,14.8539,-0.3241,7.59608,14.8562,14.6849,-0.335902,15.1072,213,18.3048,17.5749,0.375,6199
-5.99729e-07,5.70724e-07,-2.52509e-06,-0.000206358,-0.000207747,-0.00931258,14.999,14.9918,-0.362781,7.68927,15.0152,14.9761,-0.363319,15.359,213,18.3048,1.92508,0.375,6200
-2.97664e-08,-2.91184e-08,-2.48283e-06,-2.87617e-05,-2.56617e-05,-0.00786468,14.4782,14.4857,-0.0164112,7.25115,14.4859,14.4781,-0.0164346,14.4984,213,11.0632,11.519,0.375,6201
3.18334e-07,-1.17157e-07,-2.46714e-06,-0.000106508,-4.3187e-05,-0.00936491,15.6789,15.8181,0.00729457,7.90638,15.8193,15.6785,0.00653932,15.7428,213,3.86597,14.2232,0.375,6202
3.11755e-07,1.83901e-07,-2.46182e-06,-0.000102155,-6.32393e-05,-0.00708878,13.4679,13.5654,-0.0268714,6.79825,13.5685,13.4659,-0.0279667,13.5455,213,3.86597,5.2768,0.375,6203
-3.19043e-07,-1.17176e-07,-2.46584e-06,-0.000107452,-4.2812e-05,-0.00773437,14.1705,14.326,0.088455,7.11969,14.3271,14.1702,0.0876986,14.1616,213,16.234,14.2232,0.375,6204
-3.12194e-07,1.83969e-07,-2.46272e-06,-0.000103926,-6.24804e-05,-0.0103516,16.5938,16.6788,-0.0277791,8.35496,16.6812,16.5924,-0.028736,16.6657,213,16.234,5.2768,0.375,6205
7.44656e-07,4.76913e-08,-2.51765e-06,-0.000279216,-2.38472e-05,-0.00889325,14.5713,15.1275,-0.242306,7.70088,15.1435,14.5713,-0.258284,15.1238,213,1.53233,8.37929,0.375,6206
-7.22705e-07,4.85957e-08,-2.50469e-06,-0.000320686,-2.76517e-05,-0.00839159,14.223,14.8808,0.12497,7.38143,14.8843,14.223,0.121475,14.4435,213,18.5677,8.37929,0.375,6207
-2.33444e-07,8.66928e-08,-2.47138e-06,-7.59926e-05,-3.74399e-05,-0.00799272,14.4602,14.5515,0.00529275,7.27365,14.5523,14.4596,0.00503893,14.5012,213,15.3361,7.3,0.375,6208
2.41464e-07,8.22625e-08,-2.47e-06,-8.12128e-05,-3.61646e-05,-0.0107637,17.1196,17.21,0.0444738,8.58325,17.2106,17.1193,0.044115,17.121,213,4.69563,7.40844,0.375,6209
4.44347e-08,-4.90622e-07,-2.50509e-06,-2.51775e-05,-0.000156057,-0.00917385,15.0081,14.742,-0.84872,7.97366,15.0538,14.741,-0.893465,15.7932,213,8.15556,17.8726,0.375,6210
-4.7535e-08,7.28976e-07,-2.50923e-06,-2.76455e-05,-0.000251944,-0.0106853,16.4344,16.004,-0.776652,8.62676,16.4557,16.0038,-0.797779,17.032,213,11.8024,1.62276,0.375,6211
4.74954e-08,7.35231e-07,-2.5171e-06,-2.73604e-05,-0.000258061,-0.00939029,15.5169,15.0319,-0.355258,7.94307,15.5239,15.0319,-0.362246,15.6459,213,8.29761,1.62276,0.375,6212
-4.35612e-08,-4.95962e-07,-2.50197e-06,-2.27498e-05,-0.000158892,-0.0098153,15.9083,15.6394,-0.490258,8.20487,15.9139,15.6394,-0.495846,16.2742,213,11.885,17.8638,0.375,6213
1.82848e-07,2.85687e-07,-2.4646e-06,-6.48782e-05,-9.65515e-05,-0.0105231,16.9223,16.8575,0.0739044,8.42577,16.9249,16.8555,0.0733317,16.817,213,5.2873,4.12494,0.375,6214
1.80237e-07,-1.94059e-07,-2.46527e-06,-6.49013e-05,-7.00666e-05,-0.00937061,15.7934,15.7818,0.0197239,7.89146,15.8019,15.774,0.0190158,15.769,213,5.35339,15.5038,0.375,6215
-1.82633e-07,2.87121e-07,-2.46052e-06,-6.42238e-05,-9.92017e-05,-0.0112753,17.7468,17.6792,0.210391,8.76969,17.7492,17.6774,0.209832,17.5036,213,14.8124,4.1247,0.375,6216
-1.83306e-07,-1.82857e-07,-2.46717e-06,-6.66869e-05,-6.34435e-05,-0.00937499,15.7896,15.7967,0.00874509,7.89876,15.8059,15.7808,0.00836098,15.785,213,14.7805,15.358,0.375,6217
-4.65147e-08,-1.64089e-07,-2.47656e-06,-3.02562e-05,-5.9616e-05,-0.00940561,15.8952,15.8307,-0.0302288,7.96302,15.8956,15.8306,-0.0304624,15.8936,213,11.7258,14.9304,0.375,6218
4.75458e-10,6.7512e-08,-2.4822e-06,-2.79942e-05,-3.22341e-05,-0.00941844,15.9403,15.9312,-0.0183441,7.97936,15.9403,15.9312,-0.0183784,15.9541,213,10.049,7.98216,0.375,6219
-5.58723e-11,1.47858e-07,-2.47912e-06,-2.67257e-05,-5.50859e-05,-0.00792057,14.5419,14.4741,0.0211796,7.26062,14.5422,14.4741,0.0209233,14.4873,213,10.0475,6.13403,0.375,6220
9.13356e-08,-5.68742e-08,-2.48157e-06,-4.06898e-05,-3.05964e-05,-0.00744309,14.0293,14.0541,-0.0289549,7.04175,14.0544,14.0291,-0.0290562,14.0708,213,7.24233,12.4858,0.375,6221
-2.96551e-07,-4.50191e-07,-2.49319e-06,-9.13893e-05,-8.38348e-05,-0.00914193,15.0443,15.0866,-0.607711,7.88481,15.1284,15.036,-0.641193,15.7236,213,16.5298,17.8008,0.375,6222
-3.10587e-07,6.56755e-07,-2.50444e-06,-8.60041e-05,-0.000187167,-0.00949418,15.2143,15.0306,-0.726443,8.04092,15.2854,15.0296,-0.796473,15.9555,213,16.5298,1.69917,0.375,6223
3.1291e-07,6.68948e-07,-2.5051e-06,-8.66833e-05,-0.00016345,-0.00826772,14.1584,13.994,-0.60351,7.42343,14.2033,13.9891,-0.643528,14.7409,213,3.57022,1.69917,0.375,6224
2.95073e-07,-4.35901e-07,-2.49561e-06,-9.08784e-05,-0.000101204,-0.00915892,14.8877,14.8995,-0.779801,7.95045,15.0151,14.8782,-0.885826,15.8329,213,3.57022,17.8008,0.375,6225
3.82033e-08,-1.16151e-08,-2.48287e-06,-3.0236e-05,-2.45759e-05,-0.0116942,18.0914,18.1022,-0.0117831,9.05704,18.1023,18.0914,-0.0118067,18.1086,213,8.76949,10.8317,0.375,6226
4.29074e-08,-2.47103e-07,-2.47295e-06,-2.79284e-05,-8.43128e-05,-0.00856173,15.0539,14.9242,-0.0690731,7.56211,15.0547,14.924,-0.0695789,15.0593,213,8.40604,16.053,0.375,6227
-3.30024e-08,3.96304e-07,-2.46824e-06,-2.74573e-05,-0.000130827,-0.00828259,14.837,14.5953,0.0390778,7.40082,14.8388,14.5953,0.0372053,14.6814,213,11.3082,3.30105,0.375,6228
3.25347e-08,3.94351e-07,-2.46529e-06,-2.63153e-05,-0.000124614,-0.0102093,16.339,16.1334,-0.401934,8.37195,16.3405,16.1335,-0.403449,16.6414,213,8.79125,3.30162,0.375,6229
-1.02232e-07,7.9675e-07,-2.49847e-06,-3.57309e-05,-0.000295377,-0.00941147,15.3547,14.806,-0.527731,7.94242,15.3559,14.8059,-0.528896,15.6171,213,13.4351,1.42565,0.375,6230
1.07002e-07,7.92808e-07,-2.50687e-06,-3.18248e-05,-0.000292821,-0.00946894,15.2513,14.699,-0.752611,8.00253,15.2519,14.699,-0.75318,15.7359,213,6.6648,1.42575,0.375,6231
-9.23313e-08,-5.48904e-07,-2.50558e-06,-3.25147e-05,-0.000210089,-0.00954157,15.306,14.9326,-0.81643,8.06256,15.3075,14.9324,-0.817653,15.9409,213,13.4325,18.0948,0.375,6232
9.12211e-08,-5.63261e-07,-2.50325e-06,-3.29831e-05,-0.000242117,-0.00903815,14.7724,14.3194,-0.863911,7.82004,14.7751,14.3178,-0.865016,15.4166,213,6.61232,18.1567,0.375,6233
-1.09904e-07,-5.4992e-08,-2.48032e-06,-4.50663e-05,-3.04735e-05,-0.0110194,17.4205,17.4494,-0.00335042,8.72662,17.4498,17.4203,-0.00346981,17.4385,213,13.2888,12.4443,0.375,6234
-1.72594e-07,1.14346e-08,-2.47058e-06,-6.52237e-05,-2.37712e-05,-0.00935989,15.919,16.0102,0.159398,7.926,16.0108,15.919,0.158804,15.8063,213,14.3478,9.91725,0.375,6235
1.70019e-07,1.0955e-08,-2.47477e-06,-6.2313e-05,-2.38227e-05,-0.00938532,15.8772,15.9617,0.061315,7.95048,15.962,15.8772,0.0610303,15.8587,213,5.75081,9.92104,0.375,6236
-1.03844e-07,1.12379e-07,-2.47932e-06,-4.36552e-05,-4.36607e-05,-0.00940844,15.8657,15.8657,-0.0357486,7.95319,15.8704,15.8611,-0.035937,15.9017,213,13.2009,6.77638,0.375,6237
1.05338e-07,1.11612e-07,-2.47985e-06,-4.35342e-05,-4.4005e-05,-0.00861933,15.1191,15.1179,-0.0350988,7.57914,15.123,15.1143,-0.0353167,15.1539,213,6.8729,6.78832,0.375,6238
-8.67455e-07,1.05814e-07,-2.46883e-06,-0.000368623,-4.1464e-05,-0.00918594,14.9338,15.6366,0.212255,7.73716,15.6615,14.9339,0.187218,15.1236,213,18.9047,6.81528,0.375,6239
8.75592e-07,1.03564e-07,-2.47626e-06,-0.000358374,-3.77784e-05,-0.00931896,14.722,15.4001,-0.291959,7.8579,15.412,14.7219,-0.303793,15.3824,213,1.19532,6.81528,0.375,6240
-8.44064e-07,-5.9001e-08,-2.47788e-06,-0.000347515,-3.42842e-05,-0.00918059,15.0474,15.7188,0.274973,7.73395,15.7308,15.0475,0.262897,15.1378,213,18.8042,12.5623,0.375,6241
8.48406e-07,-6.01258e-08,-2.49254e-06,-0.000317231,-3.09947e-05,-0.00871487,14.6091,15.2419,0.17946,7.55695,15.2677,14.609,0.15376,14.7956,213,1.29576,12.5623,0.375,6242
-3.2846e-08,-2.72552e-07,-2.47659e-06,-2.69352e-05,-9.42098e-05,-0.00878025,15.3531,15.2003,0.0597736,7.64769,15.3542,15.2001,0.0588255,15.2189,213,11.3338,16.3512,0.375,6243
7.75311e-07,-2.37654e-07,-2.48312e-06,-0.000259034,-6.99708e-05,-0.00936342,14.9343,15.3346,-0.428671,7.88324,15.336,14.9347,-0.43046,15.5697,213,1.41135,16.0551,0.375,6244
-7.75404e-07,-2.37358e-07,-2.48477e-06,-0.000270534,-6.93087e-05,-0.00992634,15.5462,15.9633,-0.292327,8.13662,15.9719,15.5466,-0.301336,16.0648,213,18.6887,16.0551,0.375,6245
7.50294e-07,3.37226e-07,-2.48958e-06,-0.000268504,-9.94841e-05,-0.00823801,13.8639,14.2533,-0.279042,7.26899,14.2564,13.8634,-0.281615,14.3455,213,1.41135,3.44488,0.375,6246
-7.38395e-07,3.36651e-07,-2.49404e-06,-0.00028438,-9.85772e-05,-0.00974387,15.3054,15.6949,-0.287148,7.99422,15.6981,15.3053,-0.29031,15.7957,213,18.6887,3.44488,0.375,6247
-7.85534e-09,-9.74745e-08,-2.48068e-06,-2.70185e-05,-4.08263e-05,-0.00986447,16.3737,16.3441,0.00141687,8.18623,16.3738,16.3441,0.00133056,16.3576,213,10.3511,13.5792,0.375,6248
3.9743e-07,4.75533e-08,-2.47259e-06,-0.000122555,-2.77018e-05,-0.00902149,15.1548,15.3676,-0.200049,7.78571,15.3697,15.1543,-0.201677,15.4648,213,3.276,8.44825,0.375,6249
-3.92992e-07,4.72221e-08,-2.48287e-06,-0.000119027,-2.75353e-05,-0.0114533,17.3231,17.4993,-0.422567,8.96289,17.5019,17.3219,-0.423918,17.8365,213,16.824,8.44825,0.375,6250
-3.50308e-07,-2.2848e-08,-2.47581e-06,-0.000105393,-2.33717e-05,-0.00834514,14.5852,14.7771,-0.162001,7.4711,14.7792,14.584,-0.162967,14.8456,213,16.4526,11.2813,0.375,6251
3.52427e-07,-2.24083e-08,-2.46808e-06,-0.000114881,-2.34859e-05,-0.00999187,16.18,16.3733,-0.109512,8.24245,16.3744,16.1799,-0.110511,16.3885,213,3.65515,11.2795,0.375,6252
-1.02637e-07,-1.36824e-07,-2.47696e-06,-4.33059e-05,-5.0585e-05,-0.00939123,15.8885,15.8726,0.0202092,7.93536,15.8907,15.8707,0.0199509,15.8607,213,13.2342,14.4853,0.375,6253
2.78973e-07,-6.5106e-08,-2.47101e-06,-9.47607e-05,-3.23011e-05,-0.00863367,15.0341,15.1775,0.0284371,7.57514,15.1781,15.034,0.0278607,15.0787,213,4.29074,12.8307,0.375,6254
-2.75076e-07,-6.58302e-08,-2.47395e-06,-9.32698e-05,-3.2196e-05,-0.0099783,16.2859,16.4151,-0.0215301,8.21848,16.4152,16.2859,-0.0217208,16.3727,213,15.8093,12.8307,0.375,6255
-1.0888e-07,2.26784e-07,-2.47276e-06,-4.5438e-05,-7.78786e-05,-0.00863281,15.1537,15.0791,0.0316194,7.56166,15.1545,15.0788,0.0311377,15.0856,213,13.4072,4.86033,0.375,6256
1.0872e-07,2.27559e-07,-2.47198e-06,-4.43144e-05,-7.83322e-05,-0.00996024,16.4306,16.3585,0.0498924,8.19117,16.4317,16.3578,0.0494068,16.3455,213,6.69222,4.86036,0.375,6257
9.57089e-08,-1.77613e-07,-2.47407e-06,-4.21538e-05,-6.45112e-05,-0.00998861,16.4098,16.3628,-0.0319022,8.2214,16.4107,16.362,-0.0320715,16.4185,213,6.97297,15.2137,0.375,6258
8.90763e-07,-6.74867e-07,-2.46669e-06,-0.000428931,-0.000320295,-0.00998257,14.0767,14.3092,-1.42989,8.28097,14.7186,14.0808,-1.84337,16.2524,213,0.835166,18.5312,0.375,6259
-9.21076e-07,8.91423e-07,-2.44668e-06,-0.000404558,-0.000394497,-0.0094153,13.4797,13.5019,-1.50315,7.9087,13.9395,13.4169,-1.87795,15.5627,213,19.2648,0.968771,0.375,6260
-8.89374e-07,-6.75171e-07,-2.46681e-06,-0.000412877,-0.000317272,-0.00845637,12.4533,12.6812,-1.63673,7.66664,13.1953,12.4405,-2.138,14.9702,213,19.2648,18.5312,0.375,6261
9.24273e-07,8.9381e-07,-2.47213e-06,-0.000423493,-0.000409342,-0.00829152,12.5301,12.5629,-1.22412,7.49141,13.1749,12.5019,-1.80794,14.6579,213,0.835166,0.968771,0.375,6262
-2.30761e-07,4.06305e-08,-2.4652e-06,-8.07898e-05,-2.76579e-05,-0.00802121,14.6561,14.7822,0.251259,7.26716,14.7842,14.6555,0.249884,14.4704,213,15.1756,8.74929,0.375,6263
2.28835e-07,4.00641e-08,-2.46791e-06,-7.96245e-05,-2.76218e-05,-0.00936337,15.8381,15.9523,0.105359,7.92402,15.9529,15.838,0.104866,15.7909,213,4.91079,8.76188,0.375,6264
1.18833e-06,1.17147e-06,-2.22548e-06,-0.000840573,-0.000822039,-0.00868275,12.0989,12.1392,-0.43258,8.49055,14.3776,12.0313,-2.60346,15.938,213,0.367583,0.484385,0.375,6265
7.44224e-07,1.21128e-06,-2.39901e-06,-0.000301437,-0.000881124,-0.00984393,14.5978,13.3628,-0.682895,8.86124,15.804,13.3922,-1.91848,16.6481,213,1.29031,0.484385,0.375,6266
1.25613e-06,7.18436e-07,-2.37001e-06,-0.000922987,-0.000279771,-0.00982191,13.297,14.6629,-0.597067,8.94237,15.965,13.3177,-1.91979,16.719,213,0.367583,1.45939,0.375,6267
-7.42043e-07,1.19693e-06,-2.38035e-06,-0.00028384,-0.000885501,-0.00907326,13.6349,12.3094,-0.914494,8.6302,14.9776,12.3351,-2.28284,16.1026,213,18.8097,0.484385,0.375,6268
-1.17493e-06,1.15985e-06,-2.22696e-06,-0.000830998,-0.000816251,-0.00870454,12.1167,12.1485,-0.469838,8.56071,14.4476,12.0215,-2.67378,16.0465,213,19.7324,0.484385,0.375,6269
-1.24392e-06,7.16977e-07,-2.35334e-06,-0.000934617,-0.000264369,-0.00900388,12.2838,13.7597,-0.693525,8.73957,15.2647,12.2997,-2.21445,16.2014,213,19.7324,1.45939,0.375,6270
1.11835e-06,-9.41346e-07,-2.33799e-06,-0.000842689,-0.00077028,-0.00871517,12.1477,12.3072,-0.436651,8.70039,14.6524,12.1143,-2.74839,16.2808,213,0.367583,19.0156,0.375,6271
1.25218e-06,-5.52639e-07,-2.35217e-06,-0.000928429,-0.00021785,-0.00818862,11.3742,13.0017,-0.765759,8.18251,14.2915,11.3922,-2.07356,15.1253,213,0.367583,18.0406,0.375,6272
6.80188e-07,-9.48055e-07,-2.46466e-06,-0.000291482,-0.000847447,-0.00821731,12.7852,11.5142,-0.872431,8.18595,14.1356,11.5276,-2.23628,15.2362,213,1.29031,19.0156,0.375,6273
-1.24887e-06,-5.5068e-07,-2.35103e-06,-0.000939058,-0.000206944,-0.00903635,12.3014,13.9153,-0.756386,8.76309,15.3366,12.3134,-2.18963,16.2272,213,19.7324,18.0406,0.375,6274
-1.11372e-06,-9.36601e-07,-2.34146e-06,-0.000838875,-0.000767011,-0.0087553,12.0724,12.2303,-0.612535,8.80871,14.6384,12.0307,-2.97898,16.4691,213,19.7324,19.0156,0.375,6275
-6.82401e-07,-9.43227e-07,-2.46287e-06,-0.000278062,-0.000848352,-0.00909039,13.6989,12.4419,-0.911743,8.80846,15.1971,12.4518,-2.41982,16.4173,213,18.8097,19.0156,0.375,6276
4.2161e-07,1.0129e-06,-2.43227e-06,-0.00015004,-0.000649363,-0.00794079,13.4195,12.2438,-0.424769,7.36083,13.8563,12.2476,-0.865346,13.9868,213,2.65784,0.849583,0.375,6277
3.16453e-07,1.0149e-06,-2.42171e-06,-8.8481e-05,-0.000745521,-0.0091102,14.7142,13.2706,-0.408308,7.93726,15.0901,13.2709,-0.784442,15.0476,213,3.58056,0.849583,0.375,6278
5.87692e-07,9.38449e-07,-2.49001e-06,-0.000226486,-0.000629391,-0.0101987,15.7836,14.9635,-0.0437158,8.35525,16.2194,14.975,-0.491071,16.1244,213,1.77033,0.962542,0.375,6279
4.22439e-07,6.12317e-07,-2.50039e-06,-0.000151844,-0.000213342,-0.00933436,15.1545,15.0266,-0.336767,7.75882,15.1765,15.0089,-0.341099,15.4345,213,2.68271,1.81212,0.375,6280
7.18552e-07,6.94745e-07,-2.53737e-06,-0.000322553,-0.000317897,-0.00727649,12.2449,12.2558,-0.73598,6.57122,12.3256,12.2561,-0.816891,13.1078,213,1.31519,1.44693,0.375,6281
2.35763e-07,1.06517e-06,-2.42431e-06,-8.16046e-05,-0.000640969,-0.00795018,13.7587,12.443,-0.260734,7.44066,14.1911,12.4401,-0.690236,14.0877,213,4.50329,0.849583,0.375,6282
1.26966e-07,1.15968e-06,-2.4064e-06,-4.08431e-05,-0.000768012,-0.00914775,14.7891,13.19,-0.514874,8.13208,15.2691,13.1902,-0.995065,15.3308,213,6.05058,0.712873,0.375,6283
9.90283e-08,1.15854e-06,-2.41561e-06,-3.80621e-05,-0.000825699,-0.00911476,14.7636,13.0338,-0.456582,8.27506,15.429,13.0329,-1.1211,15.4917,213,6.97331,0.712873,0.375,6284
2.38701e-07,5.97555e-07,-2.50228e-06,-8.03231e-05,-0.00021245,-0.0101897,16.2716,15.9969,-0.214311,8.24391,16.2723,15.9975,-0.215545,16.3521,213,4.41072,1.99158,0.375,6285
1.71835e-07,9.19996e-07,-2.48293e-06,-6.85488e-05,-0.000583738,-0.00918735,15.0046,13.8733,-0.334398,7.88954,15.2245,13.8735,-0.554551,15.1488,213,5.3438,1.142,0.375,6286
1.38013e-07,6.44887e-07,-2.50081e-06,-4.80241e-05,-0.000227287,-0.0092635,15.7434,15.3497,0.160529,7.8393,15.7949,15.3424,0.116297,15.4573,213,5.95801,1.85487,0.375,6287
6.36412e-08,1.11088e-06,-2.43264e-06,-3.70442e-05,-0.000779722,-0.00911753,14.8652,13.2348,-0.37085,8.11608,15.3642,13.2328,-0.867929,15.2784,213,7.78971,0.811382,0.375,6288
3.85322e-08,1.11405e-06,-2.42575e-06,-2.32878e-05,-0.000742057,-0.00917886,14.881,13.304,-0.511831,8.22434,15.409,13.3039,-1.03972,15.5037,213,8.71244,0.811382,0.375,6289
7.29758e-08,7.62767e-07,-2.51091e-06,-3.63528e-05,-0.000270677,-0.00947108,15.2883,14.8091,-0.713227,8.00876,15.2963,14.8091,-0.721198,15.7795,213,7.4812,1.52425,0.375,6290
6.98043e-09,9.70954e-07,-2.47222e-06,-2.21135e-05,-0.000638363,-0.00921916,15.0339,13.681,-0.456027,7.92284,15.2123,13.6799,-0.633361,15.1378,213,9.58864,1.06179,0.375,6291
-7.14407e-09,9.67514e-07,-2.47742e-06,-2.19544e-05,-0.00064576,-0.00922235,15.0109,13.6414,-0.484335,7.92903,15.193,13.64,-0.665037,15.1414,213,10.5114,1.06179,0.375,6292
2.25656e-08,6.61506e-07,-2.51159e-06,-2.78798e-05,-0.000219551,-0.00938563,15.6045,15.2074,-0.268824,7.9574,15.6254,15.2071,-0.28939,15.7098,213,9.1738,1.87317,0.375,6293
-3.81149e-08,1.11503e-06,-2.43069e-06,-2.60678e-05,-0.000745287,-0.00913333,14.959,13.3813,-0.339153,8.18435,15.4942,13.3814,-0.874464,15.4212,213,11.3876,0.811382,0.375,6294
-6.43546e-08,1.11142e-06,-2.43293e-06,-3.45852e-05,-0.000782773,-0.00911962,14.8661,13.2237,-0.377678,8.11697,15.3616,13.2228,-0.872323,15.2772,213,12.3103,0.811382,0.375,6295
-2.28862e-08,6.63723e-07,-2.50708e-06,-2.84043e-05,-0.000206268,-0.0102973,16.2982,15.9594,-0.516658,8.43929,16.3302,15.9591,-0.54838,16.6961,213,10.9262,1.87317,0.375,6296
-9.55719e-08,1.17487e-06,-2.41125e-06,-4.06363e-05,-0.000826236,-0.00903831,14.9164,13.1915,-0.148894,8.27641,15.6603,13.1912,-0.892508,15.4668,213,13.1267,0.712826,0.375,6297
-1.27576e-07,1.158e-06,-2.41344e-06,-3.8268e-05,-0.000791621,-0.00913821,14.7862,13.1345,-0.489663,8.34945,15.4975,13.135,-1.20142,15.6519,213,14.0494,0.712826,0.375,6298
-7.25355e-08,7.55949e-07,-2.50404e-06,-3.34088e-05,-0.000278578,-0.0102839,16.1558,15.6753,-0.604984,8.3837,16.1592,15.6751,-0.608169,16.5306,213,12.6188,1.52421,0.375,6299
-2.36594e-07,1.07116e-06,-2.42416e-06,-8.50042e-05,-0.000633499,-0.00793267,13.8327,12.5452,-0.111416,7.55404,14.4171,12.5404,-0.691022,14.2627,213,15.5967,0.849583,0.375,6300
-3.17339e-07,1.00882e-06,-2.42752e-06,-8.97857e-05,-0.000752056,-0.00915222,14.6496,13.1944,-0.502728,7.82043,14.8933,13.1955,-0.74755,14.8649,213,16.5194,0.849583,0.375,6301
-1.71677e-07,9.23e-07,-2.48272e-06,-6.77205e-05,-0.000592186,-0.0102349,16.4406,15.3704,0.183356,8.33213,16.644,15.3706,-0.0202346,16.0654,213,14.7562,1.14198,0.375,6302
-2.36827e-07,5.9299e-07,-2.5022e-06,-7.87052e-05,-0.00019997,-0.010229,16.2065,15.9649,-0.387217,8.30536,16.215,15.965,-0.395745,16.4871,213,15.6893,1.99156,0.375,6303
-1.38146e-07,6.382e-07,-2.50685e-06,-5.10471e-05,-0.000243515,-0.0102498,16.2158,15.8359,-0.451324,8.35941,16.2447,15.8298,-0.474123,16.5153,213,14.1419,1.8548,0.375,6304
-4.17357e-07,1.00695e-06,-2.44213e-06,-0.000138288,-0.00068256,-0.00913847,14.5755,13.3833,-0.495882,7.91075,14.9498,13.3848,-0.871677,15.0999,213,17.4422,0.849583,0.375,6305
-4.24552e-07,6.12593e-07,-2.49533e-06,-0.000160447,-0.000212584,-0.0104517,16.4116,16.3072,-0.0981508,8.29258,16.4566,16.2925,-0.128529,16.5037,213,17.4173,1.81212,0.375,6306
-5.88326e-07,9.34017e-07,-2.49266e-06,-0.000232897,-0.000603083,-0.0090036,14.6156,13.8047,0.0180841,7.7593,15.0721,13.8129,-0.446543,14.9289,213,18.3297,0.962542,0.375,6307
-7.26493e-07,7.0176e-07,-2.54403e-06,-0.000326874,-0.000326898,-0.00937622,14.0626,14.0594,-1.09779,7.59936,14.0932,14.0365,-1.10549,15.1704,213,18.7848,1.44693,0.375,6308
1.12009e-06,-3.16074e-07,-2.38745e-06,-0.000742041,-0.000117592,-0.00791224,11.9232,13.3958,-0.472528,7.45588,13.9164,11.9253,-0.995307,14.0226,213,0.655674,16.8026,0.375,6309
1.12918e-06,-2.28546e-07,-2.38638e-06,-0.00075038,-7.12551e-05,-0.0100206,14.095,15.5126,-0.591446,8.51718,15.9778,14.0949,-1.05658,16.1753,213,0.655674,15.8276,0.375,6310
9.77131e-07,-4.14545e-07,-2.44821e-06,-0.00066312,-0.000162676,-0.00910811,13.4799,14.5785,-0.370951,7.75721,14.8557,13.4904,-0.658673,14.8788,213,0.847604,17.5625,0.375,6311
6.7642e-07,-2.99811e-07,-2.50136e-06,-0.000258703,-0.000101403,-0.00931696,14.9948,15.3396,-0.195169,7.77893,15.3547,14.9878,-0.20319,15.3777,213,1.60328,16.815,0.375,6312
7.1235e-07,-4.97285e-07,-2.51949e-06,-0.000367989,-0.000254739,-0.011406,16.071,16.2915,-0.996537,8.65546,16.3002,16.0764,-1.01068,17.2001,213,1.31519,18.0531,0.375,6313
1.03661e-06,-1.65131e-07,-2.43114e-06,-0.00071065,-5.19004e-05,-0.00916937,13.4013,14.847,-0.463653,7.95916,15.1519,13.3991,-0.766409,15.1183,213,0.841592,14.9984,0.375,6314
1.05222e-06,-1.23971e-07,-2.43486e-06,-0.000699754,-4.36314e-05,-0.00914347,13.5203,14.9608,-0.323666,7.93772,15.2565,13.5199,-0.618939,15.0823,213,0.841592,14.0234,0.375,6315
7.09004e-07,-1.75478e-07,-2.49704e-06,-0.000215836,-6.46234e-05,-0.00736561,13.2184,13.5874,-0.257776,6.92505,13.5907,13.2167,-0.259381,13.6669,213,1.59727,15.226,0.375,6316
1.21725e-06,-7.94569e-08,-2.38611e-06,-0.000824186,-3.4397e-05,-0.00989173,14.1192,15.7722,-0.161511,8.59052,16.3962,14.1184,-0.784792,16.163,213,0.597879,13.1061,0.375,6317
1.223e-06,-5.37353e-08,-2.38796e-06,-0.000795354,-2.78961e-05,-0.00992215,14.1819,15.7871,-0.234332,8.60775,16.3841,14.182,-0.831395,16.2269,213,0.597879,12.1311,0.375,6318
7.47989e-07,-9.21013e-08,-2.49953e-06,-0.000240116,-4.0753e-05,-0.0081212,14.0225,14.4818,-0.112434,7.30483,14.4904,14.0208,-0.119299,14.3806,213,1.53947,13.4796,0.375,6319
1.00379e-06,-1.71073e-08,-2.45538e-06,-0.000652105,-2.43258e-05,-0.00915938,13.7413,15.1183,-0.251616,7.88522,15.3194,13.7395,-0.450998,15.0428,213,0.967271,11.1043,0.375,6320
1.00979e-06,3.82781e-09,-2.44969e-06,-0.000650473,-2.41607e-05,-0.00910822,13.8588,15.2338,-0.0359981,7.85347,15.4528,13.8579,-0.254136,14.9733,213,0.967271,10.1293,0.375,6321
7.0765e-07,-2.86589e-08,-2.5137e-06,-0.000232688,-2.74712e-05,-0.00811255,14.1316,14.6063,0.0210331,7.29437,14.6095,14.1286,0.0208087,14.3543,213,1.66515,11.5354,0.375,6322
1.16846e-06,3.47343e-08,-2.38854e-06,-0.000760737,-2.21754e-05,-0.00989043,14.423,15.9665,-0.00147672,8.47095,16.4534,14.423,-0.488456,16.0235,213,0.716167,9.06465,0.375,6323
1.14116e-06,5.8858e-08,-2.40563e-06,-0.000770838,-3.41761e-05,-0.00907027,13.3832,15.0011,-0.14979,8.03893,15.4659,13.3807,-0.61201,15.1433,213,0.716167,8.08965,0.375,6324
6.70494e-07,2.1037e-08,-2.52129e-06,-0.000212218,-2.4463e-05,-0.00816934,14.0896,14.5247,-0.203682,7.36668,14.5275,14.0889,-0.205844,14.519,213,1.78344,9.44393,0.375,6325
1.25164e-06,9.34699e-08,-2.37324e-06,-0.000862467,-3.28628e-05,-0.00905232,13.0168,14.8378,-0.268453,8.3911,15.6757,13.017,-1.10652,15.6235,213,0.547658,7.30764,0.375,6326
1.23579e-06,1.25411e-07,-2.37554e-06,-0.000860034,-4.37301e-05,-0.00898276,13.1511,14.9426,-0.00693819,8.37257,15.8409,13.1501,-0.904259,15.5751,213,0.547658,6.33264,0.375,6327
8.06621e-07,7.33523e-08,-2.49971e-06,-0.000326533,-3.51379e-05,-0.00932441,14.8736,15.4823,-0.226589,7.85595,15.4841,14.873,-0.227793,15.4154,213,1.36383,7.59729,0.375,6328
1.03135e-06,1.7925e-07,-2.43401e-06,-0.000695058,-6.09598e-05,-0.00917946,13.4247,14.8174,-0.495326,7.92664,15.0877,13.4248,-0.765635,15.0907,213,0.841592,5.47658,0.375,6329
1.02098e-06,2.39171e-07,-2.42397e-06,-0.0006986,-7.25405e-05,-0.00919474,13.3485,14.722,-0.597501,7.97602,15.039,13.347,-0.913039,15.177,213,0.841592,4.50158,0.375,6330
7.53091e-07,1.44119e-07,-2.49339e-06,-0.000275989,-5.49537e-05,-0.00941077,14.8688,15.3213,-0.517342,7.93128,15.3339,14.8675,-0.528629,15.6345,213,1.48925,5.95922,0.375,6331
1.11572e-06,3.1759e-07,-2.37775e-06,-0.000754156,-9.2101e-05,-0.00913665,13.1709,14.6251,-0.535646,8.06528,15.1099,13.1711,-1.02066,15.2539,213,0.655674,3.67244,0.375,6332
1.10841e-06,4.35505e-07,-2.38535e-06,-0.000743259,-0.000155919,-0.00778913,12.1304,13.513,0.0169316,7.49842,14.2609,12.1353,-0.735891,14.0551,213,0.655674,2.69744,0.375,6333
6.90896e-07,2.54303e-07,-2.5014e-06,-0.000238025,-8.73472e-05,-0.00925943,15.2084,15.54,0.0463972,7.7756,15.5685,15.2089,0.0173429,15.3745,213,1.59727,4.27402,0.375,6334
6.64127e-07,4.29893e-07,-2.4996e-06,-0.000240493,-0.000144499,-0.0093426,14.9111,15.1127,-0.404855,7.77042,15.1309,14.898,-0.409927,15.4257,213,1.60328,2.68498,0.375,6335
9.58385e-07,5.67485e-07,-2.46615e-06,-0.00066023,-0.000210547,-0.0102519,14.7433,15.659,-0.314289,8.34865,16.0144,14.7565,-0.682902,16.1052,213,0.847604,1.93754,0.375,6336
-1.10603e-06,4.33737e-07,-2.39031e-06,-0.000771032,-0.000152414,-0.00895505,13.3664,14.7225,0.0689495,8.0368,15.4321,13.3672,-0.641478,15.1471,213,19.4443,2.69744,0.375,6337
-1.11229e-06,3.18522e-07,-2.37904e-06,-0.00076301,-9.31045e-05,-0.00999024,14.0415,15.4415,-0.56985,8.45231,15.8881,14.0416,-1.01653,16.0612,213,19.4443,3.67244,0.375,6338
-9.51066e-07,5.66816e-07,-2.47518e-06,-0.000640032,-0.000220264,-0.00905881,13.5366,14.4585,-0.287649,7.73728,14.8153,13.5514,-0.659264,14.8829,213,19.2524,1.93754,0.375,6339
-6.62392e-07,4.30425e-07,-2.50311e-06,-0.000249416,-0.000150858,-0.00935037,14.863,15.0606,-0.452483,7.76551,15.0723,14.8576,-0.458746,15.4248,213,18.4967,2.68498,0.375,6340
-1.01686e-06,2.37614e-07,-2.42241e-06,-0.000697721,-7.31964e-05,-0.00832376,12.481,13.919,-0.521439,7.53971,14.2392,12.4795,-0.840192,14.2811,213,19.2584,4.50158,0.375,6341
-1.03574e-06,1.78292e-07,-2.42751e-06,-0.000696607,-5.88753e-05,-0.00914348,13.499,14.8995,-0.349261,7.91093,15.186,13.4992,-0.635887,15.0495,213,19.2584,5.47658,0.375,6342
-6.92539e-07,2.547e-07,-2.50177e-06,-0.000231315,-8.76999e-05,-0.00810192,14.0119,14.3568,-0.0312209,7.22939,14.3919,14.0125,-0.0668879,14.2729,213,18.5027,4.27402,0.375,6343
-1.24096e-06,1.2909e-07,-2.3659e-06,-0.00085269,-4.54591e-05,-0.00887457,13.4106,15.1827,0.443749,8.36086,16.1743,13.4102,-0.547422,15.5253,213,19.5523,6.33264,0.375,6344
-1.25431e-06,9.05876e-08,-2.37098e-06,-0.000818453,-3.76148e-05,-0.00986725,14.1782,15.8084,-0.0894249,8.77242,16.6318,14.1783,-0.913006,16.4558,213,19.5523,7.30764,0.375,6345
-7.50937e-07,1.44975e-07,-2.4866e-06,-0.000279354,-5.33537e-05,-0.00934852,14.9912,15.4554,-0.265002,7.87148,15.4669,14.9907,-0.276025,15.5103,213,18.6108,5.95922,0.375,6346
-1.19169e-06,3.27246e-08,-2.37557e-06,-0.000776684,-2.7683e-05,-0.00892152,13.6858,15.3293,0.442764,8.16719,16.0532,13.6858,-0.281175,15.2888,213,19.3838,9.06465,0.375,6347
-1.15823e-06,6.19678e-08,-2.39421e-06,-0.000757949,-3.16714e-05,-0.0089974,13.5972,15.1917,0.166793,8.12432,15.8046,13.5952,-0.444069,15.2643,213,19.3838,8.08965,0.375,6348
-7.90509e-07,7.44419e-08,-2.49047e-06,-0.000337437,-3.56791e-05,-0.00801717,13.8428,14.5542,0.234492,7.17533,14.5702,13.8417,0.219537,14.0007,213,18.7362,7.59729,0.375,6349
-1.02093e-06,4.90287e-09,-2.42948e-06,-0.000655739,-2.42927e-05,-0.00816889,13.1501,14.6071,0.367404,7.42783,14.9151,13.15,0.0594503,14.0565,213,19.1327,10.1293,0.375,6350
-1.00787e-06,-1.97211e-08,-2.43913e-06,-0.000640463,-2.67708e-05,-0.00905988,14.0021,15.3486,0.176807,7.79432,15.5577,14.0008,-0.0309886,14.8715,213,19.1327,11.1043,0.375,6351
-6.537e-07,2.10461e-08,-2.50808e-06,-0.000265244,-2.43875e-05,-0.00932416,15.1378,15.641,-0.125965,7.90402,15.6615,15.1378,-0.146504,15.5528,213,18.3166,9.44392,0.375,6352
-1.22337e-06,-5.20483e-08,-2.38866e-06,-0.000775023,-2.86773e-05,-0.00817057,12.5875,14.3062,0.0955174,7.80512,15.0058,12.5878,-0.60442,14.5527,213,19.5021,12.1311,0.375,6353
-1.22018e-06,-8.11427e-08,-2.3764e-06,-0.000814923,-3.84795e-05,-0.00806499,12.5956,14.3835,0.399106,7.72117,15.1125,12.5955,-0.329803,14.3503,213,19.5021,13.1061,0.375,6354
-6.99583e-07,-2.83867e-08,-2.50092e-06,-0.000287017,-2.62134e-05,-0.00927386,15.1169,15.6713,-0.00416677,7.83995,15.6739,15.1161,-0.00598102,15.4086,213,18.4348,11.5354,0.375,6355
-1.05904e-06,-1.24438e-07,-2.42874e-06,-0.000703898,-4.1681e-05,-0.00906971,13.6682,15.1225,-0.019463,7.87192,15.4235,13.6682,-0.32039,14.9437,213,19.2584,14.0234,0.375,6356
-1.0364e-06,-1.64645e-07,-2.43108e-06,-0.000711684,-5.25272e-05,-0.00832184,12.4682,13.9866,-0.498402,7.56314,14.3082,12.4662,-0.818063,14.2946,213,19.2584,14.9984,0.375,6357
-7.44704e-07,-9.44995e-08,-2.494e-06,-0.000289381,-4.12754e-05,-0.0105458,16.1058,16.5892,-0.321502,8.45628,16.5899,16.1063,-0.322664,16.676,213,18.5605,13.4796,0.375,6358
-1.13103e-06,-2.28188e-07,-2.38783e-06,-0.000752694,-7.13572e-05,-0.010024,14.066,15.4884,-0.63356,8.48344,15.911,14.0657,-1.05589,16.1236,213,19.4443,15.8276,0.375,6359
-1.12231e-06,-3.15081e-07,-2.38688e-06,-0.000742427,-0.000116815,-0.00790925,11.9274,13.4027,-0.46387,7.45052,13.9189,11.9295,-0.982164,14.0127,213,19.4443,16.8026,0.375,6360
-7.08809e-07,-1.74603e-07,-2.49963e-06,-0.000234436,-6.41291e-05,-0.0081016,14.049,14.4579,0.00815866,7.26196,14.4954,14.0482,-0.0285171,14.3055,213,18.5027,15.226,0.375,6361
-6.76231e-07,-2.97406e-07,-2.50188e-06,-0.000261954,-9.8244e-05,-0.00930473,15.0075,15.3661,-0.159383,7.77457,15.3814,15.0006,-0.167746,15.3623,213,18.4967,16.815,0.375,6362
-9.78357e-07,-4.12309e-07,-2.45212e-06,-0.000662882,-0.000169192,-0.00990781,14.4866,15.5198,-0.180259,8.27836,15.9457,14.4914,-0.610966,15.8796,213,19.2524,17.5625,0.375,6363
-7.09642e-07,-4.96048e-07,-2.52636e-06,-0.000342334,-0.000256102,-0.00849629,13.3296,13.5424,-0.882719,7.25,13.582,13.3253,-0.918006,14.3734,213,18.7848,18.0531,0.375,6364
-3.81484e-07,-7.41313e-07,-2.48468e-06,-0.000150263,-0.000580287,-0.00799292,13.4715,12.4593,-0.484984,7.44503,13.937,12.4619,-0.953048,14.21,213,17.4422,18.6504,0.375,6365
-2.78039e-07,-7.27716e-07,-2.47769e-06,-8.34363e-05,-0.000686818,-0.00914343,14.7954,13.4695,-0.415355,8.02442,15.2146,13.4693,-0.834282,15.2513,213,16.5194,18.6504,0.375,6366
-5.53755e-07,-6.93578e-07,-2.51226e-06,-0.000231236,-0.000566594,-0.0102458,15.8075,15.1247,-0.0973532,8.29695,16.1511,15.1266,-0.442832,16.1061,213,18.3297,18.5375,0.375,6367
-4.11673e-07,-4.13901e-07,-2.50138e-06,-0.000157407,-0.000132194,-0.00854471,14.3705,14.4343,-0.399482,7.44395,14.4782,14.3369,-0.409727,14.8178,213,17.4173,17.6879,0.375,6368
-2.01619e-07,-7.78736e-07,-2.47553e-06,-7.82325e-05,-0.00055987,-0.0079898,13.8872,12.7566,-0.229079,7.58516,14.4183,12.7484,-0.752012,14.4081,213,15.5967,18.6504,0.375,6369
-1.00948e-07,-8.60394e-07,-2.47925e-06,-3.27196e-05,-0.00072708,-0.0083488,13.9766,12.386,-0.619961,7.95026,14.6286,12.386,-1.27195,14.9063,213,14.048,18.7974,0.375,6370
-7.80547e-08,-8.58585e-07,-2.4805e-06,-3.17141e-05,-0.000773327,-0.00917557,14.7821,13.1535,-0.575616,8.43205,15.5356,13.1528,-1.32847,15.808,213,13.1253,18.7974,0.375,6371
-2.26642e-07,-3.99744e-07,-2.48547e-06,-8.04062e-05,-0.000136092,-0.010242,16.3368,16.2207,-0.246528,8.2925,16.3375,16.2209,-0.247462,16.527,213,15.6841,17.5146,0.375,6372
-1.47447e-07,-6.48671e-07,-2.5018e-06,-6.23009e-05,-0.000521305,-0.00922207,15.0927,14.084,-0.345025,7.90738,15.2813,14.0838,-0.53343,15.2513,213,14.7511,18.3642,0.375,6373
-1.26799e-07,-4.34363e-07,-2.49706e-06,-4.79454e-05,-0.00017886,-0.0102486,16.4153,16.154,-0.208099,8.31711,16.425,16.1454,-0.209213,16.4962,213,14.1355,17.6616,0.375,6374
-5.17962e-08,-8.04717e-07,-2.4836e-06,-2.90592e-05,-0.000715424,-0.00912967,15.0231,13.5161,-0.261517,8.17549,15.5577,13.5133,-0.793293,15.4307,213,12.3516,18.6819,0.375,6375
-3.24276e-08,-8.08037e-07,-2.48145e-06,-1.85999e-05,-0.00066367,-0.0100717,15.8215,14.4726,-0.498023,8.6098,16.2717,14.4722,-0.947869,16.3941,213,11.4289,18.6819,0.375,6376
-6.42657e-08,-5.19584e-07,-2.50299e-06,-3.26366e-05,-0.000186812,-0.00949085,15.4439,15.1311,-0.615807,8.03273,15.4468,15.1311,-0.618688,15.91,213,12.6587,17.9793,0.375,6377
-5.05968e-09,-6.86201e-07,-2.49531e-06,-1.82638e-05,-0.000569801,-0.00926363,15.1138,13.9035,-0.477851,8.00314,15.3221,13.9015,-0.684193,15.3454,213,10.5114,18.4382,0.375,6378
5.32882e-09,-6.84859e-07,-2.49935e-06,-1.67405e-05,-0.000573801,-0.00925093,15.1356,13.9127,-0.437593,7.98725,15.3373,13.9107,-0.637227,15.3111,213,9.58864,18.4382,0.375,6379
-2.22636e-08,-4.41888e-07,-2.49986e-06,-2.55232e-05,-9.45115e-05,-0.00823615,14.6347,14.484,-0.268007,7.45917,14.6443,14.4804,-0.274016,14.837,213,10.9675,17.6201,0.375,6380
3.19562e-08,-8.10178e-07,-2.48325e-06,-2.15889e-05,-0.000673819,-0.00919659,15.0048,13.5748,-0.437112,8.30718,15.591,13.5748,-1.02335,15.7036,213,8.64142,18.6863,0.375,6381
5.35894e-08,-8.05712e-07,-2.48389e-06,-2.74805e-05,-0.000717588,-0.00916892,14.9424,13.4272,-0.419245,8.20364,15.4658,13.426,-0.941445,15.4884,213,7.71869,18.6863,0.375,6382
2.16989e-08,-4.44894e-07,-2.50025e-06,-2.52751e-05,-0.000119182,-0.0095261,15.5518,15.3781,-0.611771,8.16205,15.6323,15.3777,-0.691843,16.1983,213,9.10278,17.6245,0.375,6383
7.66472e-08,-8.96501e-07,-2.46898e-06,-3.47745e-05,-0.000802781,-0.00906536,14.9398,13.2534,-0.192234,8.52553,15.8994,13.2531,-1.15162,15.894,213,6.94707,18.8284,0.375,6384
1.02969e-07,-8.71108e-07,-2.47289e-06,-3.07084e-05,-0.000756515,-0.00914793,14.8855,13.2941,-0.424421,8.55514,15.786,13.2935,-1.32429,16.0102,213,6.02434,18.8284,0.375,6385
6.55116e-08,-5.1946e-07,-2.5056e-06,-3.19065e-05,-0.000201872,-0.00868328,14.5329,14.17,-0.787115,7.66835,14.5413,14.17,-0.795443,15.1545,213,7.38394,18.0147,0.375,6386
2.01177e-07,-7.83063e-07,-2.47105e-06,-7.53935e-05,-0.000595078,-0.00911718,15.1253,13.9878,-0.038764,8.18582,15.7306,13.9847,-0.641007,15.5723,213,4.50329,18.6504,0.375,6387
2.7617e-07,-7.28229e-07,-2.47812e-06,-8.3663e-05,-0.0006923,-0.00916514,14.7879,13.4504,-0.409481,7.91432,15.1047,13.448,-0.723902,15.0687,213,3.58056,18.6504,0.375,6388
1.48469e-07,-6.51737e-07,-2.49754e-06,-6.04098e-05,-0.000516346,-0.0103476,16.3944,15.4651,-0.0986518,8.55028,16.6981,15.4653,-0.402481,16.5187,213,5.34626,18.3773,0.375,6389
2.26327e-07,-3.92335e-07,-2.4888e-06,-7.9537e-05,-0.000111364,-0.0082317,14.3664,14.2981,-0.36528,7.37573,14.3762,14.2982,-0.375223,14.7126,213,4.41318,17.5278,0.375,6390
1.27224e-07,-4.36633e-07,-2.50033e-06,-4.85657e-05,-0.000165287,-0.00863702,14.6119,14.3598,-0.6012,7.64861,14.6615,14.3448,-0.635757,15.1414,213,5.93424,17.7057,0.375,6391
3.83061e-07,-7.45686e-07,-2.48378e-06,-0.000154717,-0.000591135,-0.0079314,13.5635,12.5378,-0.252843,7.4012,14.0539,12.543,-0.748488,14.1078,213,2.65784,18.6504,0.375,6392
4.11041e-07,-4.15395e-07,-2.50288e-06,-0.000158778,-0.000127087,-0.0106069,16.3199,16.3885,-0.450922,8.43613,16.4165,16.2968,-0.455775,16.8127,213,2.68271,17.6879,0.375,6393
5.54128e-07,-6.85072e-07,-2.51357e-06,-0.000228163,-0.000573188,-0.00910689,14.4761,13.7182,-0.349231,7.70934,14.7709,13.7219,-0.64777,14.9219,213,1.77033,18.5375,0.375,6394
-1.42281e-08,-5.68775e-09,-2.48285e-06,-2.89366e-05,-2.58972e-05,-0.00857413,15.1528,15.1598,-0.00823855,7.58403,15.1598,15.1528,-0.00824557,15.1646,213,10.5339,10.5968,0.375,6395
-4.66908e-08,3.05867e-09,-2.48233e-06,-3.15239e-05,-2.60178e-05,-0.00941597,15.944,15.9561,-0.00251625,7.97935,15.9561,15.944,-0.0025519,15.9526,213,11.5915,10.2659,0.375,6396
-2.98627e-08,2.73415e-08,-2.48247e-06,-3.10606e-05,-2.67491e-05,-0.00941696,15.9424,15.9519,-0.00697624,7.97947,15.9519,15.9424,-0.0070077,15.9542,213,11.0622,9.34368,0.375,6397
-3.02952e-08,5.11674e-08,-2.48225e-06,-3.09221e-05,-2.93632e-05,-0.00941605,15.939,15.9425,-0.00872471,7.97585,15.9429,15.9386,-0.00876645,15.9495,213,11.0844,8.49751,0.375,6398
9.76895e-10,4.17881e-08,-2.48254e-06,-2.80398e-05,-2.91123e-05,-0.00941726,15.9498,15.9475,-0.00679001,7.97832,15.9498,15.9475,-0.00681797,15.9555,213,10.0268,8.82834,0.375,6399
3.11821e-08,5.20539e-08,-2.48246e-06,-3.04953e-05,-2.96064e-05,-0.0106005,17.0537,17.0555,-0.0142692,8.53515,17.056,17.0533,-0.0143167,17.0689,213,8.99232,8.46722,0.375,6400
3.21048e-08,2.76822e-08,-2.48266e-06,-3.0917e-05,-2.74305e-05,-0.00941769,15.9399,15.9476,-0.0110603,7.97937,15.9476,15.9399,-0.0110863,15.9549,213,8.97013,9.3134,0.375,6401
5.1688e-08,1.20806e-08,-2.48264e-06,-3.20502e-05,-2.61358e-05,-0.00941796,15.9371,15.9501,-0.0120111,7.98109,15.9501,15.9371,-0.0120478,15.9557,213,8.35256,9.89197,0.375,6402
1.9289e-08,2.91465e-09,-2.48287e-06,-2.99507e-05,-2.56353e-05,-0.00941845,15.9466,15.9561,-0.00838664,7.98225,15.9561,15.9466,-0.00839705,15.9598,213,9.38706,10.2531,0.375,6403
3.57474e-09,-2.05316e-08,-2.48295e-06,-2.96604e-05,-2.51493e-05,-0.0106024,17.0624,17.0717,-0.0117358,8.54172,17.0717,17.0624,-0.0117446,17.0788,213,9.91635,11.1754,0.375,6404
2.32814e-07,1.75274e-07,-2.46934e-06,-8.35747e-05,-6.08311e-05,-0.00739842,13.8459,13.9018,0.000549422,6.95236,13.9044,13.8441,-0.000305197,13.8747,213,4.71445,5.48368,0.375,6405
2.74528e-07,1.26702e-07,-2.46689e-06,-9.37092e-05,-4.90162e-05,-0.00937489,15.7021,15.8003,-0.0167731,7.90936,15.8013,15.7017,-0.0173806,15.7691,213,4.2808,6.34262,0.375,6406
2.04807e-07,1.19314e-07,-2.473e-06,-7.23561e-05,-4.7464e-05,-0.00937912,15.7936,15.848,0.017465,7.91605,15.8491,15.7929,0.0170359,15.8041,213,5.12928,6.54949,0.375,6407
1.77504e-07,2.18761e-07,-2.47107e-06,-6.4339e-05,-7.75343e-05,-0.0105408,16.9287,16.9017,0.0446842,8.44404,16.9321,16.8989,0.0440589,16.8715,213,5.42512,4.90775,0.375,6408
2.40151e-07,2.29868e-07,-2.4663e-06,-8.50862e-05,-8.08499e-05,-0.00934771,15.7259,15.7352,0.0426554,7.8523,15.7464,15.7155,0.0418252,15.6892,213,4.57664,4.70087,0.375,6409
1.63066e-07,9.62809e-08,-2.47672e-06,-6.17084e-05,-4.05994e-05,-0.00939003,15.8319,15.8783,0.00790146,7.93577,15.8791,15.8314,0.00759965,15.8477,213,5.78426,7.09838,0.375,6410
1.35621e-07,1.368e-07,-2.47746e-06,-5.31931e-05,-5.18156e-05,-0.00821031,14.7127,14.7159,-0.0134739,7.36732,14.7208,14.7082,-0.0138295,14.7283,213,6.21792,6.23944,0.375,6411
1.37534e-07,1.94641e-07,-2.47431e-06,-5.36027e-05,-6.90518e-05,-0.00820004,14.6948,14.6584,-0.00407887,7.35087,14.6971,14.6566,-0.00460714,14.6815,213,6.12758,5.27546,0.375,6412
1.42325e-07,2.55264e-07,-2.46923e-06,-5.4516e-05,-8.79669e-05,-0.0105406,16.9498,16.8814,0.0485086,8.45162,16.9512,16.8806,0.0479574,16.868,213,5.98976,4.49265,0.375,6413
1.07191e-07,1.61639e-07,-2.47725e-06,-4.39344e-05,-6.04077e-05,-0.010574,16.9853,16.9517,-0.00226805,8.49449,16.9864,16.9509,-0.00257957,16.9713,213,6.78256,5.82434,0.375,6414
9.46982e-08,-1.09616e-07,-2.47852e-06,-4.31319e-05,-4.35028e-05,-0.00939242,15.9034,15.9026,0.0321667,7.93782,15.9077,15.8985,0.0320092,15.8711,213,7.08684,13.9275,0.375,6415
6.878e-08,-8.51928e-08,-2.48065e-06,-3.55399e-05,-3.8233e-05,-0.0105893,17.0359,17.0305,-0.000699224,8.5192,17.0376,17.0289,-0.000777301,17.034,213,7.78351,13.3077,0.375,6416
1.21591e-07,-7.63996e-08,-2.47981e-06,-4.92844e-05,-3.52789e-05,-0.00743317,13.999,14.0334,-0.0141062,7.02417,14.0341,13.9985,-0.0142911,14.0306,213,6.54565,13.1056,0.375,6417
1.24633e-07,-1.34034e-07,-2.47635e-06,-5.01192e-05,-5.16422e-05,-0.0081996,14.7542,14.7506,0.0444697,7.35725,14.7587,14.7464,0.0442064,14.7083,213,6.41097,14.4695,0.375,6418
7.05852e-08,-1.47056e-07,-2.47565e-06,-3.61943e-05,-5.49374e-05,-0.0113505,17.7962,17.7601,0.0623509,8.86729,17.7968,17.7596,0.0622526,17.716,213,7.64883,14.6717,0.375,6419
1.38497e-07,-4.24022e-08,-2.47982e-06,-5.54357e-05,-2.82287e-05,-0.0105877,16.9783,17.0338,-0.0128928,8.52357,17.0341,16.9782,-0.013074,17.0193,213,6.25704,12.0431,0.375,6420
1.79277e-07,-6.05691e-08,-2.47729e-06,-6.47049e-05,-3.24218e-05,-0.00939372,15.8292,15.9001,0.00414448,7.94846,15.9007,15.829,0.00378131,15.8612,213,5.56036,12.6629,0.375,6421
2.37535e-07,-4.65666e-08,-2.47302e-06,-8.20821e-05,-2.88012e-05,-0.010559,16.923,17.0316,0.0399892,8.49629,17.0321,16.9229,0.0395403,16.9382,213,4.78124,12.2156,0.375,6422
2.11387e-07,-8.12805e-08,-2.47519e-06,-7.6016e-05,-3.61552e-05,-0.00820462,14.6545,14.7484,-0.0052072,7.37739,14.7491,14.6542,-0.00564843,14.7075,213,5.06986,13.2781,0.375,6423
2.25482e-07,-1.07974e-07,-2.4734e-06,-8.23682e-05,-4.10975e-05,-0.00820304,14.6177,14.7148,-0.0203085,7.36825,14.7157,14.6174,-0.020828,14.6876,213,4.85747,13.9743,0.375,6424
2.41198e-07,-1.50788e-07,-2.46549e-06,-8.65605e-05,-5.65011e-05,-0.00936418,15.7394,15.8054,0.0248566,7.89176,15.8078,15.7375,0.0242977,15.7485,213,4.60968,14.8635,0.375,6425
1.69381e-07,-1.39947e-07,-2.47339e-06,-6.14228e-05,-5.42816e-05,-0.00819744,14.698,14.7148,0.0206412,7.34929,14.7188,14.6944,0.020238,14.6864,213,5.60118,14.6146,0.375,6426
2.98136e-07,-8.9428e-08,-2.46971e-06,-0.00010139,-3.77102e-05,-0.0105518,16.8391,16.9691,0.0136689,8.47847,16.9699,16.8391,0.0129316,16.8919,213,4.07836,13.527,0.375,6427
1.33401e-07,-1.8658e-07,-2.47222e-06,-5.31713e-05,-6.71822e-05,-0.0102389,16.6017,16.5725,-0.05236,8.32832,16.6039,16.5707,-0.0527367,16.64,213,6.16318,15.3587,0.375,6428
-1.94042e-07,-5.90973e-08,-2.47699e-06,-6.72241e-05,-3.19986e-05,-0.00939798,15.8093,15.8867,-0.0186149,7.95311,15.8873,15.809,-0.0189411,15.8672,213,14.7812,12.6097,0.375,6429
-1.54988e-07,-4.22972e-08,-2.4777e-06,-5.90763e-05,-2.82806e-05,-0.009398,15.8542,15.9219,0.00687878,7.95789,15.9224,15.8539,0.00662353,15.8817,213,14.1332,12.0401,0.375,6430
-1.4099e-07,-7.2966e-08,-2.47916e-06,-5.43905e-05,-3.46439e-05,-0.00940198,15.8521,15.8954,-0.0131887,7.95458,15.8958,15.8519,-0.0133642,15.8872,213,13.9368,13.0139,0.375,6431
-2.21814e-07,-7.9171e-08,-2.47637e-06,-7.80372e-05,-3.56377e-05,-0.0102479,16.5494,16.6376,-0.0668247,8.35244,16.6379,16.5493,-0.0670238,16.6608,213,15.197,13.2071,0.375,6432
-2.40857e-07,-4.75679e-08,-2.47417e-06,-8.12988e-05,-2.8752e-05,-0.0105612,16.9179,17.025,0.0252323,8.50023,17.0254,16.9178,0.0249471,16.9469,213,15.3935,12.2333,0.375,6433
-1.81324e-07,-1.32712e-07,-2.47422e-06,-6.53629e-05,-5.05744e-05,-0.00938643,15.8007,15.833,-0.00687145,7.92096,15.8347,15.7993,-0.0072057,15.8243,213,14.6827,14.4707,0.375,6434
-2.43856e-07,-1.46851e-07,-2.46742e-06,-8.79769e-05,-5.39975e-05,-0.00818339,14.6039,14.6837,0.0212841,7.33276,14.6861,14.6022,0.0205605,14.6238,213,15.5073,14.7906,0.375,6435
-2.38254e-07,-1.05411e-07,-2.47358e-06,-8.61635e-05,-4.04708e-05,-0.00819989,14.6076,14.7151,-0.0154189,7.36582,14.7156,14.6076,-0.0160027,14.6779,213,15.4094,13.9034,0.375,6436
-2.95501e-07,-8.99372e-08,-2.47153e-06,-0.000104138,-3.7129e-05,-0.00818752,14.5634,14.7215,0.0169523,7.35282,14.722,14.5635,0.0163585,14.627,213,16.0216,13.527,0.375,6437
-1.36865e-07,-1.13543e-07,-2.47755e-06,-5.36106e-05,-4.49622e-05,-0.00938888,15.8602,15.8792,0.0197667,7.93065,15.8808,15.8588,0.0195098,15.8503,213,13.9095,14.0344,0.375,6438
-1.38727e-07,-1.58711e-07,-2.47359e-06,-5.47968e-05,-5.76091e-05,-0.00938124,15.8424,15.8362,0.0209218,7.91384,15.8483,15.8306,0.0205969,15.8189,213,14.0073,14.9217,0.375,6439
-1.06582e-07,-9.05206e-08,-2.47961e-06,-4.43042e-05,-4.00507e-05,-0.0105809,17.0131,17.0218,0.0112644,8.50625,17.0236,17.0115,0.0110778,17.0065,213,13.2615,13.4648,0.375,6440
-2.00404e-07,1.22071e-07,-2.47395e-06,-6.95804e-05,-4.81713e-05,-0.00854268,14.9769,15.0263,-0.0206995,7.52431,15.0276,14.976,-0.0210523,15.0229,213,14.9361,6.49479,0.375,6441
-2.68352e-07,1.29803e-07,-2.46925e-06,-9.14295e-05,-4.94501e-05,-0.0093894,15.6772,15.7694,-0.077983,7.92416,15.7699,15.6771,-0.0783917,15.8021,213,15.7851,6.2884,0.375,6442
-2.32269e-07,1.75182e-07,-2.47011e-06,-8.42236e-05,-6.01122e-05,-0.00938301,15.7014,15.7544,-0.0537999,7.90528,15.7561,15.7003,-0.0544511,15.7828,213,15.3851,5.48319,0.375,6443
-2.39415e-07,2.30046e-07,-2.46449e-06,-8.55243e-05,-8.15714e-05,-0.0105195,16.8773,16.8853,0.080827,8.40809,16.8963,16.8671,0.0800729,16.8016,213,15.5232,4.70075,0.375,6444
-1.76991e-07,2.18401e-07,-2.47073e-06,-6.27596e-05,-7.85582e-05,-0.010541,16.9356,16.9035,0.0515446,8.44372,16.9384,16.9013,0.0509601,16.8689,213,14.6742,4.90714,0.375,6445
-1.3453e-07,1.37089e-07,-2.47711e-06,-5.21232e-05,-5.16631e-05,-0.00939558,15.8372,15.8382,-0.0187019,7.93115,15.8433,15.8324,-0.0190174,15.8569,213,13.8685,6.23298,0.375,6446
-1.5962e-07,9.86775e-08,-2.47626e-06,-5.98932e-05,-4.14615e-05,-0.009391,15.8356,15.8761,0.0053438,7.93606,15.8772,15.8349,0.00502278,15.851,213,14.2685,7.03819,0.375,6447
-1.42661e-07,2.56221e-07,-2.46936e-06,-5.44553e-05,-8.93602e-05,-0.00935774,15.8238,15.7472,0.0530785,7.88652,15.8253,15.7464,0.0522985,15.7337,213,14.1098,4.49252,0.375,6448
-1.37655e-07,1.94419e-07,-2.47435e-06,-5.28737e-05,-6.90855e-05,-0.00819597,14.7025,14.6643,0.00492643,7.34982,14.7041,14.6632,0.00442434,14.6793,213,13.9717,5.27495,0.375,6449
-1.06286e-07,1.61484e-07,-2.47697e-06,-4.48329e-05,-5.9963e-05,-0.00939265,15.8572,15.824,-0.00888689,7.93368,15.8582,15.8233,-0.00918642,15.85,213,13.3041,5.81835,0.375,6450
2.16137e-08,-2.12836e-07,-2.47144e-06,-2.63186e-05,-7.58268e-05,-0.00855666,15.0913,14.9773,-0.027885,7.5598,15.0915,14.9773,-0.0280903,15.0628,213,9.22861,15.6282,0.375,6451
2.0216e-08,-3.14379e-07,-2.47817e-06,-2.51745e-05,-0.000114895,-0.00937487,15.8531,15.6565,-0.0228727,7.93998,15.8551,15.6565,-0.0248515,15.7816,213,9.22802,16.7147,0.375,6452
4.83574e-10,-2.71036e-07,-2.47497e-06,-2.41396e-05,-0.000100242,-0.00939245,15.8485,15.6814,-0.0702612,7.96123,15.8504,15.6814,-0.0721123,15.8387,213,10.0506,16.2899,0.375,6453
-1.54187e-08,-3.31042e-07,-2.48287e-06,-2.56562e-05,-0.000118926,-0.00818407,14.7399,14.5204,0.0071589,7.3689,14.7425,14.5203,0.00468306,14.628,213,10.6919,16.8638,0.375,6454
-1.59981e-08,-2.23892e-07,-2.47363e-06,-2.66675e-05,-7.9851e-05,-0.0093815,15.9218,15.8054,0.042067,7.94018,15.9221,15.8054,0.0417688,15.8223,213,10.6925,15.7773,0.375,6455
2.34112e-08,-1.49689e-07,-2.47544e-06,-2.80174e-05,-5.54745e-05,-0.0105643,17.0786,17.0227,0.0699067,8.50449,17.0788,17.0226,0.069786,16.981,213,9.18794,14.6665,0.375,6456
4.63097e-08,-1.73814e-07,-2.47356e-06,-2.89818e-05,-6.54439e-05,-0.00938729,15.9263,15.8462,0.0334791,7.94672,15.9267,15.846,0.0332927,15.8532,213,8.36537,15.0913,0.375,6457
-3.73609e-09,-1.35362e-07,-2.47777e-06,-2.59563e-05,-5.23307e-05,-0.0093981,15.9474,15.8895,0.0258716,7.96091,15.9476,15.8895,0.0257223,15.8929,213,10.2011,14.3913,0.375,6458
1.98473e-08,-1.09336e-07,-2.47928e-06,-2.85194e-05,-4.40157e-05,-0.00940324,15.9439,15.9098,0.017315,7.96343,15.9441,15.9098,0.0172068,15.9097,213,9.33788,13.8544,0.375,6459
-3.94968e-08,-2.12795e-07,-2.47564e-06,-2.8422e-05,-7.61104e-05,-0.00939904,15.8797,15.775,-0.0352882,7.95811,15.8803,15.7749,-0.0358721,15.8638,213,11.5298,15.6408,0.375,6460
-2.19899e-08,-1.73415e-07,-2.47557e-06,-2.7848e-05,-6.26734e-05,-0.00939967,15.9116,15.8352,-0.0078771,7.95994,15.9118,15.8352,-0.00805101,15.8817,213,10.8885,15.0669,0.375,6461
-2.68829e-08,-1.28008e-07,-2.47881e-06,-2.89336e-05,-4.98763e-05,-0.0102506,16.7209,16.6771,-0.00795577,8.3646,16.7211,16.6771,-0.00810894,16.7072,213,11.0384,14.2548,0.375,6462
-1.60372e-08,3.26658e-07,-2.4648e-06,-2.69625e-05,-0.000109248,-0.00817107,14.7908,14.5973,0.0906483,7.35076,14.7915,14.5973,0.0899655,14.6054,213,10.6791,3.87002,0.375,6463
-1.5798e-08,4.86328e-07,-2.47845e-06,-2.68556e-05,-0.000170849,-0.00934547,15.7946,15.4771,0.00206204,7.90174,15.8001,15.4771,-0.00341302,15.6445,213,10.6791,2.71232,0.375,6464
8.53236e-10,4.00773e-07,-2.46446e-06,-2.48832e-05,-0.000142447,-0.0082102,14.6271,14.3501,-0.158792,7.39627,14.6304,14.3501,-0.162126,14.6544,213,10.05,3.28128,0.375,6465
1.60801e-08,4.84866e-07,-2.47414e-06,-2.50635e-05,-0.000166877,-0.0106344,16.7165,16.427,-0.404861,8.56668,16.7226,16.4268,-0.410768,16.9874,213,9.42062,2.7126,0.375,6466
1.64811e-08,3.26789e-07,-2.46069e-06,-2.54969e-05,-0.000107668,-0.00942266,15.7664,15.586,-0.200585,7.9842,15.7671,15.586,-0.201281,15.8786,213,9.42062,3.8703,0.375,6467
2.29436e-08,2.3974e-07,-2.4698e-06,-2.74163e-05,-8.15591e-05,-0.00936422,15.945,15.8263,0.0936288,7.92606,15.9454,15.8263,0.0932673,15.7929,213,9.18824,4.79022,0.375,6468
2.33972e-08,1.77544e-07,-2.47578e-06,-2.83926e-05,-6.43252e-05,-0.00937987,15.9486,15.8697,0.0698209,7.93973,15.9489,15.8697,0.0694953,15.84,213,9.18701,5.63775,0.375,6469
7.64812e-11,2.01514e-07,-2.47486e-06,-2.58566e-05,-7.20397e-05,-0.00819657,14.8283,14.7196,0.0678719,7.3806,14.8287,14.7196,0.0674884,14.707,213,10.0488,5.28651,0.375,6470
3.97022e-08,2.90362e-07,-2.46708e-06,-2.82022e-05,-9.92972e-05,-0.0102566,16.6064,16.4585,-0.125909,8.36692,16.6072,16.4585,-0.126671,16.66,213,8.55886,4.22154,0.375,6471
-2.34783e-08,1.77264e-07,-2.47808e-06,-2.83171e-05,-6.36611e-05,-0.00939569,15.9162,15.8386,0.00629556,7.95527,15.9165,15.8386,0.00599126,15.8717,213,10.9088,5.63598,0.375,6472
-2.28509e-08,2.38679e-07,-2.47189e-06,-2.7843e-05,-8.09481e-05,-0.00937086,15.9322,15.8156,0.0711827,7.93093,15.9327,15.8155,0.0708102,15.8036,213,10.91,4.78846,0.375,6473
-4.01974e-08,2.89312e-07,-2.46945e-06,-2.87173e-05,-0.000101339,-0.00937425,15.8748,15.7153,0.0123486,7.93207,15.8756,15.7153,0.011515,15.7846,213,11.5391,4.21949,0.375,6474
-4.25607e-07,3.30154e-09,-2.48353e-06,-0.000139389,-2.36645e-05,-0.00825232,14.2712,14.5435,-0.333084,7.44214,14.5474,14.2711,-0.336903,14.7481,213,17.0148,10.1708,0.375,6475
-4.89469e-07,2.00896e-08,-2.49226e-06,-0.000155526,-2.46282e-05,-0.00943144,15.3526,15.6401,-0.341864,7.99499,15.6442,15.3524,-0.34575,15.8461,213,17.4447,9.4784,0.375,6476
-3.48827e-07,2.92671e-08,-2.47113e-06,-0.000106364,-2.6036e-05,-0.0113923,17.4941,17.6492,-0.172581,8.91359,17.6521,17.4938,-0.175126,17.7486,213,16.394,9.14066,0.375,6477
-3.30546e-07,-5.78528e-09,-2.4679e-06,-9.76161e-05,-2.38926e-05,-0.0105938,16.8154,16.9661,-0.0784236,8.52463,16.9685,16.8152,-0.0807084,16.9731,213,16.2083,10.5572,0.375,6478
-4.55331e-07,-1.34076e-08,-2.49139e-06,-0.000151133,-2.26733e-05,-0.00747376,13.4081,13.7241,-0.448995,7.0886,13.7264,13.4077,-0.45083,14.0206,213,17.259,10.8949,0.375,6479
-2.33859e-07,1.18801e-08,-2.46308e-06,-8.52777e-05,-2.36691e-05,-0.0105021,17.0352,17.1608,0.260543,8.45195,17.1626,17.0352,0.258738,16.8405,213,15.1559,9.87516,0.375,6480
-1.93661e-07,-9.63521e-09,-2.46992e-06,-7.04872e-05,-2.45855e-05,-0.00935679,15.9009,16.0016,0.159503,7.92177,16.0023,15.9009,0.158808,15.793,213,14.6627,10.7765,0.375,6481
-2.58585e-07,-9.34229e-09,-2.46413e-06,-8.80016e-05,-2.46182e-05,-0.00932676,15.8864,16.0256,0.243492,7.89315,16.0278,15.8862,0.241501,15.716,213,15.4709,10.7344,0.375,6482
-2.74429e-07,-2.72044e-08,-2.46901e-06,-9.1143e-05,-2.42526e-05,-0.00936719,15.7842,15.9311,0.0683486,7.93286,15.933,15.7834,0.0672496,15.7915,213,15.7151,11.4585,0.375,6483
-2.68688e-07,2.57356e-08,-2.46177e-06,-9.08667e-05,-2.61108e-05,-0.00813647,14.7672,14.9193,0.287117,7.31918,14.9227,14.7666,0.284315,14.561,213,15.5698,9.29117,0.375,6484
-2.00965e-07,2.54577e-08,-2.46659e-06,-7.38842e-05,-2.55697e-05,-0.00850063,15.11,15.2217,0.210995,7.50638,15.2228,15.1099,0.210035,14.9566,213,14.7617,9.33327,0.375,6485
-3.03868e-07,4.43285e-08,-2.46739e-06,-0.000100186,-2.76189e-05,-0.00936929,15.7354,15.8948,0.0411094,7.92931,15.8977,15.7345,0.0390712,15.7777,213,15.9998,8.59877,0.375,6486
3.49103e-07,2.90863e-08,-2.46407e-06,-0.000114132,-2.6061e-05,-0.00936697,15.681,15.8742,0.0223484,7.92781,15.8761,15.6809,0.0205234,15.7589,213,3.70591,9.14074,0.375,6487
4.92997e-07,1.98967e-08,-2.48643e-06,-0.000159593,-2.54158e-05,-0.00940713,15.3884,15.6831,-0.245874,7.9695,15.6882,15.3882,-0.250803,15.7912,213,2.65527,9.47841,0.375,6488
4.30683e-07,3.29243e-09,-2.47264e-06,-0.000145337,-2.30822e-05,-0.00938401,15.5042,15.7727,-0.122209,7.9525,15.7777,15.5042,-0.127251,15.77,213,3.08518,10.1709,0.375,6489
4.63522e-07,-1.34399e-08,-2.47911e-06,-0.000156095,-2.29783e-05,-0.00940173,15.4185,15.7109,-0.21665,7.96792,15.7151,15.4184,-0.220735,15.7896,213,2.84484,10.894,0.375,6490
3.28238e-07,-5.1713e-09,-2.46335e-06,-0.000107055,-2.35322e-05,-0.00937153,15.7082,15.8914,0.0232987,7.93529,15.8926,15.7082,0.0220615,15.7792,213,3.89548,10.5564,0.375,6491
2.48567e-07,-8.30701e-09,-2.46695e-06,-8.71334e-05,-2.40886e-05,-0.00935215,15.8367,15.9752,0.142579,7.9171,15.976,15.8367,0.141798,15.765,213,4.70378,10.7169,0.375,6492
1.86037e-07,-9.33238e-09,-2.47397e-06,-6.69449e-05,-2.43718e-05,-0.010563,16.9883,17.0751,0.0658992,8.50497,17.0755,16.9883,0.0655291,16.9665,213,5.51128,10.7608,0.375,6493
2.28882e-07,1.17415e-08,-2.46748e-06,-8.31726e-05,-2.33927e-05,-0.00935371,15.8527,15.984,0.146329,7.9195,15.9847,15.8527,0.145669,15.7734,213,4.94331,9.87713,0.375,6494
2.67833e-07,-2.59897e-08,-2.46846e-06,-9.24837e-05,-2.44015e-05,-0.01055,16.9094,17.0482,0.0668873,8.49132,17.0489,16.9093,0.0662651,16.9133,213,4.46345,11.44,0.375,6495
1.97995e-07,2.49785e-08,-2.47108e-06,-7.12717e-05,-2.55674e-05,-0.00937408,15.8572,15.9576,0.0840151,7.93718,15.958,15.8572,0.0836357,15.8242,213,5.3308,9.34146,0.375,6496
2.64174e-07,2.54472e-08,-2.46346e-06,-9.2531e-05,-2.55309e-05,-0.0093433,15.8283,15.9755,0.164074,7.90668,15.9765,15.8281,0.163185,15.7397,213,4.5233,9.29755,0.375,6497
3.03639e-07,4.38736e-08,-2.46451e-06,-0.000104209,-2.78115e-05,-0.00936066,15.7336,15.9014,0.0632761,7.92035,15.9028,15.7333,0.0621259,15.7566,213,4.0934,8.60507,0.375,6498
-2.5287e-07,4.32669e-07,-2.45768e-06,-8.86555e-05,-0.000145718,-0.00932275,15.6173,15.492,0.000919795,7.81502,15.6248,15.4906,-0.00521103,15.5634,213,15.8271,2.84997,0.375,6499
-1.79566e-07,3.92534e-07,-2.45518e-06,-6.2207e-05,-0.000130608,-0.0113221,17.5802,17.4479,-0.0570209,8.82308,17.5853,17.4467,-0.0608899,17.5773,213,14.8306,3.20432,0.375,6500
-2.57595e-07,3.15978e-07,-2.45418e-06,-9.0685e-05,-0.000109017,-0.00929971,15.7541,15.7135,0.195604,7.7837,15.762,15.7066,0.194598,15.5398,213,15.809,3.77034,0.375,6501
-3.34126e-07,4.69714e-07,-2.46058e-06,-0.000106785,-0.000178289,-0.00811272,14.3846,14.2167,0.0248547,7.19212,14.3995,14.2115,0.0152275,14.2912,213,16.6676,2.55757,0.375,6502
-3.34148e-07,2.53646e-07,-2.46196e-06,-0.000111015,-8.94498e-05,-0.0093364,15.6124,15.6592,0.00909236,7.82928,15.6664,15.6064,0.00787773,15.6286,213,16.5198,4.34639,0.375,6503
-4.46291e-07,1.86056e-07,-2.47085e-06,-0.0001633,-6.40327e-05,-0.00814593,14.3098,14.5435,-0.000919124,7.27889,14.5508,14.3085,-0.00697305,14.4382,213,17.2754,5.18998,0.375,6504
-4.81499e-07,2.56591e-07,-2.4772e-06,-0.00017576,-8.87063e-05,-0.00930596,15.3894,15.5806,-0.00345893,7.80037,15.5899,15.3875,-0.0108307,15.5005,213,17.5612,4.25957,0.375,6505
-5.02489e-07,3.38978e-07,-2.47283e-06,-0.000201801,-0.000108852,-0.0104705,16.429,16.6191,-0.0290623,8.33587,16.6319,16.427,-0.0398332,16.5702,213,17.7471,3.43043,0.375,6506
-4.57286e-07,4.42033e-07,-2.46381e-06,-0.000170872,-0.000161352,-0.00809316,14.1629,14.1856,-0.000789093,7.11659,14.2165,14.1479,-0.0166744,14.199,213,17.5552,2.67053,0.375,6507
2.57735e-07,3.15097e-07,-2.45756e-06,-9.09325e-05,-0.000106872,-0.0093421,15.6518,15.6168,-0.00411313,7.83263,15.66,15.6097,-0.00523339,15.6402,213,4.29089,3.77046,0.375,6508
1.80028e-07,3.915e-07,-2.45347e-06,-6.15808e-05,-0.000134838,-0.00934768,15.709,15.548,-0.0211448,7.86873,15.7132,15.5469,-0.0242778,15.655,213,5.26927,3.20447,0.375,6509
2.52454e-07,4.32429e-07,-2.45766e-06,-8.89912e-05,-0.000147611,-0.00931646,15.6235,15.4947,0.0186631,7.8095,15.6315,15.4929,0.0124918,15.5502,213,4.27286,2.84999,0.375,6510
3.34458e-07,4.70862e-07,-2.46263e-06,-0.000107557,-0.00018567,-0.00929301,15.5045,15.3329,-0.00633221,7.7657,15.5165,15.3295,-0.0148997,15.4387,213,3.43235,2.55757,0.375,6511
4.8293e-07,2.56729e-07,-2.47784e-06,-0.000173464,-8.81299e-05,-0.009319,15.3756,15.563,-0.0452281,7.81431,15.5747,15.3726,-0.0539322,15.5286,213,2.53883,4.25957,0.375,6512
4.46909e-07,1.86095e-07,-2.46969e-06,-0.000164685,-6.41287e-05,-0.00934178,15.4166,15.6374,-0.075876,7.86309,15.6441,15.4161,-0.0820622,15.6134,213,2.82458,5.18998,0.375,6513
3.34564e-07,2.53974e-07,-2.4613e-06,-0.000109984,-8.94517e-05,-0.0093384,15.6144,15.6595,0.00792411,7.83024,15.6668,15.6087,0.00634587,15.6315,213,3.58023,4.34639,0.375,6514
5.05841e-07,3.39626e-07,-2.47312e-06,-0.000208107,-0.000110561,-0.00929245,15.2267,15.441,-0.058992,7.76241,15.4539,15.2258,-0.0709584,15.4121,213,2.35292,3.43043,0.375,6515
4.56904e-07,4.40688e-07,-2.46252e-06,-0.00016764,-0.000155107,-0.00929657,15.2979,15.3254,-0.0836126,7.72612,15.3564,15.2792,-0.0958787,15.4138,213,2.54485,2.67053,0.375,6516
2.5241e-07,-2.85393e-07,-2.46357e-06,-9.0847e-05,-0.000101022,-0.0105295,16.7904,16.7713,-0.0146735,8.41038,16.8046,16.7586,-0.0161811,16.7978,213,4.27532,16.6693,0.375,6517
1.76661e-07,-2.66026e-07,-2.4659e-06,-6.34681e-05,-9.42328e-05,-0.00936707,15.7453,15.6778,-0.0289649,7.89259,15.7529,15.6735,-0.032282,15.7456,213,5.30477,16.3792,0.375,6518
2.58394e-07,-2.09814e-07,-2.45783e-06,-9.21447e-05,-7.4428e-05,-0.00935092,15.7074,15.7465,0.039142,7.85804,15.7542,15.7008,0.038094,15.6894,213,4.32394,15.7939,0.375,6519
3.33295e-07,-3.09775e-07,-2.46946e-06,-0.000111494,-0.000121813,-0.00931836,15.5768,15.5536,0.0147158,7.79736,15.6018,15.5362,0.00708529,15.562,213,3.43235,16.9424,0.375,6520
3.41614e-07,-1.64436e-07,-2.46124e-06,-0.000114338,-5.94012e-05,-0.0101972,16.4467,16.5607,0.00482065,8.27957,16.5631,16.4451,0.00398705,16.5004,213,3.58023,15.1536,0.375,6521
4.57077e-07,-1.20907e-07,-2.47354e-06,-0.000167316,-4.4801e-05,-0.0081526,14.3159,14.6044,-0.00758004,7.31207,14.6106,14.3157,-0.0135414,14.4789,213,2.82458,14.31,0.375,6522
4.93312e-07,-1.70157e-07,-2.48026e-06,-0.000178315,-5.93504e-05,-0.00932803,15.3979,15.6592,-0.0350469,7.85598,15.6686,15.3968,-0.0433289,15.5778,213,2.53883,15.2404,0.375,6523
5.20125e-07,-2.27237e-07,-2.48398e-06,-0.000218312,-7.59713e-05,-0.0112551,17.2112,17.4867,0.0123541,8.75136,17.5009,17.2112,-0.00185033,17.3597,213,2.35292,16.0696,0.375,6524
4.62544e-07,-2.95675e-07,-2.48464e-06,-0.000174987,-0.00011196,-0.00810571,14.2267,14.3747,0.0327968,7.18478,14.3915,14.2207,0.021958,14.2849,213,2.54485,16.8295,0.375,6525
-2.60514e-07,-2.03614e-07,-2.45865e-06,-9.3123e-05,-7.03357e-05,-0.0105477,16.811,16.8573,-0.0224987,8.44291,16.8625,16.8066,-0.0233099,16.8579,213,15.793,15.721,0.375,6526
-1.77867e-07,-2.53374e-07,-2.46398e-06,-6.38647e-05,-8.95969e-05,-0.00936374,15.7674,15.7108,0.00582504,7.88479,15.7736,15.7063,0.00405815,15.736,213,14.8095,16.2932,0.375,6527
-2.518e-07,-2.83757e-07,-2.4624e-06,-9.06785e-05,-0.000101834,-0.00934395,15.6609,15.6364,0.000672287,7.83816,15.6735,15.6273,-0.00284616,15.6533,213,15.822,16.6562,0.375,6528
-3.32408e-07,-3.11934e-07,-2.46727e-06,-0.000111554,-0.00012867,-0.0105058,16.6944,16.6588,-0.0185143,8.37154,16.7183,16.6412,-0.0248238,16.7047,213,16.6676,16.9424,0.375,6529
-4.92885e-07,-1.70205e-07,-2.47972e-06,-0.000177115,-5.89459e-05,-0.00933545,15.3902,15.6498,-0.057881,7.86239,15.6589,15.3892,-0.0659298,15.5917,213,17.5612,15.2404,0.375,6530
-4.569e-07,-1.20535e-07,-2.47204e-06,-0.000165146,-4.54842e-05,-0.008166,14.2912,14.5729,-0.0682023,7.32644,14.5791,14.2907,-0.0738232,14.5108,213,17.2754,14.31,0.375,6531
-3.41665e-07,-1.65138e-07,-2.46174e-06,-0.000115196,-5.96458e-05,-0.0105284,16.7793,16.8918,0.0228678,8.4362,16.8943,16.7777,0.0219349,16.8144,213,16.5198,15.1536,0.375,6532
-5.19664e-07,-2.26983e-07,-2.48353e-06,-0.000218322,-7.55989e-05,-0.0112471,17.2256,17.5018,0.0388141,8.74615,17.5165,17.2255,0.0242171,17.3486,213,17.7471,16.0696,0.375,6533
-4.61508e-07,-2.94323e-07,-2.4826e-06,-0.00017461,-0.000107044,-0.00929706,15.369,15.5174,-0.0100093,7.77492,15.5314,15.3635,-0.0184757,15.4666,213,17.5552,16.8295,0.375,6534
1.43936e-07,-2.03837e-08,-2.47905e-06,-5.72195e-05,-2.46226e-05,-0.0105842,16.9858,17.0523,0.00453981,8.52408,17.0525,16.9858,0.00435693,17.0149,213,6.18251,11.2171,0.375,6535
9.49311e-08,-3.24634e-08,-2.48205e-06,-4.16745e-05,-2.76074e-05,-0.00744416,14.0295,14.0641,-0.0288268,7.04658,14.0643,14.0294,-0.0289039,14.0758,213,7.1678,11.6597,0.375,6536
1.31468e-07,-8.66895e-11,-2.479e-06,-5.30997e-05,-2.3949e-05,-0.0085567,15.0834,15.1508,0.0170097,7.56706,15.151,15.0834,0.0168474,15.1004,213,6.42204,10.3774,0.375,6537
6.55813e-08,-1.13617e-08,-2.48275e-06,-3.6067e-05,-2.41073e-05,-0.0102626,16.7225,16.7475,-0.0152587,8.38144,16.7476,16.7225,-0.0153042,16.7503,213,7.93138,10.8327,0.375,6538
8.10394e-08,1.19568e-08,-2.48218e-06,-3.87567e-05,-2.57004e-05,-0.00941668,15.9109,15.9396,-0.0201961,7.97995,15.9397,15.9109,-0.0202389,15.9455,213,7.51445,9.89298,0.375,6539
1.10032e-07,2.34216e-08,-2.48056e-06,-4.77675e-05,-2.5743e-05,-0.0105882,17.0139,17.0588,0.00417772,8.52743,17.0589,17.0139,0.00407339,17.0324,213,6.84322,9.43666,0.375,6540
6.25059e-08,-3.3029e-08,-2.48276e-06,-3.53949e-05,-2.78694e-05,-0.00941814,15.9179,15.9344,-0.0235673,7.97906,15.9345,15.9178,-0.0236058,15.9498,213,8.00591,11.6587,0.375,6541
-1.04733e-07,-3.15612e-08,-2.48042e-06,-4.43203e-05,-2.75848e-05,-0.00940779,15.9012,15.9379,0.00073405,7.96873,15.9381,15.9011,0.000638922,15.919,213,13.1477,11.639,0.375,6542
-1.48981e-07,-2.06285e-08,-2.47656e-06,-5.88405e-05,-2.50327e-05,-0.0093986,15.8614,15.9356,0.0117844,7.96224,15.936,15.8612,0.011532,15.8872,213,13.9922,11.2347,0.375,6543
-1.32867e-07,5.19904e-10,-2.47634e-06,-5.46385e-05,-2.42257e-05,-0.00938683,15.9073,15.9742,0.0708485,7.95193,15.9745,15.9073,0.0705904,15.8704,213,13.6773,10.3755,0.375,6544
-8.05722e-08,1.17913e-08,-2.48106e-06,-3.89877e-05,-2.5602e-05,-0.00940985,15.9247,15.9541,0.00730372,7.97345,15.9542,15.9247,0.00725415,15.9322,213,12.5633,9.92326,0.375,6545
-6.08987e-08,-1.99043e-08,-2.48225e-06,-3.55231e-05,-2.50997e-05,-0.0085699,15.133,15.157,-0.00368947,7.58042,15.1571,15.1329,-0.00373159,15.1488,213,12.035,11.1764,0.375,6546
-1.09877e-07,2.32515e-08,-2.4786e-06,-4.85418e-05,-2.52704e-05,-0.00939654,15.9114,15.9625,0.0419765,7.96043,15.9627,15.9114,0.0418183,15.8953,213,13.2338,9.46505,0.375,6547
-6.53952e-08,-4.1769e-08,-2.48214e-06,-3.64603e-05,-2.85438e-05,-0.0105984,17.0349,17.0511,-0.0168699,8.53409,17.0513,17.0348,-0.0169188,17.0599,213,12.176,11.9817,0.375,6548
-1.21673e-07,-3.11726e-07,-2.47702e-06,-4.98715e-05,-0.000108635,-0.00938249,15.7458,15.6168,-0.0822797,7.91886,15.7516,15.6148,-0.0860953,15.7697,213,13.8977,16.8051,0.375,6549
-1.26869e-07,-2.23559e-07,-2.47001e-06,-5.11648e-05,-7.92016e-05,-0.00938812,15.7944,15.7328,-0.0460269,7.92167,15.7967,15.7311,-0.0466374,15.8106,213,13.8687,15.8699,0.375,6550
-8.79469e-08,-3.78825e-07,-2.4873e-06,-3.85499e-05,-0.000164413,-0.00932854,15.7855,15.5091,0.042754,7.8815,15.796,15.5083,0.0330212,15.6211,213,13.1947,17.2383,0.375,6551
-6.16905e-08,-3.63657e-07,-2.48493e-06,-3.05574e-05,-0.000148245,-0.00935064,15.8106,15.5522,0.00446843,7.91189,15.8197,15.5517,-0.00411927,15.6915,213,12.421,17.1228,0.375,6552
-5.61216e-08,-2.72562e-07,-2.47667e-06,-3.16265e-05,-9.28904e-05,-0.00938767,15.8521,15.7175,-0.0307561,7.94269,15.8535,15.7172,-0.0318651,15.8177,213,12.1453,16.3665,0.375,6553
-3.88727e-08,-3.6368e-07,-2.4858e-06,-2.55786e-05,-0.000147371,-0.0101947,16.635,16.3809,0.0104052,8.32063,16.6433,16.3809,0.0020701,16.5116,213,11.6094,17.1075,0.375,6554
-9.34814e-08,-1.94124e-07,-2.4739e-06,-4.02612e-05,-7.02671e-05,-0.00939419,15.8506,15.7847,-0.0281228,7.94025,15.8519,15.7839,-0.0285904,15.8466,213,13.0955,15.4336,0.375,6555
-6.45715e-08,-2.12531e-07,-2.47535e-06,-3.3941e-05,-7.58961e-05,-0.00939641,15.8611,15.7689,-0.0360701,7.94936,15.8621,15.7685,-0.0366488,15.8521,213,12.3414,15.6561,0.375,6556
-7.20071e-08,-1.50024e-07,-2.4768e-06,-3.65122e-05,-5.49269e-05,-0.00939981,15.8904,15.85,-0.00978378,7.95057,15.8911,15.8495,-0.0100154,15.8804,213,12.48,14.7079,0.375,6557
1.30439e-07,-2.4264e-07,-2.47037e-06,-5.18361e-05,-8.84101e-05,-0.00937699,15.7949,15.7145,-0.0208045,7.90994,15.7975,15.7135,-0.0223865,15.778,213,6.14256,16.0802,0.375,6558
1.268e-07,-3.30259e-07,-2.4811e-06,-5.05156e-05,-0.000119013,-0.0105314,16.914,16.7778,0.0156127,8.45247,16.9181,16.7761,0.0131875,16.8344,213,6.09394,16.9556,0.375,6559
9.29525e-08,-4.10311e-07,-2.48953e-06,-3.91431e-05,-0.000177662,-0.00929137,15.8232,15.519,0.145733,7.86071,15.8459,15.5176,0.124464,15.5599,213,6.77203,17.4066,0.375,6560
6.57367e-08,-3.84299e-07,-2.48911e-06,-3.346e-05,-0.000153373,-0.0105007,16.9697,16.726,0.0928398,8.44713,16.9786,16.7257,0.0843004,16.7692,213,7.54364,17.2645,0.375,6561
4.43886e-08,-3.438e-07,-2.48375e-06,-2.71786e-05,-0.000134213,-0.00817243,14.724,14.472,0.0231327,7.35866,14.7323,14.4718,0.0149963,14.5888,213,8.2808,16.9628,0.375,6562
6.5309e-08,-2.71809e-07,-2.4763e-06,-3.44532e-05,-9.74743e-05,-0.0105524,16.9853,16.8576,0.0155267,8.48614,16.9867,16.8572,0.0144757,16.9079,213,7.66888,16.3547,0.375,6563
9.38367e-08,-2.31303e-07,-2.4746e-06,-4.06855e-05,-8.49182e-05,-0.00940203,15.7983,15.7012,-0.0926767,7.94656,15.7996,15.7008,-0.093547,15.844,213,6.95235,15.9351,0.375,6564
6.67016e-08,-2.10298e-07,-2.47378e-06,-3.52658e-05,-7.57045e-05,-0.00856541,15.0283,14.935,-0.0882086,7.55896,15.0293,14.9344,-0.0885857,15.0706,213,7.6895,15.6333,0.375,6565
-1.30283e-07,3.41271e-07,-2.46252e-06,-5.07715e-05,-0.000118205,-0.00935419,15.793,15.6446,0.0356817,7.8797,15.7942,15.6443,0.0348041,15.685,213,13.9276,3.67312,0.375,6566
-1.29068e-07,4.66218e-07,-2.46965e-06,-4.95339e-05,-0.000146881,-0.00819836,14.5273,14.2991,-0.170841,7.35267,14.531,14.2989,-0.174364,14.5907,213,13.9457,2.75275,0.375,6567
-9.61e-08,5.56142e-07,-2.47968e-06,-4.03566e-05,-0.000221858,-0.00811182,14.5903,14.1632,0.0623219,7.28368,14.61,14.1631,0.0426812,14.3491,213,13.239,2.3236,0.375,6568
-5.87631e-08,3.9976e-07,-2.4705e-06,-3.28631e-05,-0.000131143,-0.00851853,15.0129,14.786,-0.00665036,7.51149,15.0146,14.7859,-0.00833412,14.9099,213,12.1755,3.2613,0.375,6569
-6.74945e-08,2.91152e-07,-2.47029e-06,-3.45113e-05,-0.000102313,-0.00936466,15.8671,15.7182,0.0365753,7.91611,15.868,15.718,0.0358191,15.7577,213,12.4064,4.17974,0.375,6570
-7.52352e-08,2.18299e-07,-2.47377e-06,-3.74291e-05,-7.44483e-05,-0.00937323,15.8992,15.8179,0.0553161,7.92238,15.8997,15.8177,0.0549837,15.8039,213,12.5886,4.99913,0.375,6571
-9.87477e-08,3.0221e-07,-2.46899e-06,-4.21463e-05,-0.000105641,-0.00853445,14.987,14.8403,-0.0532935,7.52108,14.988,14.8402,-0.0541536,14.9688,213,13.225,4.04094,0.375,6572
-6.65617e-08,5.37819e-07,-2.48108e-06,-3.34911e-05,-0.000199493,-0.0105273,16.8266,16.4883,-0.0821318,8.46553,16.8379,16.4881,-0.0931958,16.7589,213,12.4226,2.42216,0.375,6573
-4.01292e-08,5.33138e-07,-2.48372e-06,-2.78942e-05,-0.00019897,-0.00932552,15.7581,15.3824,-0.00193295,7.8921,15.7702,15.3824,-0.0140122,15.5939,213,11.5553,2.46191,0.375,6574
1.29063e-07,4.65197e-07,-2.46978e-06,-5.0253e-05,-0.000154998,-0.0093754,15.6525,15.4223,-0.15599,7.90928,15.6577,15.422,-0.160894,15.7021,213,6.1541,2.75298,0.375,6575
1.30854e-07,3.39648e-07,-2.46373e-06,-5.10738e-05,-0.000115496,-0.00936375,15.7649,15.6234,-0.0235541,7.89561,15.7665,15.623,-0.0247241,15.72,213,6.17213,3.67346,0.375,6576
9.70734e-08,5.5253e-07,-2.48548e-06,-4.01901e-05,-0.000221976,-0.00932034,15.6637,15.2646,-0.0530759,7.87699,15.6825,15.2643,-0.0715227,15.5491,213,6.86088,2.32386,0.375,6577
6.74126e-08,2.91863e-07,-2.4699e-06,-3.53207e-05,-0.000100196,-0.00937182,15.8521,15.7096,0.00853499,7.92275,15.8532,15.7094,0.00765348,15.7741,213,7.69172,4.18172,0.375,6578
5.84446e-08,3.97283e-07,-2.47208e-06,-3.31657e-05,-0.000125229,-0.00937956,15.7887,15.5865,-0.0707606,7.93174,15.7907,15.5865,-0.0727625,15.7624,213,7.92411,3.26179,0.375,6579
9.87278e-08,3.02974e-07,-2.46844e-06,-4.19044e-05,-0.000103592,-0.00936384,15.8324,15.6969,0.0204884,7.90717,15.8338,15.6966,0.0194297,15.7462,213,6.87459,4.04116,0.375,6580
7.5735e-08,2.19443e-07,-2.47346e-06,-3.75595e-05,-7.5281e-05,-0.00936699,15.9099,15.8271,0.0782089,7.91651,15.9107,15.8268,0.0777214,15.7912,213,7.50935,5.00092,0.375,6581
3.97074e-08,5.29099e-07,-2.48661e-06,-2.81742e-05,-0.000203372,-0.00928608,15.8349,15.4502,0.155297,7.85119,15.8463,15.4503,0.143881,15.5082,213,8.54443,2.46219,0.375,6582
6.681e-08,5.35725e-07,-2.48842e-06,-3.31671e-05,-0.000207064,-0.00929151,15.7879,15.4061,0.103659,7.85229,15.7981,15.406,0.0935192,15.5123,213,7.67729,2.42237,0.375,6583
-4.42435e-08,1.49229e-07,-2.47978e-06,-2.99706e-05,-5.63793e-05,-0.00940507,15.9053,15.8473,-0.0198558,7.96283,15.9056,15.8472,-0.0200655,15.8966,213,11.6092,6.08985,0.375,6584
-1.93321e-08,1.23978e-07,-2.48103e-06,-2.81964e-05,-4.8722e-05,-0.00941106,15.9178,15.8727,-0.0240158,7.97106,15.918,15.8727,-0.0241665,15.9195,213,10.748,6.5879,0.375,6585
-6.90243e-08,1.07794e-07,-2.481e-06,-3.68168e-05,-4.25729e-05,-0.00941169,15.8919,15.8792,-0.0318657,7.96233,15.8926,15.8786,-0.0320199,15.9177,213,12.3247,6.90907,0.375,6586
-7.3097e-08,1.55076e-07,-2.47844e-06,-3.65703e-05,-5.76002e-05,-0.00939641,15.8915,15.8454,-0.00134324,7.94685,15.8921,15.845,-0.00155917,15.8702,213,12.4855,5.95715,0.375,6587
-1.96124e-08,8.41843e-08,-2.48199e-06,-2.8971e-05,-3.74305e-05,-0.00941908,15.9228,15.9043,-0.034159,7.97853,15.9229,15.9043,-0.0342117,15.9478,213,10.7487,7.51197,0.375,6588
-5.15864e-08,6.54756e-08,-2.48202e-06,-3.24095e-05,-3.37026e-05,-0.00941654,15.9214,15.9185,-0.0231857,7.97299,15.9227,15.9172,-0.0232401,15.9432,213,11.7842,8.02731,0.375,6589
-8.29784e-08,6.907e-08,-2.48104e-06,-3.89429e-05,-3.48892e-05,-0.00941081,15.9018,15.9107,-0.0163369,7.964,15.9116,15.901,-0.016425,15.9227,213,12.6604,7.89461,0.375,6590
2.01588e-10,1.02348e-07,-2.48143e-06,-2.75688e-05,-4.34739e-05,-0.00823161,14.809,14.7715,-0.0240206,7.41659,14.8091,14.7715,-0.0240994,14.8144,213,10.0483,7.0581,0.375,6591
1.95966e-08,1.2354e-07,-2.47993e-06,-2.84498e-05,-4.88703e-05,-0.00822129,14.8164,14.7684,0.00889504,7.40393,14.8166,14.7684,0.00874451,14.7838,213,9.34445,6.59796,0.375,6592
4.45099e-08,1.48837e-07,-2.47826e-06,-3.03477e-05,-5.72296e-05,-0.0105741,17.0472,16.9924,0.0283417,8.50967,17.0475,16.9923,0.0281511,16.9918,213,8.48392,6.10168,0.375,6593
7.41964e-08,1.55263e-07,-2.47835e-06,-3.73551e-05,-5.85025e-05,-0.00939339,15.8923,15.8458,0.00713828,7.94307,15.893,15.8455,0.00682456,15.8624,213,7.59969,5.9649,0.375,6594
7.00381e-08,1.06755e-07,-2.4809e-06,-3.69028e-05,-4.27889e-05,-0.00856513,15.0949,15.0814,-0.0265087,7.5611,15.0956,15.0809,-0.0266462,15.1149,213,7.75713,6.92511,0.375,6595
5.27054e-08,6.59145e-08,-2.48226e-06,-3.24653e-05,-3.36736e-05,-0.0106001,17.0367,17.0342,-0.0268297,8.53222,17.0376,17.0334,-0.0268791,17.0624,213,8.2885,8.00709,0.375,6596
2.02836e-08,8.3425e-08,-2.48185e-06,-2.88666e-05,-3.73125e-05,-0.00941688,15.9287,15.9103,-0.0239627,7.9764,15.9288,15.9103,-0.0240093,15.9435,213,9.34518,7.52203,0.375,6597
8.46272e-08,6.98336e-08,-2.48164e-06,-3.90382e-05,-3.49325e-05,-0.00941357,15.8957,15.9047,-0.0271217,7.96626,15.9053,15.8952,-0.0272299,15.9275,213,7.40427,7.8703,0.375,6598
5.26453e-07,-2.8752e-08,-2.49028e-06,-0.000177633,-2.5034e-05,-0.00823985,14.1101,14.4691,-0.377108,7.42602,14.4721,14.11,-0.379961,14.6743,213,2.4478,11.5323,0.375,6599
6.09663e-07,-5.78577e-08,-2.49097e-06,-0.00025347,-3.01499e-05,-0.0101492,16.0159,16.4812,-0.0334131,8.28319,16.5071,16.0159,-0.0592854,16.3263,213,2.07841,12.5592,0.375,6600
3.9872e-07,-3.8329e-08,-2.4738e-06,-0.00013245,-2.60667e-05,-0.0102716,16.2877,16.5094,-0.254879,8.38329,16.5106,16.2876,-0.255994,16.6562,213,3.25811,11.9178,0.375,6601
5.51722e-07,-8.7102e-08,-2.48291e-06,-0.000198285,-3.76269e-05,-0.00815795,14.1732,14.5512,-0.0848562,7.32861,14.5618,14.1732,-0.0954518,14.4669,213,2.32212,13.4764,0.375,6602
3.80775e-07,-8.36318e-08,-2.4702e-06,-0.000129208,-3.59333e-05,-0.0102147,16.3981,16.5919,-0.0465066,8.32038,16.5931,16.3981,-0.047674,16.5441,213,3.36352,13.3896,0.375,6603
3.56689e-07,-6.04148e-08,-2.47145e-06,-0.000120296,-3.0742e-05,-0.00820256,14.461,14.6719,-0.0844894,7.37922,14.6729,14.461,-0.0855023,14.6536,213,3.5759,12.6934,0.375,6604
3.13671e-07,-4.19916e-08,-2.47033e-06,-0.000105325,-2.75408e-05,-0.00819867,14.5527,14.7358,-0.0191388,7.37835,14.7367,14.5526,-0.0199644,14.6655,213,3.97294,12.0551,0.375,6605
3.74033e-07,1.35018e-07,-2.46598e-06,-0.000125462,-5.00083e-05,-0.00741082,13.6357,13.8212,-0.128424,6.97676,13.8234,13.6352,-0.130123,13.8604,213,3.36352,6.11038,0.375,6606
5.40149e-07,1.37212e-07,-2.48704e-06,-0.000196499,-5.19801e-05,-0.010503,16.5132,16.8087,-0.0123392,8.42038,16.8185,16.5133,-0.0222425,16.6902,213,2.32212,6.02355,0.375,6607
6.15276e-07,9.87106e-08,-2.4916e-06,-0.000259012,-3.93114e-05,-0.00927124,15.2027,15.6854,0.0627501,7.84042,15.7145,15.2027,0.0336588,15.4313,213,2.02819,6.87962,0.375,6608
3.28858e-07,8.9568e-08,-2.4689e-06,-0.000111742,-3.76223e-05,-0.0113621,17.5077,17.651,-0.0944828,8.87371,17.652,17.5075,-0.0953776,17.6756,213,3.77835,7.1762,0.375,6609
5.74859e-07,7.0864e-08,-2.49744e-06,-0.000223804,-3.31739e-05,-0.00933785,15.2332,15.6518,-0.116024,7.89467,15.6626,15.2332,-0.126783,15.5791,213,2.1967,7.66162,0.375,6610
5.3237e-07,4.79895e-08,-2.49681e-06,-0.000199241,-2.7328e-05,-0.00937193,15.2795,15.657,-0.197238,7.93684,15.6667,15.2795,-0.20694,15.6836,213,2.40417,8.41377,0.375,6611
4.19009e-07,6.97461e-08,-2.47888e-06,-0.000135653,-3.26068e-05,-0.00857344,14.6423,14.8794,-0.252988,7.56784,14.8811,14.6421,-0.254542,15.0176,213,3.06853,7.6961,0.375,6612
3.10614e-07,6.37114e-08,-2.46741e-06,-0.000104954,-3.15948e-05,-0.00937935,15.6831,15.8442,-0.0194983,7.93304,15.8456,15.6827,-0.0204651,15.7852,213,3.98581,7.92834,0.375,6613
-6.08884e-07,-5.70276e-08,-2.49099e-06,-0.000254939,-3.14106e-05,-0.00930404,15.1645,15.6552,-0.0532625,7.8784,15.6795,15.1643,-0.0773415,15.5056,213,18.0216,12.5592,0.375,6614
-5.18373e-07,-2.83955e-08,-2.49888e-06,-0.000188953,-2.53187e-05,-0.010637,16.3281,16.6592,-0.470884,8.56572,16.6599,16.3281,-0.471561,16.968,213,17.6522,11.5323,0.375,6615
-3.89586e-07,-3.85559e-08,-2.48544e-06,-0.000128834,-2.64258e-05,-0.0106624,16.53,16.7383,-0.433139,8.58596,16.7386,16.5299,-0.433302,17.0685,213,16.8458,11.9187,0.375,6616
-3.79849e-07,-8.42914e-08,-2.47237e-06,-0.000135027,-3.48469e-05,-0.00934706,15.6054,15.8253,0.0297233,7.89896,15.8265,15.6054,0.028567,15.6885,213,16.7365,13.3896,0.375,6617
-5.55804e-07,-8.59458e-08,-2.47974e-06,-0.000198226,-3.65002e-05,-0.00930888,15.4032,15.7584,0.0518021,7.86799,15.7732,15.4031,0.0371774,15.5542,213,17.7779,13.4764,0.375,6618
-3.51542e-07,-6.12432e-08,-2.47668e-06,-0.000119446,-3.09086e-05,-0.0113811,17.4585,17.6297,-0.156207,8.89327,17.63,17.4585,-0.156519,17.7014,213,16.5241,12.6934,0.375,6619
-3.08311e-07,-4.27382e-08,-2.47521e-06,-9.96144e-05,-2.76679e-05,-0.00741857,13.8039,13.9808,-0.0460803,7.014,13.9816,13.8035,-0.0464188,13.9398,213,16.1309,12.056,0.375,6620
-5.44801e-07,1.36504e-07,-2.48684e-06,-0.000201148,-5.14228e-05,-0.00813671,14.1713,14.5234,-0.0373511,7.29392,14.5369,14.1713,-0.0509127,14.4085,213,17.7779,6.02355,0.375,6621
-3.72212e-07,1.35548e-07,-2.46967e-06,-0.000129107,-4.97283e-05,-0.0113632,17.4144,17.5681,-0.149585,8.86006,17.5693,17.4144,-0.150821,17.6432,213,16.7365,6.11038,0.375,6622
-6.16005e-07,9.94622e-08,-2.4906e-06,-0.000257189,-3.95571e-05,-0.0100947,16.0924,16.546,0.153437,8.226,16.5757,16.0924,0.12372,16.2157,213,18.0718,6.87962,0.375,6623
-3.1911e-07,9.21118e-08,-2.47392e-06,-0.000107928,-3.82757e-05,-0.00823551,14.4302,14.5942,-0.209642,7.40232,14.5946,14.4302,-0.21005,14.7231,213,16.2875,7.12198,0.375,6624
-5.6673e-07,7.05295e-08,-2.50049e-06,-0.000220733,-3.34995e-05,-0.00815205,14.0872,14.528,-0.105368,7.32202,14.5334,14.0871,-0.110655,14.4261,213,17.9033,7.66162,0.375,6625
-4.10804e-07,7.0052e-08,-2.48943e-06,-0.000135819,-3.34185e-05,-0.0114471,17.2583,17.4564,-0.437706,8.94795,17.4575,17.258,-0.438426,17.797,213,17.0315,7.6961,0.375,6626
-5.23936e-07,4.73195e-08,-2.50136e-06,-0.000189204,-2.75734e-05,-0.00938629,15.2952,15.6499,-0.230153,7.9441,15.654,15.2952,-0.234212,15.7119,213,17.6958,8.41377,0.375,6627
-3.03214e-07,6.56836e-08,-2.47195e-06,-9.8044e-05,-3.24634e-05,-0.00940859,15.6382,15.7818,-0.14885,7.96661,15.7838,15.6367,-0.149392,15.8602,213,16.0801,7.87413,0.375,6628
5.66572e-08,-5.78161e-08,-2.48222e-06,-3.46871e-05,-3.0748e-05,-0.00744556,14.0537,14.0634,-0.0248861,7.04429,14.0636,14.0535,-0.0249446,14.0835,213,8.15661,12.4983,0.375,6629
3.89719e-08,-8.67797e-08,-2.48085e-06,-2.96727e-05,-3.90795e-05,-0.0105925,17.0527,17.0335,-0.00180156,8.52737,17.0529,17.0334,-0.00187275,17.045,213,8.6978,13.3203,0.375,6630
9.68015e-09,-7.68962e-08,-2.4817e-06,-2.79956e-05,-3.63932e-05,-0.0102589,16.7376,16.7201,-0.00968244,8.37369,16.7376,16.7201,-0.00973286,16.7386,213,9.71098,13.045,0.375,6631
-6.6382e-10,-4.30557e-08,-2.48282e-06,-2.88201e-05,-2.88427e-05,-0.00823544,14.8289,14.8289,-0.0117189,7.42071,14.8297,14.8281,-0.0117338,14.8406,213,10.0671,12.015,0.375,6632
3.29951e-08,-3.36098e-08,-2.4829e-06,-2.93945e-05,-2.79385e-05,-0.0113904,17.8027,17.8055,-0.014841,8.91032,17.8058,17.8024,-0.0148591,17.819,213,8.92019,11.6713,0.375,6633
-1.85982e-08,-5.95384e-08,-2.48236e-06,-2.8357e-05,-3.31263e-05,-0.00823283,14.8272,14.816,-0.00806466,7.41772,14.8274,14.8159,-0.00809551,14.8297,213,10.7071,12.5491,0.375,6634
-7.99363e-08,-6.90749e-08,-2.48126e-06,-3.91099e-05,-3.41414e-05,-0.0105911,17.0266,17.0368,-0.00559343,8.52157,17.0375,17.026,-0.0056855,17.0374,213,12.594,12.8636,0.375,6635
-4.16797e-08,-5.43874e-08,-2.48239e-06,-3.07263e-05,-3.17781e-05,-0.00744466,14.0732,14.0706,-0.0133118,7.04361,14.0739,14.07,-0.0133487,14.0853,213,11.4813,12.4009,0.375,6636
-3.01628e-08,-9.12535e-08,-2.48097e-06,-2.97928e-05,-3.92714e-05,-0.0105916,17.0537,17.0344,0.00130627,8.52632,17.0539,17.0343,0.00123821,17.0429,213,11.1252,13.431,0.375,6637
-5.04189e-08,-1.20263e-07,-2.47919e-06,-3.1353e-05,-4.80298e-05,-0.00822101,14.8035,14.7642,0.00185785,7.40106,14.8038,14.764,0.00170639,14.7823,213,11.8126,14.1066,0.375,6638
-7.70495e-08,-1.09237e-07,-2.47953e-06,-3.81599e-05,-4.45031e-05,-0.00821906,14.784,14.7691,0.00311347,7.39106,14.7851,14.7682,0.00292276,14.7737,213,12.5667,13.8841,0.375,6639
-9.62388e-08,4.36742e-08,-2.48007e-06,-4.40796e-05,-2.73835e-05,-0.00940605,15.9061,15.9428,0.00811548,7.96752,15.9431,15.9059,0.00802329,15.9165,213,12.9544,8.70251,0.375,6640
-1.54449e-07,3.06092e-08,-2.47331e-06,-5.93613e-05,-2.62492e-05,-0.00937639,15.904,15.9768,0.0987639,7.93946,15.9773,15.9039,0.0983691,15.8424,213,14.0683,9.15471,0.375,6641
-1.19107e-07,7.87714e-08,-2.47883e-06,-4.89463e-05,-3.68344e-05,-0.0093986,15.8787,15.9053,0.00767896,7.94936,15.9062,15.8779,0.00750857,15.8846,213,13.4949,7.58427,0.375,6642
-1.80887e-07,6.81447e-08,-2.47415e-06,-6.5395e-05,-3.30767e-05,-0.00938359,15.846,15.917,0.0417774,7.93816,15.9177,15.8456,0.0414114,15.8404,213,14.5625,7.84609,0.375,6643
-1.78847e-07,4.62789e-08,-2.47147e-06,-6.67181e-05,-2.81534e-05,-0.009372,15.8762,15.9609,0.0968335,7.93277,15.9618,15.8758,0.096304,15.8227,213,14.4822,8.57073,0.375,6644
-2.31865e-07,6.19769e-08,-2.4686e-06,-7.86145e-05,-3.18699e-05,-0.00851171,15.0505,15.1583,0.143092,7.5086,15.1596,15.0498,0.142437,14.9626,213,15.2559,8.02464,0.375,6645
1.54239e-07,3.00541e-08,-2.47661e-06,-5.82539e-05,-2.651e-05,-0.00821061,14.7501,14.8248,0.0332161,7.39605,14.8251,14.7501,0.0329815,14.7547,213,6.00343,9.16216,0.375,6646
9.78364e-08,4.41858e-08,-2.48143e-06,-4.40947e-05,-2.8081e-05,-0.010594,17.013,17.0456,-0.014363,8.53012,17.0458,17.0129,-0.0144528,17.0438,213,7.09584,8.67778,0.375,6647
1.21098e-07,7.84674e-08,-2.47998e-06,-4.90013e-05,-3.67172e-05,-0.00822266,14.7426,14.7715,-0.0202036,7.3963,14.7722,14.7421,-0.0203887,14.7776,213,6.56448,7.5958,0.375,6648
1.85334e-07,6.61727e-08,-2.47514e-06,-6.75078e-05,-3.27108e-05,-0.0105658,16.9625,17.0335,0.0370596,8.49862,17.034,16.9623,0.0367521,16.9615,213,5.47584,7.90586,0.375,6649
2.35226e-07,5.98494e-08,-2.46877e-06,-8.01214e-05,-3.13529e-05,-0.00936811,15.8173,15.9244,0.0769132,7.9243,15.9251,15.8171,0.0764484,15.7949,213,4.80321,8.08516,0.375,6650
1.79645e-07,4.57492e-08,-2.47449e-06,-6.64174e-05,-2.84874e-05,-0.00938341,15.8522,15.9355,0.0500903,7.94306,15.9359,15.8521,0.0497791,15.8444,213,5.58342,8.58258,0.375,6651
-2.04931e-06,-7.07548e-08,-2.15703e-06,-0.00140114,-2.69282e-05,-0.00305896,3.336,7.43813,-1.61271,8.51827,11.431,3.33597,-5.60554,14.7601,213,20.2,12.675,0.38625,6652
-2.06073e-06,4.58582e-08,-2.13188e-06,-0.00125648,-3.33092e-05,-0.00288342,4.76316,8.41442,-0.0933677,8.76147,12.9222,4.76268,-4.6007,15.1872,213,20.2,8.775,0.38625,6653
-1.98739e-06,4.35159e-07,-2.07558e-06,-0.00139758,-0.000150146,-0.00270377,4.0937,7.81738,0.194631,8.40974,12.4139,4.09738,-4.40557,14.5664,213,20.2,2.925,0.38625,6654
-2.04741e-06,2.34318e-07,-2.11317e-06,-0.00135708,-8.63066e-05,-0.00266908,4.65556,8.4489,0.739133,8.69044,13.2844,4.65562,-4.09645,15.0524,213,20.2,4.875,0.38625,6655
-2.04811e-06,1.15808e-07,-2.15696e-06,-0.00143183,-3.79754e-05,-0.00299242,3.3231,7.48385,-1.3354,8.5992,11.673,3.32405,-5.52545,14.8964,213,20.2,6.825,0.38625,6656
-2.05453e-06,-1.43154e-08,-2.13639e-06,-0.00122974,-3.15897e-05,-0.00284786,5.04606,8.62262,0.215838,8.51295,12.9325,5.04537,-4.09338,14.7581,213,20.2,10.725,0.38625,6657
-2.07406e-06,-1.65668e-07,-2.09206e-06,-0.00136024,-7.07312e-05,-0.00267397,4.66999,8.51926,0.7484,8.71832,13.352,4.67036,-4.08468,15.1006,213,20.2,14.625,0.38625,6658
-1.99998e-06,-3.32189e-07,-2.09787e-06,-0.00142219,-0.000122998,-0.00254692,4.52571,8.4039,1.1683,9.48045,14.2645,4.52973,-4.69636,16.4226,213,20.2,16.575,0.38625,6659
-1.89708e-06,9.17898e-07,-2.04173e-06,-0.00163702,-0.000556375,-0.00225091,2.76742,5.99322,0.934902,7.17826,10.5806,2.89083,-3.7759,12.4436,213,20.2,0.975,0.38625,6660
-1.87731e-06,-7.44754e-07,-2.11226e-06,-0.00164368,-0.000522265,-0.00224574,2.85098,6.1985,1.0538,7.48054,11.04,2.98427,-3.92103,12.9694,213,20.2,18.525,0.38625,6661
-1.79511e-06,1.23157e-06,-1.93081e-06,-0.00159268,-0.000775498,-0.00208981,2.85635,5.29572,1.37241,7.66741,10.723,3.41333,-4.61184,13.2852,213,20.2,0.4875,0.380625,6662
-1.85154e-06,1.26395e-06,-1.9528e-06,-0.00163145,-0.000824237,-0.00198499,2.79555,5.20514,1.74019,7.23319,10.4559,3.29537,-4.01044,12.5285,213,20.2,0.4875,0.391875,6663
-1.95027e-06,7.11439e-07,-2.11335e-06,-0.00168054,-0.000311282,-0.00243814,2.68299,6.77032,0.421481,7.779,11.3597,2.7134,-4.1983,13.5015,213,20.2,1.4625,0.391875,6664
-1.79697e-06,-1.07594e-06,-2.09923e-06,-0.00164443,-0.000794483,-0.00207996,2.50882,5.04596,1.20873,7.76037,10.5925,3.09932,-4.92827,13.444,213,20.2,19.0125,0.391875,6665
-1.74022e-06,-1.04409e-06,-2.07735e-06,-0.00160234,-0.00074573,-0.00194855,3.33932,5.89637,2.30586,7.83179,11.6522,3.90067,-4.01135,13.5653,213,20.2,19.0125,0.380625,6666
-1.95518e-06,-5.54335e-07,-2.1369e-06,-0.00168372,-0.000275929,-0.00246487,2.69077,6.89312,0.358954,7.77463,11.3863,2.71942,-4.16292,13.4956,213,20.2,18.0375,0.391875,6667
-1.88535e-06,7.02702e-07,-2.08669e-06,-0.00163134,-0.000310202,-0.00232211,3.35736,7.30105,1.29535,8.07434,12.3607,3.3811,-3.788,14.0144,213,20.2,1.4625,0.380625,6668
-1.89244e-06,-5.4667e-07,-2.10972e-06,-0.00163451,-0.000273817,-0.00235735,3.34144,7.40321,1.1837,8.02026,12.3048,3.35919,-3.73568,13.9223,213,20.2,18.0375,0.380625,6669
-1.98736e-06,5.18536e-07,-2.10239e-06,-0.00142096,-0.000187338,-0.00264489,4.01853,7.70098,0.364996,8.29194,12.3223,4.02373,-4.26155,14.3621,213,20.2,2.4375,0.391875,6670
-2.02382e-06,3.71116e-07,-2.09501e-06,-0.00143878,-0.000115244,-0.00263408,4.17175,8.12259,0.603667,9.06983,13.4317,4.17417,-4.70791,15.7105,213,20.2,3.4125,0.391875,6671
-1.88623e-06,6.15314e-07,-2.11665e-06,-0.00138069,-0.000182014,-0.00252739,4.65598,8.23413,1.23299,9.25627,13.9838,4.66798,-4.52871,16.0324,213,20.2,1.95,0.38625,6672
-1.91845e-06,5.14899e-07,-2.07295e-06,-0.00136289,-0.000182795,-0.00260616,4.51329,8.03595,0.802016,9.18426,13.6012,4.51747,-4.76737,15.9079,213,20.2,2.4375,0.380625,6673
-2.05428e-06,2.78081e-07,-2.11983e-06,-0.00140318,-9.08237e-05,-0.00258315,4.62994,8.54741,1.10764,9.56068,14.3889,4.62847,-4.73242,16.5608,213,20.2,4.3875,0.391875,6674
-2.08133e-06,1.93427e-07,-2.14025e-06,-0.00138055,-8.26695e-05,-0.00266898,4.52291,8.39717,0.676848,8.49535,13.0322,4.52327,-3.95852,14.7144,213,20.2,5.3625,0.391875,6675
-1.95401e-06,3.70044e-07,-2.06575e-06,-0.00136653,-0.000114968,-0.00271758,4.35265,8.08864,0.319667,8.44693,12.6501,4.35457,-4.24374,14.6313,213,20.2,3.4125,0.380625,6676
-1.95837e-06,3.2299e-07,-2.102e-06,-0.00138316,-9.15912e-05,-0.00257185,4.7866,8.64201,1.23825,9.42911,14.3691,4.78678,-4.48907,16.3324,213,20.2,3.9,0.38625,6677
-1.98217e-06,2.77e-07,-2.09081e-06,-0.00133272,-9.08005e-05,-0.00268473,4.74159,8.44882,0.705734,8.52714,13.1053,4.73976,-3.94895,14.7703,213,20.2,4.3875,0.380625,6678
-2.07531e-06,1.34917e-07,-2.16596e-06,-0.0014755,-3.89164e-05,-0.00284936,3.50499,7.79329,-0.596089,8.57186,12.1705,3.50486,-4.97319,14.8472,213,20.2,6.3375,0.391875,6679
-2.06396e-06,9.7898e-08,-2.17998e-06,-0.00143917,-3.70226e-05,-0.00296438,3.36986,7.55538,-1.18299,8.55198,11.738,3.37031,-5.36601,14.8136,213,20.2,7.3125,0.391875,6680
-2.00891e-06,1.93222e-07,-2.11085e-06,-0.00130804,-8.10891e-05,-0.00260298,5.18364,8.84618,1.31814,9.82219,14.9044,5.18363,-4.74003,17.0128,213,20.2,5.3625,0.380625,6681
-2.01215e-06,1.54557e-07,-2.14246e-06,-0.00136786,-6.05831e-05,-0.00260778,4.8652,8.76751,1.16395,9.60933,14.5754,4.86457,-4.64328,16.6442,213,20.2,5.85,0.38625,6682
-2.0075e-06,1.34614e-07,-2.13423e-06,-0.00141356,-4.04511e-05,-0.00285962,3.84888,7.94772,-0.467722,9.30659,13.0468,3.8485,-5.5664,16.1198,213,20.2,6.3375,0.380625,6683
-2.06687e-06,6.25884e-08,-2.16325e-06,-0.00127047,-3.50507e-05,-0.00288571,4.66424,8.35206,-0.157385,8.62408,12.7221,4.66277,-4.52601,14.948,213,20.2,8.2875,0.391875,6684
-2.10754e-06,3.0067e-08,-2.13994e-06,-0.00129612,-3.16513e-05,-0.00286946,4.56862,8.34317,-0.127898,9.53191,13.6396,4.56856,-5.42424,16.5162,213,20.2,9.2625,0.391875,6685
-1.9922e-06,8.01847e-08,-2.16859e-06,-0.00127966,-3.52307e-05,-0.00291654,4.50933,8.22403,-0.376899,9.28935,13.213,4.50909,-5.36566,16.1003,213,20.2,7.8,0.38625,6686
-2.00049e-06,6.25337e-08,-2.13036e-06,-0.00121413,-3.52487e-05,-0.00292712,4.87915,8.3982,-0.234245,9.28791,13.3707,4.87761,-5.20516,16.1068,213,20.2,8.2875,0.380625,6687
-1.99882e-06,9.73672e-08,-2.14637e-06,-0.0013822,-3.59154e-05,-0.0030126,3.57113,7.58991,-1.29573,9.14314,12.2897,3.57212,-5.99654,15.8421,213,20.2,7.3125,0.380625,6688
-2.10495e-06,7.10371e-10,-2.14195e-06,-0.0012763,-3.014e-05,-0.0028247,4.8374,8.55729,0.215315,9.78853,14.1749,4.83729,-5.40217,16.9602,213,20.2,10.2375,0.391875,6689
-2.0601e-06,-3.0158e-08,-2.16997e-06,-0.0012516,-3.31949e-05,-0.00289331,4.76222,8.39925,-0.138395,9.39435,13.5257,4.76047,-5.26305,16.2837,213,20.2,11.2125,0.391875,6690
-2.03713e-06,2.99773e-08,-2.10793e-06,-0.00124375,-3.14848e-05,-0.00282635,5.02831,8.64702,0.304141,9.01127,13.4868,5.02841,-4.53574,15.6178,213,20.2,9.2625,0.380625,6691
-2.06935e-06,1.50441e-08,-2.12291e-06,-0.00127209,-2.87211e-05,-0.00277712,5.01877,8.73032,0.526154,10.2039,14.8321,5.01877,-5.57563,17.6779,213,20.2,9.75,0.38625,6692
-2.03245e-06,7.42859e-10,-2.11029e-06,-0.00120955,-3.00658e-05,-0.00281599,5.27623,8.7971,0.480909,8.65169,13.2907,5.27627,-4.0127,14.9987,213,20.2,10.2375,0.380625,6693
-2.05935e-06,-5.83552e-08,-2.18953e-06,-0.00141011,-2.5006e-05,-0.00306656,3.26283,7.39745,-1.6818,9.05047,11.9083,3.26283,-6.19264,15.6811,213,20.2,12.1875,0.391875,6694
-2.08507e-06,-8.45048e-08,-2.14766e-06,-0.00145831,-2.87288e-05,-0.00294401,3.3429,7.61032,-1.09201,9.1504,12.4093,3.34336,-5.89148,15.8492,213,20.2,13.1625,0.391875,6695
-1.98419e-06,-4.6584e-08,-2.17805e-06,-0.00127181,-2.97902e-05,-0.00291252,4.58769,8.2952,-0.309957,9.39466,13.3875,4.58726,-5.40182,16.2829,213,20.2,11.7,0.38625,6696
-1.99407e-06,-5.79388e-08,-2.15564e-06,-0.00135067,-2.45386e-05,-0.00300846,3.81449,7.7731,-1.13413,8.5585,11.878,3.81447,-5.239,14.832,213,20.2,12.1875,0.380625,6697
-1.99209e-06,-2.99904e-08,-2.13742e-06,-0.00119209,-3.29981e-05,-0.00286903,5.20624,8.66621,0.200449,8.39949,12.834,5.20379,-3.96493,14.5687,213,20.2,11.2125,0.380625,6698
-2.1064e-06,-1.31813e-07,-2.10411e-06,-0.00139111,-6.8685e-05,-0.00264106,4.59075,8.5383,0.859573,9.64518,14.344,4.59101,-4.94637,16.7063,213,20.2,14.1375,0.391875,6699
-2.07989e-06,-2.01391e-07,-2.11918e-06,-0.00140539,-7.36213e-05,-0.0026141,4.57268,8.54812,0.964606,9.47621,14.2337,4.57052,-4.71877,16.4143,213,20.2,15.1125,0.391875,6700
-2.01725e-06,-8.4454e-08,-2.11525e-06,-0.00139677,-3.00202e-05,-0.00290846,3.83046,7.91031,-0.682031,8.59903,12.2129,3.83108,-4.9852,14.8955,213,20.2,13.1625,0.380625,6701
-2.03311e-06,-9.93809e-08,-2.09579e-06,-0.00139013,-4.99532e-05,-0.00266747,4.57247,8.57299,0.759517,9.56523,14.2318,4.57182,-4.89865,16.5677,213,20.2,13.65,0.38625,6702
-2.03372e-06,-1.31844e-07,-2.0742e-06,-0.00131948,-6.70569e-05,-0.00267973,4.91426,8.65285,0.853832,8.61554,13.3685,4.915,-3.86257,14.9234,213,20.2,14.1375,0.380625,6703
-2.04158e-06,-2.79133e-07,-2.11989e-06,-0.00146223,-9.77745e-05,-0.00250123,4.50418,8.57717,1.40269,9.96101,14.949,4.50805,-4.97302,17.2596,213,20.2,16.0875,0.391875,6704
-2.00405e-06,-4.00024e-07,-2.11742e-06,-0.00146963,-0.000149761,-0.00250388,4.28526,8.22517,1.19794,9.67625,14.3852,4.29048,-4.9673,16.765,213,20.2,17.0625,0.391875,6705
-2.00875e-06,-2.00412e-07,-2.08985e-06,-0.00133613,-7.34283e-05,-0.00270419,4.71401,8.48326,0.630234,8.47951,13.0375,4.71149,-3.9215,14.6877,213,20.2,15.1125,0.380625,6706
-1.98167e-06,-2.37507e-07,-2.12652e-06,-0.00139604,-7.56586e-05,-0.00261395,4.62428,8.56573,0.988751,9.21194,13.9894,4.62393,-4.43452,15.9563,213,20.2,15.6,0.38625,6707
-1.96703e-06,-2.7788e-07,-2.09145e-06,-0.00138179,-9.68319e-05,-0.00262301,4.61612,8.45182,0.910998,9.07574,13.7561,4.61831,-4.39543,15.7198,213,20.2,16.0875,0.380625,6708
-1.9317e-06,-3.96922e-07,-2.08885e-06,-0.0013856,-0.000147297,-0.00262057,4.44035,8.13678,0.75388,8.83175,13.2748,4.44484,-4.38866,15.297,213,20.2,17.0625,0.380625,6709
-1.90883e-06,-4.773e-07,-2.12141e-06,-0.00138005,-0.000145878,-0.00262847,4.45396,8.13805,0.727323,8.64666,13.0743,4.46409,-4.21904,14.9765,213,20.2,17.55,0.38625,6710
8.43886e-07,-1.62453e-06,-2.24622e-06,-0.000571993,-0.00159893,-0.00227367,5.94569,2.88022,0.866053,7.70959,11.0497,3.01178,-4.3695,13.3574,213,0.822727,19.5,0.38625,6711
-1.04627e-07,-1.73388e-06,-2.33777e-06,-2.83264e-05,-0.00151248,-0.00252732,8.76257,4.33226,1.30288,9.22333,14.256,4.33236,-4.19066,15.9906,213,13.7409,19.5,0.38625,6712
-4.85215e-10,-1.70741e-06,-2.36907e-06,-3.20738e-05,-0.00124015,-0.00277497,8.81779,5.21161,0.630041,9.06017,13.7841,5.21161,-4.33625,15.7003,213,10.05,19.5,0.38625,6713
4.56896e-08,-1.7138e-06,-2.36126e-06,-2.35772e-05,-0.00138576,-0.0026906,8.67586,4.60962,0.714595,9.02984,13.7246,4.61056,-4.33508,15.6404,213,8.20455,19.5,0.38625,6714
1.92856e-07,-1.65084e-06,-2.36462e-06,-7.69152e-05,-0.00135471,-0.00274883,8.26127,4.44694,0.285406,8.877,13.1484,4.45075,-4.60556,15.3765,213,4.51364,19.5,0.38625,6715
1.07304e-07,-1.71914e-06,-2.3503e-06,-3.02323e-05,-0.00149156,-0.00262193,8.51713,4.15495,0.780711,9.00809,13.6571,4.15486,-4.35912,15.6103,213,6.35909,19.5,0.38625,6716
-4.43809e-08,-1.72828e-06,-2.35542e-06,-2.38561e-05,-0.00139337,-0.00267364,8.7038,4.6157,0.794002,9.16269,13.9114,4.61608,-4.41398,15.8708,213,11.8955,19.5,0.38625,6717
3.71263e-07,-1.6101e-06,-2.34956e-06,-0.000149694,-0.00135837,-0.00265729,8.09193,4.48395,0.606559,9.36508,13.7164,4.47969,-5.0137,16.2213,213,2.66818,19.5,0.38625,6718
-3.72174e-07,-1.61954e-06,-2.35268e-06,-0.000149035,-0.00138198,-0.00257384,8.28576,4.60534,1.04753,9.83652,14.5054,4.60079,-5.1676,17.0375,213,17.4318,19.5,0.38625,6719
-1.9365e-07,-1.62184e-06,-2.36814e-06,-7.53858e-05,-0.0013467,-0.00272582,8.36906,4.57408,0.457304,9.57537,13.9859,4.57944,-5.16487,16.5859,213,15.5864,19.5,0.38625,6720
-8.39204e-07,-1.62042e-06,-2.26293e-06,-0.000572964,-0.00159379,-0.00224609,6.04351,2.99628,1.04911,7.90362,11.3857,3.12482,-4.42158,13.6941,213,19.2773,19.5,0.38625,6721
1.14805e-06,-1.56044e-06,-2.13141e-06,-0.000797476,-0.00156082,-0.00209757,5.23682,2.95818,1.35593,8.10035,11.1577,3.43629,-5.04303,14.0353,213,0.361364,19.5,0.380625,6722
1.18172e-06,-1.61739e-06,-2.15347e-06,-0.00084504,-0.0016058,-0.00199336,5.13186,2.86093,1.70403,7.7315,10.9436,3.27253,-4.51935,13.3915,213,0.361364,19.5,0.391875,6723
6.4295e-07,-1.6469e-06,-2.33437e-06,-0.000324267,-0.00164071,-0.00239741,6.94591,3.01624,0.757431,8.25949,12.0949,3.04874,-4.42406,14.3275,213,1.28409,19.5,0.391875,6724
-1.14449e-06,-1.55535e-06,-2.15835e-06,-0.000798513,-0.00155843,-0.00194306,5.72809,3.45968,2.31155,8.19633,12.0133,3.86528,-4.37931,14.1965,213,19.7386,19.5,0.380625,6725
-1.17797e-06,-1.61272e-06,-2.18021e-06,-0.000845227,-0.0016063,-0.00207704,4.86374,2.59188,1.1867,8.06015,10.868,3.02653,-5.25226,13.9623,213,19.7386,19.5,0.391875,6726
-6.37478e-07,-1.63614e-06,-2.34609e-06,-0.000326706,-0.00162612,-0.00248446,6.70107,2.82222,0.260014,8.11317,11.5719,2.86582,-4.65443,14.0649,213,18.8159,19.5,0.391875,6727
6.32058e-07,-1.58267e-06,-2.30731e-06,-0.000320993,-0.00158806,-0.00245835,6.93978,3.1575,0.559618,8.27114,11.9984,3.20244,-4.54391,14.3356,213,1.28409,19.5,0.380625,6728
-6.2688e-07,-1.57355e-06,-2.31861e-06,-0.000322268,-0.00157431,-0.00237995,7.22418,3.48674,1.08185,8.40233,12.5398,3.51791,-4.2649,14.5664,213,18.8159,19.5,0.380625,6729
-3.12186e-07,-1.69348e-06,-2.35974e-06,-0.000116634,-0.00147018,-0.00258834,8.15952,4.11908,0.781307,9.39916,13.8716,4.11501,-4.92672,16.2838,213,16.9705,19.5,0.391875,6730
-4.50998e-07,-1.61598e-06,-2.37793e-06,-0.000184305,-0.00136853,-0.00264438,7.88754,4.35254,0.544026,8.97094,13.1884,4.34918,-4.75348,15.5387,213,17.8932,19.5,0.391875,6731
-4.46003e-07,-1.54444e-06,-2.34873e-06,-0.000180888,-0.00128521,-0.00256645,8.42005,5.12358,1.29898,10.2796,15.1402,5.1214,-5.419,17.8067,213,17.8932,19.5,0.380625,6732
-5.40238e-07,-1.53804e-06,-2.3775e-06,-0.000190753,-0.00127107,-0.00268243,8.03629,4.81147,0.59844,8.92289,13.2391,4.81376,-4.60667,15.4629,213,18.3545,19.5,0.38625,6733
-1.59951e-07,-1.64222e-06,-2.38879e-06,-7.41267e-05,-0.001315,-0.00270417,8.54604,4.84193,0.69518,10.1144,14.7343,4.84342,-5.49457,17.5201,213,15.125,19.5,0.391875,6734
-2.29827e-07,-1.68586e-06,-2.37233e-06,-7.72374e-05,-0.00144901,-0.00268382,8.16638,4.07152,0.385522,9.2011,13.4744,4.07685,-4.92781,15.938,213,16.0477,19.5,0.391875,6735
-3.10323e-07,-1.61703e-06,-2.3314e-06,-0.000113893,-0.00138833,-0.00249522,8.73131,4.92701,1.62286,10.6551,15.8347,4.92205,-5.47554,18.457,213,16.9705,19.5,0.380625,6736
-2.65802e-07,-1.68841e-06,-2.34194e-06,-8.13669e-05,-0.0014698,-0.00256211,8.46104,4.31647,1.05583,9.65039,14.4086,4.317,-4.89222,16.7208,213,16.5091,19.5,0.38625,6737
-2.2834e-07,-1.61159e-06,-2.34297e-06,-7.90366e-05,-0.00136874,-0.00261804,8.61854,4.76867,1.03943,10.3126,15.1395,4.77294,-5.48577,17.8621,213,16.0477,19.5,0.380625,6738
-9.08739e-08,-1.76477e-06,-2.35518e-06,-3.30449e-05,-0.00154816,-0.00258563,8.43543,3.91269,0.815791,9.07245,13.697,3.91476,-4.44788,15.73,213,13.2795,19.5,0.391875,6739
-1.17018e-07,-1.72716e-06,-2.36327e-06,-2.29745e-05,-0.00154726,-0.00254654,8.62428,4.07418,1.09125,9.62613,14.4861,4.06986,-4.76621,16.6917,213,14.2023,19.5,0.391875,6740
-1.16477e-07,-1.6571e-06,-2.33416e-06,-2.43603e-05,-0.00147879,-0.002638,8.54283,4.20127,0.740925,9.05285,13.6967,4.1974,-4.40903,15.6863,213,14.2023,19.5,0.380625,6741
-1.26622e-07,-1.60374e-06,-2.37375e-06,-5.52649e-05,-0.00125063,-0.00272219,8.80918,5.24092,0.848222,9.63316,14.4618,5.24107,-4.80454,16.6902,213,14.6636,19.5,0.38625,6742
-1.59074e-07,-1.57104e-06,-2.35824e-06,-7.10326e-05,-0.00124642,-0.00276436,8.59171,5.08309,0.55193,9.26898,13.8399,5.08482,-4.69802,16.0626,213,15.125,19.5,0.380625,6743
-3.57199e-08,-1.73191e-06,-2.38058e-06,-1.47736e-05,-0.00140702,-0.00273274,8.52897,4.37301,0.415631,8.88056,13.3529,4.37299,-4.40825,15.3819,213,11.4341,19.5,0.391875,6744
-5.77163e-08,-1.75755e-06,-2.36772e-06,-3.27521e-05,-0.00144232,-0.00266536,8.52005,4.31238,0.66152,9.0103,13.6014,4.31177,-4.41921,15.6088,213,12.3568,19.5,0.391875,6745
-8.98918e-08,-1.69163e-06,-2.32677e-06,-3.27809e-05,-0.00146972,-0.0024817,9.01545,4.72608,1.70524,10.0594,15.4183,4.72914,-4.70063,17.4348,213,13.2795,19.5,0.380625,6746
-7.41558e-08,-1.67598e-06,-2.35821e-06,-3.76626e-05,-0.0014333,-0.00261407,8.68109,4.51501,0.990312,10.0364,14.8719,4.51533,-5.20081,17.3864,213,12.8182,19.5,0.38625,6747
-5.69034e-08,-1.68481e-06,-2.33827e-06,-3.19965e-05,-0.00136924,-0.00259848,8.96861,4.97685,1.30748,10.1494,15.288,4.97582,-5.01088,17.5801,213,12.3568,19.5,0.380625,6748
1.44123e-08,-1.72769e-06,-2.38492e-06,-3.19683e-05,-0.00127462,-0.00278203,8.68672,4.97729,0.477583,8.7554,13.338,4.97647,-4.17284,15.1699,213,9.58864,19.5,0.391875,6749
-1.56797e-08,-1.72162e-06,-2.38888e-06,-3.338e-05,-0.00126744,-0.0027895,8.67712,4.99337,0.449904,8.72784,13.2919,4.99219,-4.16374,15.1231,213,10.5114,19.5,0.391875,6750
-1.49778e-08,-1.64943e-06,-2.3583e-06,-3.19272e-05,-0.00119721,-0.0027099,9.16127,5.68282,1.16732,10.3108,15.4761,5.68082,-5.14549,17.8662,213,10.5114,19.5,0.380625,6751
-3.044e-08,-1.62628e-06,-2.38331e-06,-2.38582e-05,-0.00124724,-0.00272665,8.99913,5.34723,0.931088,9.93997,14.9049,5.34757,-4.97503,17.2208,213,10.9727,19.5,0.38625,6752
-3.50936e-08,-1.66082e-06,-2.3505e-06,-1.54351e-05,-0.00133551,-0.00265562,8.9963,5.05577,1.11514,10.0735,15.129,5.05605,-5.01787,17.4477,213,11.4341,19.5,0.380625,6753
5.80148e-08,-1.75285e-06,-2.37301e-06,-2.83588e-05,-0.00143664,-0.00266718,8.55936,4.35555,0.682298,9.02784,13.6485,4.35588,-4.40718,15.6389,213,7.74318,19.5,0.391875,6754
3.62904e-08,-1.72271e-06,-2.38203e-06,-1.85886e-05,-0.0013969,-0.00273699,8.52411,4.40974,0.409489,8.83041,13.2968,4.41063,-4.36405,15.2948,213,8.66591,19.5,0.391875,6755
1.37464e-08,-1.65463e-06,-2.35449e-06,-3.08462e-05,-0.00120304,-0.00269882,9.18457,5.68547,1.22047,10.377,15.5803,5.68397,-5.17374,17.9799,213,9.58864,19.5,0.380625,6756
2.83517e-08,-1.63754e-06,-2.37554e-06,-2.45496e-05,-0.00125313,-0.002704,9.04803,5.38062,1.04965,10.0739,15.1229,5.38036,-5.02495,17.4517,213,9.12727,19.5,0.38625,6757
3.55494e-08,-1.65188e-06,-2.35194e-06,-1.88575e-05,-0.00132709,-0.00265722,8.99688,5.0917,1.12118,9.99447,15.0527,5.09321,-4.93619,17.311,213,8.66591,19.5,0.380625,6758
1.19573e-07,-1.70769e-06,-2.37347e-06,-2.08358e-05,-0.00151405,-0.00268945,8.28951,3.83216,0.323479,8.92763,13.2359,3.82856,-4.61934,15.4706,213,5.89773,19.5,0.391875,6759
9.19686e-08,-1.76237e-06,-2.36476e-06,-3.88278e-05,-0.00152727,-0.002616,8.36976,3.92665,0.676698,9.09022,13.6124,3.92878,-4.56806,15.7559,213,6.82045,19.5,0.391875,6760
5.72616e-08,-1.6796e-06,-2.34379e-06,-2.82343e-05,-0.00136248,-0.00259,9.04009,5.05726,1.39303,10.1327,15.3492,5.05725,-4.9161,17.551,213,7.74318,19.5,0.380625,6761
7.17454e-08,-1.69549e-06,-2.35834e-06,-3.56703e-05,-0.00142998,-0.00257229,8.83642,4.6743,1.26443,10.3119,15.362,4.67484,-5.26174,17.8647,213,7.28182,19.5,0.38625,6762
9.09093e-08,-1.69044e-06,-2.33579e-06,-3.79877e-05,-0.00145569,-0.00255116,8.8076,4.57566,1.30559,9.89099,14.946,4.57881,-4.83597,17.1383,213,6.82045,19.5,0.380625,6763
2.30483e-07,-1.70745e-06,-2.36808e-06,-8.26607e-05,-0.00144563,-0.00269631,8.10412,4.03556,0.302184,8.88002,13.0813,4.0393,-4.67874,15.3815,213,4.05227,19.5,0.391875,6764
1.58994e-07,-1.65725e-06,-2.38729e-06,-7.24277e-05,-0.00132078,-0.00276067,8.35897,4.63254,0.334367,8.82632,13.1719,4.63478,-4.48077,15.2904,213,4.975,19.5,0.391875,6765
1.58483e-07,-1.58824e-06,-2.35652e-06,-7.00221e-05,-0.00126701,-0.00273423,8.6282,5.05511,0.675352,9.84113,14.4923,5.05634,-5.18996,17.0501,213,4.975,19.5,0.380625,6766
1.27274e-07,-1.58813e-06,-2.37497e-06,-5.06939e-05,-0.0012137,-0.00271938,8.96334,5.49167,0.997099,10.0297,15.0099,5.49172,-5.04955,17.3796,213,5.43636,19.5,0.38625,6767
1.18961e-07,-1.63785e-06,-2.34363e-06,-2.27914e-05,-0.00144928,-0.00262579,8.6848,4.42662,0.914672,9.71864,14.5208,4.42184,-4.91651,16.8375,213,5.89773,19.5,0.380625,6768
4.51796e-07,-1.61712e-06,-2.37196e-06,-0.000191636,-0.00134284,-0.0025993,8.06689,4.63048,0.879845,9.80352,14.2766,4.63109,-5.33046,16.9809,213,2.20682,19.5,0.391875,6769
3.12081e-07,-1.68198e-06,-2.35759e-06,-0.000110815,-0.00144382,-0.00264733,8.09186,4.11274,0.52018,9.23334,13.5418,4.10788,-4.92489,15.9939,213,3.12955,19.5,0.391875,6770
2.28849e-07,-1.63605e-06,-2.3381e-06,-8.27376e-05,-0.00136859,-0.00267205,8.42494,4.58657,0.695656,9.80765,14.3666,4.58923,-5.24868,16.9874,213,4.05227,19.5,0.380625,6771
2.6918e-07,-1.6866e-06,-2.33716e-06,-7.99904e-05,-0.00145116,-0.00260384,8.3963,4.30327,0.862402,9.9782,14.6079,4.3026,-5.34852,17.2859,213,3.59091,19.5,0.38625,6772
3.10264e-07,-1.60739e-06,-2.32812e-06,-0.000110431,-0.00136541,-0.00260867,8.46553,4.71932,1.00809,10.3123,15.0514,4.7147,-5.57314,17.8614,213,3.12955,19.5,0.380625,6773
5.45801e-07,-1.56037e-06,-2.36627e-06,-0.000185864,-0.00132721,-0.00257426,8.23139,4.82437,1.10185,9.35103,14.0123,4.83514,-4.68979,16.1974,213,1.74545,19.5,0.38625,6774
4.47105e-07,-1.54639e-06,-2.34278e-06,-0.000186139,-0.00127455,-0.00266968,8.09407,4.84507,0.680504,8.98139,13.3688,4.84479,-4.59396,15.5629,213,2.20682,19.5,0.380625,6775
-5.55355e-08,1.6243e-06,-1.74386e-06,-3.23595e-05,-0.000991015,-0.0143721,21.51,20.1608,1.32817,13.8916,25.3106,20.1608,-2.47249,25.5997,213,11.8955,0,0.35,6776
-2.42567e-07,1.50186e-06,-1.76528e-06,-8.23509e-05,-0.000782521,-0.0147036,21.1556,20.1702,0.577527,12.7223,23.5888,20.1703,-1.85583,23.9193,213,15.5864,0,0.35,6777
8.45548e-07,1.50236e-06,-1.6805e-06,-0.000415214,-0.00118703,-0.0138618,20.8586,19.7724,1.93386,13.7705,25.1577,19.7903,-2.38323,25.2882,213,0.822727,0,0.35,6778
4.36434e-07,1.46466e-06,-1.75976e-06,-0.000139572,-0.000809845,-0.014657,21.0127,20.0693,0.580696,12.865,23.6616,20.0695,-2.06841,24.1353,213,2.66818,0,0.35,6779
2.41619e-07,1.50287e-06,-1.76522e-06,-8.17289e-05,-0.000787957,-0.0147092,21.1394,20.1455,0.552696,12.7097,23.5556,20.1458,-1.86376,23.8976,213,4.51364,0,0.35,6780
1.31183e-07,1.62756e-06,-1.75209e-06,-4.95148e-05,-0.00103659,-0.0141211,21.795,20.4058,1.99051,14.1828,26.0753,20.4063,-2.29036,25.9989,213,6.35909,0,0.35,6781
5.45801e-08,1.62585e-06,-1.74729e-06,-3.33737e-05,-0.000991108,-0.0143137,21.6026,20.2547,1.50441,14.0074,25.5609,20.2547,-2.4539,25.7746,213,8.20455,0,0.35,6782
-8.3509e-07,1.49182e-06,-1.70723e-06,-0.000400039,-0.00122029,-0.0137367,21.0557,19.9013,2.28568,13.9331,25.5916,19.9256,-2.27453,25.5095,213,19.2773,0,0.35,6783
8.09211e-10,1.61332e-06,-1.74204e-06,-3.27375e-05,-0.000886004,-0.0144969,21.4763,20.2754,1.11932,13.6252,24.923,20.2754,-2.32735,25.2494,213,10.05,0,0.35,6784
-1.31148e-07,1.6216e-06,-1.7511e-06,-4.68798e-05,-0.00105986,-0.0143525,21.3849,19.9592,1.25108,14.1122,25.4301,19.9594,-2.79431,25.9256,213,13.7409,0,0.35,6785
-4.38998e-07,1.52387e-06,-1.74733e-06,-0.000144779,-0.000923952,-0.0142665,21.4507,20.354,1.5756,13.8247,25.3367,20.3564,-2.31278,25.5263,213,17.4318,0,0.35,6786
9.69379e-07,1.26839e-06,-1.35753e-06,-0.000394999,-0.000732317,-0.0133943,22.4345,21.9597,4.13918,15.3477,28.6202,21.9883,-2.07514,27.9753,213,0.361364,0,0.3375,6787
1.16204e-06,1.62833e-06,-1.6889e-06,-0.000722055,-0.00135026,-0.0136392,20.0204,19.1362,1.84065,12.6118,23.4795,19.2617,-1.74403,23.4015,213,0.361364,0,0.3625,6788
7.05672e-07,1.66731e-06,-1.95155e-06,-0.000275419,-0.00135223,-0.0141692,20.5089,18.9934,0.954708,13.0323,23.7586,19.0044,-2.30594,24.0426,213,1.28409,0,0.3625,6789
-1.14685e-06,1.61789e-06,-1.76493e-06,-0.000708764,-0.00136132,-0.0135832,20.1347,19.2163,2.01506,12.8216,23.835,19.3393,-1.80818,23.717,213,19.7386,0,0.3625,6790
-9.53345e-07,1.25413e-06,-1.43499e-06,-0.000381804,-0.000730302,-0.0132776,22.6697,22.1792,4.52011,15.5939,29.1746,22.2076,-2.01324,28.3538,213,19.7386,0,0.3375,6791
-6.98295e-07,1.65188e-06,-1.94918e-06,-0.000265917,-0.00144839,-0.0138251,20.945,19.2808,1.86173,13.4273,24.826,19.2902,-2.02861,24.5591,213,18.8159,0,0.3625,6792
6.68823e-07,1.28344e-06,-1.60106e-06,-0.000282425,-0.000753092,-0.0138289,22.03,21.3676,2.96452,15.4819,27.9771,21.3716,-2.98664,28.2464,213,1.28409,0,0.3375,6793
-6.62997e-07,1.27196e-06,-1.60131e-06,-0.00026598,-0.000891037,-0.0141662,21.2999,20.4202,1.73668,14.3235,25.8367,20.4303,-2.81024,26.3629,213,18.8159,0,0.3375,6794
5.17464e-07,1.6209e-06,-1.96086e-06,-0.000180648,-0.000977511,-0.0144517,20.9493,19.8277,0.864043,12.9273,23.8305,19.8346,-2.02406,24.1063,213,2.20682,0,0.3625,6795
3.78805e-07,1.71353e-06,-1.91911e-06,-0.000120444,-0.00113493,-0.0144154,20.934,19.5062,0.815148,13.2744,24.1509,19.5024,-2.39792,24.5568,213,3.12955,0,0.3625,6796
5.91278e-07,1.42046e-06,-1.81198e-06,-0.000189593,-0.000742917,-0.014297,21.5612,20.7824,1.70627,14.1053,25.7359,20.7887,-2.47475,26.0912,213,1.74545,0,0.35,6797
4.96797e-07,1.25428e-06,-1.60188e-06,-0.000153749,-0.000503712,-0.0144309,21.8434,21.3509,1.74962,14.7051,26.5012,21.3517,-2.90896,27.2034,213,2.20682,0,0.3375,6798
2.84192e-07,1.73192e-06,-1.92868e-06,-9.05835e-05,-0.00113312,-0.0143509,21.1339,19.6666,1.06374,13.2318,24.3305,19.6668,-2.13307,24.4674,213,4.05227,0,0.3625,6799
2.05924e-07,1.68643e-06,-1.94724e-06,-7.69477e-05,-0.000941976,-0.0145879,21.1003,19.8828,0.677504,12.853,23.7423,19.8819,-1.96366,24.0097,213,4.975,0,0.3625,6800
3.72972e-07,1.29093e-06,-1.56388e-06,-0.000116123,-0.000513768,-0.0143479,22.0779,21.5182,2.04788,15.451,27.5142,21.5176,-3.38784,28.3829,213,3.12955,0,0.3375,6801
3.26299e-07,1.54033e-06,-1.73668e-06,-9.75714e-05,-0.000789066,-0.0141481,22.0105,21.0373,2.23569,15.1953,27.3183,21.0374,-3.07225,27.7877,213,3.59091,0,0.35,6802
2.80145e-07,1.31216e-06,-1.57315e-06,-9.11559e-05,-0.000510706,-0.0144791,21.9436,21.3531,1.69386,15.3142,27.1328,21.3533,-3.49563,28.1867,213,4.05227,0,0.3375,6803
1.54008e-07,1.77806e-06,-1.9346e-06,-4.41536e-05,-0.00117786,-0.0143305,21.2355,19.6399,1.12877,13.3284,24.5107,19.6395,-2.14606,24.5858,213,5.89773,0,0.3625,6804
1.12025e-07,1.81033e-06,-1.92779e-06,-4.69755e-05,-0.00129268,-0.0139358,21.6866,19.9333,2.13936,14.1728,26.0852,19.9346,-2.26046,25.8256,213,6.82045,0,0.3625,6805
2.06149e-07,1.32745e-06,-1.5842e-06,-6.94635e-05,-0.000509576,-0.0145619,21.8757,21.2562,1.47885,14.5695,26.2468,21.2562,-2.89223,26.992,213,4.975,0,0.3375,6806
1.7415e-07,1.515e-06,-1.76626e-06,-5.79407e-05,-0.000705675,-0.0145044,21.6834,20.7717,1.35136,14.2322,25.7495,20.7719,-2.71496,26.3309,213,5.43636,0,0.35,6807
1.51823e-07,1.39047e-06,-1.57836e-06,-5.24554e-05,-0.00068774,-0.0140986,22.3957,21.5016,2.62705,15.5178,28.0294,21.5012,-3.00619,28.3411,213,5.89773,0,0.3375,6808
7.21952e-08,1.80234e-06,-1.92824e-06,-4.11053e-05,-0.00121477,-0.0140328,21.6731,20.0213,1.98114,14.1669,25.9942,20.0208,-2.33955,25.8696,213,7.74318,0,0.3625,6809
4.23037e-08,1.7905e-06,-1.9221e-06,-2.28564e-05,-0.00118217,-0.0140974,21.6761,20.0445,1.86744,14.0522,25.8239,20.0446,-2.28046,25.7067,213,8.66591,0,0.3625,6810
1.07799e-07,1.40471e-06,-1.57864e-06,-4.37657e-05,-0.000786638,-0.0143226,21.8921,20.8466,1.79597,14.38,26.2238,20.8471,-2.53624,26.4842,213,6.82045,0,0.3375,6811
9.02263e-08,1.56453e-06,-1.75964e-06,-4.34981e-05,-0.00105563,-0.0141889,21.6707,20.2462,1.76225,14.5075,26.224,20.2463,-2.79111,26.5361,213,7.28182,0,0.35,6812
7.01607e-08,1.40288e-06,-1.57591e-06,-3.65233e-05,-0.000760345,-0.0144579,21.7352,20.7165,1.43845,14.2192,25.8067,20.7151,-2.63165,26.2653,213,7.74318,0,0.3375,6813
1.77616e-08,1.78032e-06,-1.92085e-06,-3.58024e-05,-0.00107635,-0.014211,21.624,20.1595,1.67372,14.0985,25.7478,20.1588,-2.44931,25.8596,213,9.58864,0,0.3625,6814
-1.62872e-08,1.78681e-06,-1.9215e-06,-3.56668e-05,-0.00108665,-0.014165,21.6829,20.2038,1.79719,14.1133,25.8537,20.2032,-2.37299,25.8685,213,10.5114,0,0.3625,6815
3.96257e-08,1.40438e-06,-1.56833e-06,-2.88822e-05,-0.000745165,-0.0145243,21.6743,20.6662,1.2733,14.0508,25.5248,20.6658,-2.57674,26.0146,213,8.66591,0,0.3375,6816
3.1085e-08,1.551e-06,-1.74613e-06,-2.79826e-05,-0.000951777,-0.0143079,21.6932,20.3931,1.5956,14.2053,25.8496,20.3933,-2.56099,26.1135,213,9.12727,0,0.35,6817
1.43638e-08,1.39823e-06,-1.56409e-06,-2.80478e-05,-0.000684695,-0.0146319,21.5995,20.6754,1.04597,13.6699,24.9935,20.6736,-2.34632,25.4563,213,9.58864,0,0.3375,6818
-4.30817e-08,1.79058e-06,-1.92207e-06,-2.54988e-05,-0.00118,-0.0141332,21.6129,19.9881,1.7577,13.9747,25.66,19.9883,-2.28952,25.5895,213,11.4341,0,0.3625,6819
-7.20178e-08,1.80446e-06,-1.92171e-06,-3.71523e-05,-0.00121432,-0.0140911,21.59,19.9333,1.81035,14.1468,25.8471,19.9331,-2.44652,25.8491,213,12.3568,0,0.3625,6820
-2.998e-08,1.56153e-06,-1.74902e-06,-3.04005e-05,-0.000965985,-0.0142159,21.8135,20.4968,1.84872,14.2324,26.0635,20.4969,-2.40139,26.1301,213,10.9727,0,0.35,6821
-4.02787e-08,1.40702e-06,-1.56795e-06,-3.05096e-05,-0.000748681,-0.014513,21.6821,20.6714,1.29931,13.9654,25.4563,20.671,-2.47453,25.8723,213,11.4341,0,0.3375,6822
-1.29041e-08,1.40225e-06,-1.56633e-06,-2.95836e-05,-0.000691716,-0.014598,21.6389,20.7071,1.13521,13.6706,25.0586,20.7053,-2.28268,25.4455,213,10.5114,0,0.3375,6823
-1.11872e-07,1.80861e-06,-1.92602e-06,-4.97588e-05,-0.00126994,-0.0140791,21.48,19.7627,1.73502,14.1634,25.7703,19.7639,-2.55649,25.8523,213,13.2795,0,0.3625,6824
-1.53403e-07,1.77381e-06,-1.93119e-06,-3.93815e-05,-0.00127044,-0.0141785,21.3477,19.6151,1.44817,13.9844,25.3829,19.614,-2.58595,25.5771,213,14.2023,0,0.3625,6825
-7.03351e-08,1.40434e-06,-1.56884e-06,-3.41039e-05,-0.000761568,-0.0144687,21.7229,20.699,1.40754,14.1828,25.7487,20.6977,-2.61696,26.2078,213,12.3568,0,0.3375,6826
-8.83557e-08,1.57606e-06,-1.74934e-06,-4.18474e-05,-0.00105378,-0.0141399,21.7592,20.335,1.91745,14.6501,26.4884,20.3351,-2.81184,26.7595,213,12.8182,0,0.35,6827
-1.07319e-07,1.40526e-06,-1.57336e-06,-4.45876e-05,-0.000778166,-0.0144471,21.6991,20.6667,1.42893,14.3974,25.961,20.6675,-2.83372,26.5468,213,13.2795,0,0.3375,6828
-2.06143e-07,1.69059e-06,-1.94153e-06,-8.0095e-05,-0.000994802,-0.0144046,21.3049,20.0175,1.14449,13.7039,24.9287,20.0173,-2.47916,25.3121,213,15.125,0,0.3625,6829
-2.83945e-07,1.72572e-06,-1.93016e-06,-8.61595e-05,-0.00120802,-0.0140795,21.47,19.8911,1.77565,14.3131,25.9357,19.8916,-2.69057,26.1338,213,16.0477,0,0.3625,6830
-1.72981e-07,1.52161e-06,-1.75745e-06,-6.04608e-05,-0.00092488,-0.0143296,21.6027,20.3862,1.5203,14.2148,25.7762,20.3863,-2.65329,26.1545,213,14.6636,0,0.35,6831
-2.06331e-07,1.32883e-06,-1.5811e-06,-6.9456e-05,-0.000564667,-0.0146437,21.651,20.954,1.13913,13.472,24.8671,20.9541,-2.07704,25.2164,213,15.125,0,0.3375,6832
-1.51582e-07,1.38774e-06,-1.57643e-06,-5.02602e-05,-0.000820008,-0.014521,21.4918,20.4084,1.12559,14.1918,25.5012,20.407,-2.88234,26.2104,213,14.2023,0,0.3375,6833
-3.80212e-07,1.74654e-06,-1.91105e-06,-0.000130577,-0.001245,-0.0139789,21.4392,19.8707,1.94899,14.3403,26.0341,19.8713,-2.64654,26.1497,213,16.9705,0,0.3625,6834
-5.19817e-07,1.65152e-06,-1.94805e-06,-0.000171829,-0.0010687,-0.0143686,20.9628,19.7006,0.982167,12.957,23.9298,19.7,-1.98422,24.0794,213,17.8932,0,0.3625,6835
-2.80202e-07,1.31087e-06,-1.57513e-06,-9.21824e-05,-0.000612952,-0.0147189,21.3789,20.646,0.793203,13.7872,24.8739,20.6449,-2.70061,25.722,213,16.0477,0,0.3375,6836
-3.24142e-07,1.5401e-06,-1.7371e-06,-9.98477e-05,-0.0010373,-0.0140497,21.7575,20.4382,2.12439,15.1026,27.0436,20.4383,-3.16174,27.5041,213,16.5091,0,0.35,6837
-3.74284e-07,1.3191e-06,-1.56173e-06,-0.000117883,-0.000674431,-0.0143247,21.8468,21.0635,1.85195,14.4178,26.2662,21.0655,-2.56944,26.6191,213,16.9705,0,0.3375,6838
-5.87554e-07,1.39178e-06,-1.80554e-06,-0.000181624,-0.000900067,-0.0143851,21.1828,20.1717,1.1927,13.7733,24.9621,20.1696,-2.58449,25.4905,213,18.3545,0,0.35,6839
-4.98354e-07,1.28124e-06,-1.59188e-06,-0.00015432,-0.000619085,-0.014197,22.0364,21.3823,2.27265,15.0804,27.2357,21.3806,-2.925,27.7012,213,17.8932,0,0.3375,6840
1.49584e-06,-6.64307e-07,-1.72759e-06,-0.0012706,-0.000348795,-0.0137461,19.8165,21.1139,2.2584,13.9216,25.5967,19.8387,-2.24654,25.4574,213,-0.1,18.525,0.35,6841
1.53309e-06,-3.22546e-07,-1.73143e-06,-0.000831275,-0.000109576,-0.0146385,20.0836,21.0993,0.651183,13.0579,23.9332,20.0834,-2.18259,24.4196,213,-0.1,16.575,0.35,6842
1.52395e-06,8.38698e-07,-1.65068e-06,-0.00123159,-0.000397741,-0.0137914,19.7808,20.9543,2.104,13.7352,25.2568,19.7959,-2.21361,25.1879,213,-0.1,0.975,0.35,6843
1.6652e-06,1.11587e-07,-1.71028e-06,-0.00110726,-3.93461e-05,-0.0144421,19.6799,21.1828,0.912266,14.3889,25.4364,19.6799,-3.34135,26.3749,213,-0.1,6.825,0.35,6844
1.51494e-06,4.24217e-07,-1.70608e-06,-0.000833993,-0.000135249,-0.0146339,20.0409,21.0243,0.618815,13.0136,23.8348,20.0417,-2.19248,24.3533,213,-0.1,2.925,0.35,6845
1.63193e-06,-1.60236e-07,-1.71003e-06,-0.000876234,-6.75e-05,-0.0143841,20.4334,21.5716,1.42227,13.8085,25.3054,20.4334,-2.3116,25.5321,213,-0.1,14.625,0.35,6846
1.67195e-06,-7.05448e-08,-1.70008e-06,-0.00100335,-2.97956e-05,-0.0146031,19.7481,21.1183,0.607685,14.351,25.214,19.7481,-3.48803,26.397,213,-0.1,12.675,0.35,6847
1.64863e-06,-1.38709e-08,-1.68912e-06,-0.000822417,-3.27924e-05,-0.0145483,20.3849,21.4962,1.06698,13.5944,24.876,20.3849,-2.31278,25.2446,213,-0.1,10.725,0.35,6848
1.66935e-06,4.44685e-08,-1.68892e-06,-0.000941066,-3.27387e-05,-0.0144247,20.2261,21.5045,1.2491,14.1368,25.5138,20.2257,-2.75981,26.0355,213,-0.1,8.775,0.35,6849
1.60412e-06,2.28718e-07,-1.72498e-06,-0.000890526,-8.28491e-05,-0.0143582,20.4072,21.5439,1.45273,13.792,25.2902,20.4075,-2.29388,25.4958,213,-0.1,4.875,0.35,6850
1.2755e-06,9.69131e-07,-1.34361e-06,-0.000754949,-0.000379683,-0.0133436,21.9991,22.5272,4.28172,15.3152,28.7018,22.035,-1.92872,27.901,213,-0.1,0.4875,0.3375,6851
1.63797e-06,1.15546e-06,-1.67406e-06,-0.00138669,-0.000694434,-0.0136066,19.1241,20.0984,1.92571,12.5478,23.4887,19.2663,-1.6068,23.2734,213,-0.1,0.4875,0.3625,6852
1.70803e-06,6.95276e-07,-1.90398e-06,-0.00140093,-0.000256528,-0.0140869,19.0109,20.6216,1.15655,13.0689,23.9547,19.0174,-2.18308,24.0523,213,-0.1,1.4625,0.3625,6853
1.20602e-06,-7.71588e-07,-1.53734e-06,-0.000763574,-0.000331321,-0.0132766,22.1622,22.7706,4.55128,15.6258,29.262,22.2116,-1.98957,28.3907,213,-0.1,19.0125,0.3375,6854
1.57244e-06,-9.62364e-07,-1.86686e-06,-0.00139985,-0.000656353,-0.013583,19.1851,20.2315,2.03842,12.8335,23.8866,19.3487,-1.78036,23.7258,213,-0.1,19.0125,0.3625,6855
1.7063e-06,-5.40328e-07,-1.91372e-06,-0.00150448,-0.00021175,-0.0137584,19.3082,21.1276,2.06201,13.4914,25.084,19.3126,-1.89877,24.61,213,-0.1,18.0375,0.3625,6856
1.31544e-06,6.62398e-07,-1.55632e-06,-0.000780526,-0.000272767,-0.0137091,21.4965,22.2112,3.30076,15.6011,28.3556,21.4994,-2.84658,28.4017,213,-0.1,1.4625,0.3375,6857
1.31292e-06,-5.10667e-07,-1.56887e-06,-0.000940919,-0.000221467,-0.0140794,20.4836,21.4961,1.9923,14.53,26.2705,20.491,-2.78953,26.6446,213,-0.1,18.0375,0.3375,6858
1.74838e-06,-2.74607e-07,-1.91082e-06,-0.00106508,-9.08264e-05,-0.0145324,19.5757,20.9468,0.621617,13.1201,23.9044,19.5755,-2.33577,24.3658,213,-0.1,16.0875,0.3625,6859
1.69512e-06,-3.88716e-07,-1.91196e-06,-0.00108701,-0.000143038,-0.0141762,20.0079,21.3365,1.58607,13.6865,25.1464,20.0106,-2.22652,25.2006,213,-0.1,17.0625,0.3625,6860
1.4855e-06,-4.51136e-07,-1.74382e-06,-0.00100284,-0.000132186,-0.014121,20.3732,21.5985,1.9106,14.2273,25.9801,20.3767,-2.47447,26.1078,213,-0.1,17.55,0.35,6861
1.31849e-06,-3.74259e-07,-1.55744e-06,-0.000583142,-0.000119417,-0.0145166,21.0243,21.677,1.41425,13.8673,25.4135,21.0233,-2.32119,25.821,213,-0.1,17.0625,0.3375,6862
1.81373e-06,-1.28656e-07,-1.88048e-06,-0.00104265,-6.62534e-05,-0.0144312,19.8507,21.2248,1.00752,13.1222,24.2384,19.8507,-2.00602,24.3489,213,-0.1,14.1375,0.3625,6863
1.79194e-06,-1.97124e-07,-1.90299e-06,-0.00103928,-7.44601e-05,-0.0144376,19.8369,21.1947,0.979896,13.141,24.2282,19.837,-2.05373,24.3847,213,-0.1,15.1125,0.3625,6864
1.35513e-06,-2.68797e-07,-1.55296e-06,-0.000539678,-9.36242e-05,-0.0143614,21.454,22.0818,2.00119,15.1157,27.1571,21.4542,-3.07432,27.8219,213,-0.1,16.0875,0.3375,6865
1.54632e-06,-2.31139e-07,-1.74615e-06,-0.000721811,-7.60899e-05,-0.0143528,20.9415,21.8503,1.75709,14.3873,26.1911,20.9414,-2.58354,26.542,213,-0.1,15.6,0.35,6866
1.40133e-06,-1.91281e-07,-1.54618e-06,-0.000598332,-7.25855e-05,-0.0142586,21.4786,22.2186,2.25312,15.411,27.6471,21.4781,-3.17487,28.2473,213,-0.1,15.1125,0.3375,6867
1.83343e-06,-5.85633e-08,-1.89014e-06,-0.00115378,-2.41226e-05,-0.0146885,19.1585,20.7484,0.109613,13.4489,23.8778,19.1588,-3.0201,24.8764,213,-0.1,12.1875,0.3625,6868
1.83927e-06,-8.47916e-08,-1.87793e-06,-0.00117849,-2.86549e-05,-0.0145889,19.2392,20.8575,0.365311,13.4683,24.0797,19.2393,-2.85697,24.8723,213,-0.1,13.1625,0.3625,6869
1.4238e-06,-1.30329e-07,-1.52262e-06,-0.000598167,-5.4639e-05,-0.0142827,21.469,22.2339,2.2093,15.3883,27.6099,21.469,-3.16669,28.2119,213,-0.1,14.1375,0.3375,6870
1.5898e-06,-1.02057e-07,-1.70015e-06,-0.000751939,-4.43318e-05,-0.0144001,20.8241,21.82,1.61559,14.3407,26.0584,20.8244,-2.62312,26.4557,213,-0.1,13.65,0.35,6871
1.44483e-06,-8.67132e-08,-1.51735e-06,-0.000670904,-3.55542e-05,-0.0144057,21.0764,21.9706,1.74593,15.7109,27.5691,21.0765,-3.85273,28.7311,213,-0.1,13.1625,0.3375,6872
1.82498e-06,2.34389e-09,-1.86611e-06,-0.000975943,-3.48166e-05,-0.0145136,19.9704,21.295,0.917476,13.0138,24.1201,19.9703,-1.90757,24.2209,213,-0.1,10.2375,0.3625,6873
1.81018e-06,-3.17008e-08,-1.88267e-06,-0.000967879,-3.49379e-05,-0.0146179,19.8235,21.1366,0.612408,13.0015,23.8759,19.8236,-2.12703,24.2323,213,-0.1,11.2125,0.3625,6874
1.44849e-06,-5.50951e-08,-1.52504e-06,-0.000671024,-2.89806e-05,-0.0145508,20.8486,21.7523,1.3141,15.6114,27.1445,20.8489,-4.07833,28.5995,213,-0.1,12.1875,0.3375,6875
1.58646e-06,-4.48199e-08,-1.72019e-06,-0.000727149,-2.86031e-05,-0.0147033,20.4278,21.411,0.757763,14.2237,25.3078,20.4283,-3.13961,26.3488,213,-0.1,11.7,0.35,6876
1.43567e-06,-2.71895e-08,-1.51788e-06,-0.000580526,-2.98764e-05,-0.0145789,21.077,21.852,1.37556,15.1326,26.7465,21.0768,-3.51869,27.8663,213,-0.1,11.2125,0.3375,6877
1.83852e-06,6.30488e-08,-1.87906e-06,-0.00117301,-3.92256e-05,-0.0143301,19.6634,21.2591,1.14596,14.2275,25.4304,19.6626,-3.02452,26.0543,213,-0.1,8.2875,0.3625,6878
1.84134e-06,3.05476e-08,-1.86571e-06,-0.00107696,-2.68441e-05,-0.0144623,19.7597,21.2376,0.921075,13.3731,24.4523,19.7598,-2.29379,24.736,213,-0.1,9.2625,0.3625,6879
1.44327e-06,1.43294e-09,-1.50522e-06,-0.000577562,-3.0092e-05,-0.014442,21.3105,22.081,1.7976,15.1919,27.1312,21.3105,-3.25257,27.932,213,-0.1,10.2375,0.3375,6880
1.60728e-06,1.76832e-08,-1.69108e-06,-0.000716859,-2.7285e-05,-0.0144313,20.9079,21.8784,1.60603,14.3526,26.0948,20.908,-2.61047,26.4954,213,-0.1,9.75,0.35,6881
1.45389e-06,2.90469e-08,-1.50607e-06,-0.000639537,-2.86743e-05,-0.0143268,21.313,22.1727,2.04947,15.4848,27.5959,21.3131,-3.37377,28.3552,213,-0.1,9.2625,0.3375,6882
1.82658e-06,1.31466e-07,-1.90159e-06,-0.0013207,-4.13938e-05,-0.0141768,19.4613,21.2618,1.36753,14.1529,25.4679,19.4606,-2.83788,25.8314,213,-0.1,6.3375,0.3625,6883
1.84043e-06,9.60998e-08,-1.88813e-06,-0.00131755,-3.1167e-05,-0.0143647,19.1792,20.9897,0.816578,14.2081,25.1109,19.1798,-3.30529,25.9638,213,-0.1,7.3125,0.3625,6884
1.4419e-06,9.21675e-08,-1.52879e-06,-0.000822345,-3.42114e-05,-0.0145947,20.3065,21.4157,0.923159,14.5722,25.7414,20.3069,-3.40301,26.843,213,-0.1,7.3125,0.3375,6885
1.59809e-06,8.00765e-08,-1.71848e-06,-0.00102906,-3.71646e-05,-0.0144819,19.8567,21.2527,0.923087,14.4771,25.5648,19.857,-3.3893,26.5642,213,-0.1,7.8,0.35,6886
1.44141e-06,5.95369e-08,-1.52054e-06,-0.000719839,-3.36404e-05,-0.0145704,20.6599,21.6257,1.16652,14.2955,25.6924,20.6583,-2.89853,26.4358,213,-0.1,8.2875,0.3375,6887
1.76686e-06,2.73389e-07,-1.89633e-06,-0.00102859,-9.16171e-05,-0.0144454,19.8286,21.1473,0.945641,13.1384,24.1848,19.8288,-2.09207,24.3924,213,-0.1,4.3875,0.3625,6888
1.78878e-06,1.89375e-07,-1.91146e-06,-0.00113193,-7.95365e-05,-0.014029,20.217,21.6982,2.06562,14.1281,26.0102,20.2167,-2.24606,25.851,213,-0.1,5.3625,0.3625,6889
1.42765e-06,1.32744e-07,-1.54773e-06,-0.000824204,-4.87677e-05,-0.0144945,20.4415,21.5328,1.20178,14.4929,25.8607,20.4404,-3.12505,26.6916,213,-0.1,6.3375,0.3375,6890
1.56789e-06,1.55198e-07,-1.75104e-06,-0.00102093,-6.13188e-05,-0.0141103,20.4518,21.8024,2.02968,14.3435,26.2594,20.452,-2.4276,26.2693,213,-0.1,5.85,0.35,6891
1.39444e-06,1.90795e-07,-1.56021e-06,-0.000696376,-6.95577e-05,-0.0144689,20.8392,21.7214,1.45559,13.9267,25.5156,20.8385,-2.33788,25.8344,213,-0.1,5.3625,0.3375,6892
1.68222e-06,5.06039e-07,-1.89966e-06,-0.0010341,-0.000176361,-0.0143882,19.7665,20.9737,0.971777,13.0012,23.9704,19.7734,-2.03188,24.1786,213,-0.1,2.4375,0.3625,6893
1.72265e-06,3.66118e-07,-1.88179e-06,-0.00104802,-0.000108442,-0.0146039,19.4813,20.8037,0.402624,13.0817,23.685,19.481,-2.47841,24.3353,213,-0.1,3.4125,0.3625,6894
1.33405e-06,3.60659e-07,-1.52199e-06,-0.00053334,-0.000110735,-0.0143912,21.3963,21.9911,1.89257,15.0494,26.9911,21.3965,-3.10764,27.728,213,-0.1,3.4125,0.3375,6895
1.52764e-06,3.16493e-07,-1.7153e-06,-0.000711126,-9.0403e-05,-0.0143783,20.9087,21.7823,1.67335,14.3902,26.118,20.9087,-2.66237,26.5617,213,-0.1,3.9,0.35,6896
1.37678e-06,2.68418e-07,-1.53932e-06,-0.000588124,-8.93651e-05,-0.0142205,21.5447,22.2466,2.35835,15.3819,27.6844,21.5446,-3.07937,28.1997,213,-0.1,4.3875,0.3375,6897
1.47472e-06,5.83105e-07,-1.74843e-06,-0.00077859,-0.00017914,-0.0141562,20.9221,21.7657,2.09432,14.3431,26.27,20.9283,-2.41623,26.4235,213,-0.1,1.95,0.35,6898
1.30103e-06,4.87664e-07,-1.54371e-06,-0.000523935,-0.00014751,-0.014339,21.4503,21.9801,2.0068,14.9484,26.9411,21.4518,-2.95573,27.5652,213,-0.1,2.4375,0.3375,6899
1.23431e-09,1.76275e-08,-1.71621e-06,-2.71327e-05,-2.51013e-05,-0.0078108,29.9988,30.1539,-0.00754505,15.0807,30.1539,29.9988,-0.00754908,30.0842,213,10.0046,9.67452,0.325,6900
1.66806e-07,1.60599e-07,-1.70994e-06,-6.13125e-05,-5.7645e-05,-0.00840552,25.2,25.467,0.0571092,12.7757,25.6084,25.0588,0.0569229,25.2812,213,5.56294,5.69055,0.325,6901
1.53319e-07,-9.61626e-08,-1.71239e-06,-5.64475e-05,-3.90818e-05,-0.0085809,26.0211,27.1676,-0.0166774,13.6035,27.1901,25.9987,-0.0167911,26.6312,213,5.84897,13.7254,0.325,6902
-1.73274e-07,-9.08047e-08,-1.71231e-06,-6.26623e-05,-3.74614e-05,-0.00710407,26.3729,28.4162,-0.0268908,14.2281,28.4291,26.3601,-0.0270241,27.4801,213,14.5848,13.5835,0.325,6903
-1.66613e-07,1.60666e-07,-1.70988e-06,-6.09183e-05,-5.74121e-05,-0.00703399,25.98,26.2622,-0.00244032,13.2059,26.4091,25.8333,-0.00263507,26.1286,213,14.5361,5.68958,0.325,6904
3.29182e-10,-1.78441e-07,-1.70898e-06,-2.46897e-05,-6.19175e-05,-0.00710215,29.9157,26.9462,0.0388966,14.9385,29.9158,26.9461,0.0388577,28.5084,213,10.0512,15.2034,0.325,6905
5.4252e-10,2.64507e-07,-1.70417e-06,-2.48684e-05,-8.45928e-05,-0.00884726,27.499,23.6664,-0.0367493,13.7681,27.4992,23.6665,-0.0370025,25.8339,213,10.05,4.43898,0.325,6906
-2.91444e-07,1.17844e-08,-1.70119e-06,-9.32842e-05,-2.25266e-05,-0.00898349,23.121,27.4512,0.159038,13.6471,27.4524,23.1206,0.158162,25.4069,213,15.964,9.83306,0.325,6907
2.9232e-07,1.21364e-08,-1.69956e-06,-9.58418e-05,-2.25612e-05,-0.00691066,23.2263,29.2774,0.20568,14.5371,29.2789,23.2257,0.204779,26.5698,213,4.13582,9.83322,0.325,6908
-3.47509e-07,3.37851e-07,-1.69277e-06,-0.000107423,-0.000106204,-0.00820203,19.1893,19.1881,-0.192738,9.99742,19.7977,18.5841,-0.197125,19.4165,213,16.8055,3.41598,0.325,6909
3.47889e-07,3.37841e-07,-1.69366e-06,-0.000108084,-0.000106235,-0.0089901,19.3984,19.509,-0.29829,10.1296,19.9582,18.9517,-0.300866,19.7751,213,3.29449,3.41598,0.325,6910
3.52193e-07,-2.20064e-07,-1.69672e-06,-0.000115634,-7.04276e-05,-0.0050204,18.9533,23.5363,0.205223,11.7335,23.6722,18.8175,0.2052,21.4556,213,3.29449,16.084,0.325,6911
-3.52513e-07,-2.20222e-07,-1.6954e-06,-0.000115479,-6.91898e-05,-0.00721596,19.4734,22.975,0.0501768,11.5204,23.0908,19.3577,0.0500992,21.4195,213,16.8055,16.084,0.325,6912
9.63112e-08,-1.09456e-08,-1.71531e-06,-4.21251e-05,-2.35324e-05,-0.0085591,27.7768,29.0311,-0.0159276,14.5236,29.0313,27.7766,-0.0159349,28.4407,213,7.09327,10.8337,0.325,6913
-9.65063e-08,-1.07243e-08,-1.71434e-06,-4.18963e-05,-2.37018e-05,-0.00780271,28.5236,29.8733,0.0152251,14.9294,29.874,28.5229,0.0151812,29.2067,213,13.0067,10.8337,0.325,6914
-8.19154e-08,-2.61813e-07,-1.70946e-06,-3.59877e-05,-8.51828e-05,-0.00904047,26.3146,23.1548,0.00940184,13.163,26.3351,23.1346,0.00910559,24.8806,213,12.9569,16.3818,0.325,6915
8.85795e-08,-2.85702e-07,-1.71535e-06,-3.7837e-05,-9.625e-05,-0.00835709,26.403,22.3898,-0.0592086,13.246,26.4316,22.3623,-0.060333,24.7099,213,6.93173,16.6565,0.325,6916
-8.8015e-08,3.88478e-07,-1.70449e-06,-3.71353e-05,-0.000121302,-0.0083165,25.6857,19.7295,-0.244279,12.9709,25.6958,19.7211,-0.245991,23.5304,213,13.0428,3.22155,0.325,6917
8.83903e-08,3.87341e-07,-1.707e-06,-3.8173e-05,-0.000121538,-0.00729366,26.2353,19.5449,-0.374847,13.3075,26.2401,19.5402,-0.374901,23.9777,213,7.05697,3.22197,0.325,6918
-3.89094e-08,9.99827e-08,-1.71522e-06,-2.94985e-05,-4.05244e-05,-0.00917741,27.8636,27.1925,-0.0395586,13.9534,27.8671,27.1891,-0.0396262,27.574,213,11.4485,7.04177,0.325,6919
3.9309e-08,9.90377e-08,-1.71495e-06,-2.95991e-05,-4.03807e-05,-0.00705286,30.0624,29.1951,-0.0348682,15.0512,30.0675,29.1901,-0.0349251,29.6734,213,8.64136,7.06189,0.325,6920
4.40007e-07,-5.52269e-08,-1.71141e-06,-0.000139828,-2.77755e-05,-0.00590733,17.2407,27.5969,-0.761699,14.1817,27.5995,17.2404,-0.763939,24.8591,213,2.86107,12.556,0.325,6921
4.32048e-07,9.42679e-08,-1.7155e-06,-0.000140269,-3.76383e-05,-0.00627505,16.9777,26.1743,-0.572355,13.3815,26.1863,16.9701,-0.576718,23.5487,213,2.86107,6.94395,0.325,6922
-4.38645e-07,-5.62203e-08,-1.71753e-06,-0.000142485,-2.79608e-05,-0.00530535,16.5602,27.8451,-0.858571,14.3526,27.8457,16.5605,-0.859455,25.0479,213,17.2389,12.556,0.325,6923
-4.2958e-07,9.48226e-08,-1.72118e-06,-0.000141082,-3.75887e-05,-0.00888475,18.1749,24.8044,-0.338579,12.5745,24.809,18.1716,-0.339951,22.5744,213,17.2389,6.94395,0.325,6924
2.71029e-08,-5.69386e-08,-1.71584e-06,-2.81675e-05,-3.07548e-05,-0.00613728,31.5314,31.3003,-0.0293986,15.7819,31.5344,31.2973,-0.0294204,31.446,213,9.07089,12.5109,0.325,6925
-5.29459e-08,-8.25223e-08,-1.71504e-06,-3.15421e-05,-3.68353e-05,-0.00917032,27.8074,27.4826,0.00684414,13.906,27.8188,27.4712,0.00680326,27.6399,213,11.8993,13.2829,0.325,6926
-1.32214e-07,5.0695e-08,-1.71198e-06,-5.11159e-05,-2.85125e-05,-0.00915786,26.3619,27.7352,0.0329764,13.8543,27.7414,26.3558,0.032851,27.0424,213,13.7888,8.39217,0.325,6927
1.34876e-07,5.02902e-08,-1.71329e-06,-5.26994e-05,-2.87081e-05,-0.00842164,26.7732,28.4122,0.0125189,14.2025,28.4175,26.768,0.0124338,27.6173,213,6.25605,8.40327,0.325,6928
9.74037e-11,5.60589e-07,-1.73944e-06,-2.432e-05,-0.000182565,-0.00592474,26.2294,10.1732,0.0548885,13.0879,26.2297,10.1739,0.0538879,22.8624,213,10.05,2.12359,0.325,6929
-3.2969e-10,-3.73679e-07,-1.72962e-06,-2.11488e-05,-9.13362e-05,-0.00876555,26.7254,20.2964,-0.767048,13.7913,26.7706,20.296,-0.811909,24.9826,213,10.05,17.3764,0.325,6930
4.80504e-08,-1.17902e-07,-1.71265e-06,-2.98167e-05,-4.57167e-05,-0.00725647,29.6913,28.429,0.0435491,14.8282,29.6999,28.4204,0.0434983,29.0378,213,8.3247,14.1296,0.325,6931
-1.73458e-07,5.09167e-07,-1.71943e-06,-6.00458e-05,-0.000158547,-0.0078474,22.2056,14.1822,-0.605883,11.4275,22.2416,14.1536,-0.613361,20.0728,213,14.8487,2.28395,0.325,6932
1.6587e-07,-3.36678e-07,-1.72048e-06,-6.03373e-05,-0.000111307,-0.00707791,24.3343,20.1795,0.0490884,12.2168,24.4768,20.0429,0.0431476,22.5461,213,5.25615,17.2547,0.325,6933
1.73409e-07,5.10114e-07,-1.71709e-06,-5.95241e-05,-0.000142148,-0.00841018,22.2423,14.8313,-0.370933,11.3226,22.2724,14.8031,-0.37281,19.9863,213,5.25123,2.284,0.325,6934
-1.6556e-07,-3.30915e-07,-1.7163e-06,-6.08545e-05,-0.000101859,-0.00564741,24.394,19.4909,-0.83786,12.7717,24.63,19.3304,-0.913322,23.349,213,14.8385,17.2283,0.325,6935
5.78731e-07,-4.79365e-09,-1.74302e-06,-0.000169283,-2.08327e-05,-0.00922514,12.8612,24.1294,-1.19996,12.6851,24.15,12.8609,-1.22024,22.0155,213,2.03454,10.5086,0.325,6936
-5.82114e-07,-4.24108e-09,-1.74088e-06,-0.000195043,-2.1329e-05,-0.00820861,11.5302,24.7209,-0.875317,12.8053,24.7286,11.5291,-0.881982,22.183,213,18.0655,10.5086,0.325,6937
1.95354e-07,-2.92053e-08,-1.71037e-06,-6.94795e-05,-2.46029e-05,-0.00723707,25.987,29.5646,0.142856,14.7118,29.5663,25.9855,0.142669,27.8067,213,5.27175,11.6005,0.325,6938
-2.05759e-07,-3.03295e-08,-1.70792e-06,-7.03663e-05,-2.46441e-05,-0.00878695,25.0218,27.9621,0.0303916,13.9676,27.9654,25.0188,0.0301026,26.5847,213,14.9777,11.6358,0.325,6939
4.69105e-08,2.04959e-07,-1.70898e-06,-2.92119e-05,-7.0803e-05,-0.00715371,29.1245,25.7871,0.192062,14.4705,29.133,25.7786,0.191981,27.4182,213,8.32648,5.14147,0.325,6940
-4.72093e-08,2.04741e-07,-1.71055e-06,-2.92555e-05,-6.99038e-05,-0.00777437,28.4552,25.4575,-0.0114883,14.2355,28.4594,25.4534,-0.0116274,27.0934,213,11.77,5.13793,0.325,6941
-6.17348e-07,-1.25324e-07,-1.73786e-06,-0.000198409,-4.31579e-05,-0.00820383,8.82981,21.7865,-1.42534,11.6083,21.7894,8.82865,-1.4271,20.1515,213,18.3168,14.3968,0.325,6942
-6.07017e-07,1.86347e-07,-1.73698e-06,-0.000193636,-6.07063e-05,-0.00860211,9.47061,20.2195,-1.52415,10.8851,20.2377,9.4607,-1.53243,18.8538,213,18.3168,5.10316,0.325,6943
6.07116e-07,1.8706e-07,-1.74182e-06,-0.000199988,-6.06539e-05,-0.00734604,6.97788,19.9038,-1.86182,10.905,19.9291,6.97152,-1.88081,18.9992,213,1.78318,5.10316,0.325,6944
6.17597e-07,-1.25837e-07,-1.74392e-06,-0.000185322,-4.31901e-05,-0.00857218,9.40376,21.6436,-1.58722,11.6259,21.6545,9.40304,-1.59738,20.1464,213,1.78318,14.3968,0.325,6945
-6.21511e-08,3.45935e-08,-1.71534e-06,-3.34078e-05,-2.58527e-05,-0.00741228,29.7192,30.3245,-0.0138324,15.171,30.3282,29.7155,-0.0138594,30.0404,213,12.1199,9.01285,0.325,6946
6.3532e-08,3.61731e-08,-1.71582e-06,-3.33222e-05,-2.64432e-05,-0.00875098,28.322,28.7901,-0.0232603,14.4076,28.792,28.3201,-0.0232787,28.5823,213,7.93564,8.95228,0.325,6947
5.52271e-07,-3.62237e-07,-1.76214e-06,-0.000196222,-0.000105227,-0.00887443,9.86985,15.841,-1.37436,8.72528,16.0646,9.65788,-1.38597,15.2894,213,1.79521,17.5749,0.325,6948
5.48791e-07,5.28637e-07,-1.75991e-06,-0.000159749,-0.000151757,-0.00900888,8.97727,9.76676,-2.38655,6.62201,10.8199,7.96175,-2.42415,12.0714,213,1.79521,1.92508,0.325,6949
-5.50211e-07,-3.6029e-07,-1.76192e-06,-0.000181658,-0.000105961,-0.0100191,11.5852,16.6096,-1.04948,8.92107,16.7831,11.4213,-1.05906,15.8564,213,18.3048,17.5749,0.325,6950
-5.43834e-07,5.23623e-07,-1.77105e-06,-0.000202559,-0.000186499,-0.00683067,5.20768,6.44686,-0.33794,3.9076,7.38712,4.35756,-0.42808,6.82488,213,18.3048,1.92508,0.325,6951
-2.87258e-08,-2.84153e-08,-1.71611e-06,-2.80962e-05,-2.53819e-05,-0.00825495,29.3812,29.5725,-0.0225906,14.7982,29.5737,29.38,-0.0225949,29.4999,213,11.0632,11.519,0.325,6952
3.08401e-07,-1.14218e-07,-1.70306e-06,-0.000102068,-4.3273e-05,-0.00708049,21.8488,26.5949,0.195113,13.2121,26.6192,21.8246,0.195003,24.383,213,3.86597,14.2232,0.325,6953
3.02874e-07,1.78432e-07,-1.69821e-06,-9.76058e-05,-6.10703e-05,-0.00827446,21.5704,24.1013,-0.236185,12.1972,24.1576,21.5146,-0.236764,23.1862,213,3.86597,5.2768,0.325,6954
-3.08321e-07,-1.14077e-07,-1.70321e-06,-0.000103439,-4.25401e-05,-0.00825924,21.6948,25.8756,0.110577,12.8919,25.8938,21.6771,0.110034,23.9554,213,16.234,14.2232,0.325,6955
-3.02142e-07,1.78737e-07,-1.69901e-06,-9.83277e-05,-6.11719e-05,-0.00708009,21.5569,24.5661,-0.329555,12.477,24.6235,21.5003,-0.330399,23.5482,213,16.234,5.2768,0.325,6956
6.93811e-07,4.84321e-08,-1.75723e-06,-0.000234694,-2.67371e-05,-0.00831039,6.70118,22.7518,-0.889986,11.824,22.7561,6.69888,-0.891949,20.9127,213,1.53233,8.37929,0.325,6957
-6.93689e-07,4.7794e-08,-1.74573e-06,-0.000227492,-2.72242e-05,-0.00774911,6.23581,23.0918,-0.705198,11.9011,23.0965,6.23152,-0.705657,21.2026,213,18.5677,8.37929,0.325,6958
-2.28915e-07,8.43547e-08,-1.70669e-06,-7.65206e-05,-3.64966e-05,-0.00778347,24.5714,27.5694,0.104088,13.7382,27.5804,24.5606,0.103913,26.0979,213,15.3361,7.3,0.325,6959
2.35557e-07,7.99826e-08,-1.70611e-06,-7.96906e-05,-3.53928e-05,-0.00504122,25.4009,29.8519,0.175836,14.8448,29.8651,25.388,0.175515,27.7235,213,4.69563,7.40844,0.325,6960
4.42642e-08,-4.40408e-07,-1.74137e-06,-2.61928e-05,-0.000133866,-0.00782692,26.0162,16.9919,-1.23165,13.6357,26.0349,16.978,-1.23655,24.0576,213,8.15556,17.8726,0.325,6961
-4.72431e-08,6.67346e-07,-1.74787e-06,-2.77327e-05,-0.000223222,-0.00654703,23.5559,5.10306,-1.20099,12.3863,23.5648,5.10099,-1.20785,22.298,213,11.8024,1.62276,0.325,6962
4.6996e-08,6.70245e-07,-1.76119e-06,-3.0135e-05,-0.000225748,-0.00650336,23.6613,5.27029,-0.0448095,11.8717,23.6808,5.26861,-0.062588,21.5775,213,8.29761,1.62276,0.325,6963
-4.27965e-08,-4.40563e-07,-1.73685e-06,-2.43575e-05,-0.000114587,-0.00667346,26.8545,16.3488,-1.93628,14.4323,26.8987,16.3343,-1.96598,25.295,213,11.885,17.8638,0.325,6964
1.77872e-07,2.79245e-07,-1.70231e-06,-6.28287e-05,-9.31671e-05,-0.00844078,24.0739,22.0204,0.0909066,12.0294,24.1491,21.9457,0.090395,23.0362,213,5.2873,4.12494,0.325,6965
1.75567e-07,-1.87381e-07,-1.70141e-06,-6.38716e-05,-6.33964e-05,-0.00776801,25.1796,25.2337,0.198938,12.7024,25.6032,24.8107,0.198363,25.018,213,5.35339,15.5038,0.325,6966
-1.77479e-07,2.79825e-07,-1.70092e-06,-6.28582e-05,-9.33794e-05,-0.00689173,24.7708,22.2497,0.327913,12.2661,24.8597,22.1613,0.327436,23.3005,213,14.8124,4.1247,0.325,6967
-1.78529e-07,-1.78251e-07,-1.70303e-06,-6.49891e-05,-6.07623e-05,-0.00626966,25.7435,26.0952,-0.0816295,13.2432,26.4041,25.4352,-0.0822374,26.0154,213,14.7805,15.358,0.325,6968
-4.54128e-08,-1.59497e-07,-1.71063e-06,-2.92814e-05,-5.77462e-05,-0.00629315,30.2837,27.7645,0.0131105,15.1392,30.2914,27.757,0.0129112,29.0942,213,11.7258,14.9304,0.325,6969
1.39115e-10,6.57809e-08,-1.71568e-06,-2.67376e-05,-3.21635e-05,-0.00530127,32.5859,32.0577,-0.0250858,16.3055,32.5859,32.0577,-0.025102,32.3501,213,10.049,7.98216,0.325,6970
7.33658e-11,1.43427e-07,-1.71348e-06,-2.5859e-05,-5.29124e-05,-0.00930147,27.7607,26.1525,-0.0174721,13.8891,27.7607,26.1525,-0.0175248,27.0101,213,10.0475,6.13403,0.325,6971
8.87074e-08,-5.50925e-08,-1.71526e-06,-3.93697e-05,-2.98762e-05,-0.00780793,28.5827,29.288,-0.0297993,14.6629,29.2959,28.5748,-0.0298446,28.9719,213,7.24233,12.4858,0.325,6972
-2.88668e-07,-3.91916e-07,-1.72978e-06,-9.53308e-05,-0.000101075,-0.00646031,18.1659,14.7751,-2.81242,11.0252,19.0321,14.1147,-3.01824,20.0492,213,16.5298,17.8008,0.325,6973
-3.0469e-07,6.00792e-07,-1.74167e-06,-9.03445e-05,-0.000203391,-0.00653133,15.8143,3.99092,-1.73005,8.82831,15.9144,3.90301,-1.74223,15.6189,213,16.5298,1.69917,0.325,6974
3.05241e-07,6.00715e-07,-1.74363e-06,-9.21082e-05,-0.000199773,-0.00742996,16.103,4.95116,-1.56085,8.89112,16.2005,4.87459,-1.58176,15.5911,213,3.57022,1.69917,0.325,6975
2.88578e-07,-3.93525e-07,-1.73048e-06,-9.55187e-05,-0.000109678,-0.00745697,18.537,15.4995,-2.36927,10.8704,19.264,14.8801,-2.47682,19.9141,213,3.57022,17.8008,0.325,6976
3.68299e-08,-1.1015e-08,-1.71623e-06,-2.93449e-05,-2.42946e-05,-0.00530338,32.5332,33.0344,-0.0149696,16.5248,33.0346,32.533,-0.0149823,32.8017,213,8.76949,10.8317,0.325,6977
4.16311e-08,-2.38496e-07,-1.7051e-06,-2.74839e-05,-7.8643e-05,-0.0084928,27.6924,24.2901,-0.216734,13.9597,27.7021,24.2809,-0.217241,26.3757,213,8.40604,16.053,0.325,6978
-3.13804e-08,3.8304e-07,-1.70392e-06,-2.65829e-05,-0.00012058,-0.00852176,26.5781,20.1814,-0.225401,13.4022,26.5788,20.181,-0.225669,24.2471,213,11.3082,3.30105,0.325,6979
3.03059e-08,3.85138e-07,-1.69301e-06,-2.44758e-05,-0.000116068,-0.00859748,26.7144,20.4362,-0.499243,13.6092,26.7178,20.4342,-0.500656,24.684,213,8.79125,3.30162,0.325,6980
-9.9247e-08,7.07288e-07,-1.74454e-06,-4.0373e-05,-0.000234544,-0.0077699,21.8076,5.99893,-0.416039,11.1356,21.834,5.9937,-0.437187,19.8529,213,13.4351,1.42565,0.325,6981
1.00611e-07,7.08607e-07,-1.74239e-06,-3.78127e-05,-0.000222821,-0.00926521,21.4249,8.23348,-1.15279,11.2984,21.4369,8.22852,-1.15986,19.6624,213,6.6648,1.42575,0.325,6982
-8.70039e-08,-4.68653e-07,-1.74111e-06,-3.73178e-05,-0.000136711,-0.00788286,24.4678,15.378,-1.26169,12.8846,24.5054,15.3426,-1.26388,22.6251,213,13.4325,18.0948,0.325,6983
8.90815e-08,-4.79002e-07,-1.73838e-06,-3.64333e-05,-0.000147123,-0.00849793,23.9742,15.1562,-1.55235,12.7908,24.0246,15.1105,-1.55701,22.4909,213,6.61232,18.1567,0.325,6984
-1.06624e-07,-5.35448e-08,-1.71442e-06,-4.41756e-05,-2.93379e-05,-0.00711676,28.7005,29.8881,-0.0394082,14.9684,29.8973,28.6913,-0.03945,29.3524,213,13.2888,12.4443,0.325,6985
-1.65613e-07,1.089e-08,-1.70713e-06,-6.01853e-05,-2.29318e-05,-0.00670247,27.4777,30.6273,0.175553,15.2264,30.628,27.4773,0.175232,29.0061,213,14.3478,9.91725,0.325,6986
1.64992e-07,1.07491e-08,-1.71013e-06,-6.01513e-05,-2.31757e-05,-0.00778615,26.6758,29.4141,0.0759845,14.6694,29.4144,26.6757,0.0757254,28.0697,213,5.75081,9.92104,0.325,6987
-1.01193e-07,1.09287e-07,-1.71338e-06,-4.19241e-05,-4.28856e-05,-0.00821617,27.5877,27.5236,-0.0354195,13.8635,27.6915,27.4199,-0.0355225,27.5922,213,13.2009,6.77638,0.325,6988
1.02331e-07,1.08661e-07,-1.7137e-06,-4.24112e-05,-4.25706e-05,-0.00833864,27.4213,27.4209,-0.052583,13.7995,27.5464,27.2959,-0.0526721,27.4747,213,6.8729,6.78832,0.325,6989
-7.67845e-07,1.02112e-07,-1.71201e-06,-0.000248136,-3.89024e-05,-0.00659078,0.858646,21.1255,-1.04036,11.1136,21.1563,0.858285,-1.07083,21.3281,213,18.9047,6.81528,0.325,6990
7.69041e-07,1.02038e-07,-1.71779e-06,-0.000259442,-3.7557e-05,-0.00703477,0.391558,20.6266,-1.75679,11.2454,20.6779,0.396336,-1.81286,21.4716,213,1.19532,6.81528,0.325,6991
-7.46196e-07,-5.85411e-08,-1.72711e-06,-0.000257288,-3.18091e-05,-0.00706762,2.33707,21.984,-0.70013,11.382,22.0217,2.34146,-0.742231,21.3895,213,18.8042,12.5623,0.325,6992
7.50136e-07,-5.94358e-08,-1.74025e-06,-0.000239357,-3.15176e-05,-0.00781313,3.26552,21.733,-0.946213,11.3505,21.7439,3.26555,-0.957169,20.912,213,1.29576,12.5623,0.325,6993
-3.14078e-08,-2.62528e-07,-1.71175e-06,-2.61476e-05,-8.64991e-05,-0.00853325,27.587,23.4994,-0.110972,13.8515,27.5915,23.4954,-0.111472,25.899,213,11.3338,16.3512,0.325,6994
6.82969e-07,-2.24431e-07,-1.72579e-06,-0.000236497,-6.80498e-05,-0.00721871,2.72259,17.9958,-1.83349,9.92018,18.0002,2.7249,-1.84018,17.9974,213,1.41135,16.0551,0.325,6995
-6.82233e-07,-2.24953e-07,-1.72674e-06,-0.000240029,-6.70384e-05,-0.00721801,2.37186,18.0606,-1.73331,9.90393,18.0661,2.37474,-1.74172,18.1041,213,18.6887,16.0551,0.325,6996
6.66091e-07,3.23091e-07,-1.7336e-06,-0.000225547,-9.89135e-05,-0.00780509,3.45117,15.2952,-1.18503,8.26784,15.3417,3.41355,-1.19394,14.7807,213,1.41135,3.44488,0.325,6997
-6.67735e-07,3.22792e-07,-1.73584e-06,-0.000220057,-9.83493e-05,-0.006484,0.406393,14.2927,-1.6206,7.9942,14.3476,0.371627,-1.64077,15.0832,213,18.6887,3.44488,0.325,6998
-7.74277e-09,-9.4728e-08,-1.7147e-06,-2.6324e-05,-3.95166e-05,-0.00654855,31.0263,29.8946,0.0112649,15.5077,31.0267,29.8943,0.0112254,30.465,213,10.3511,13.5792,0.325,6999
3.85011e-07,4.55628e-08,-1.70538e-06,-0.000120181,-2.66555e-05,-0.00711666,19.8506,27.4801,-0.763559,14.1249,27.4857,19.8456,-0.764143,25.3099,213,3.276,8.44825,0.325,7000
-3.82742e-07,4.55861e-08,-1.71223e-06,-0.000120178,-2.69956e-05,-0.00632342,19.6657,28.0304,-0.845205,14.4423,28.0391,19.6573,-0.845546,25.7385,213,16.824,8.44825,0.325,7001
-3.40395e-07,-2.12331e-08,-1.70977e-06,-0.000110826,-2.38412e-05,-0.00778738,21.2841,27.7972,-0.0677305,13.9337,27.7989,21.2831,-0.0684811,25.2482,213,16.4526,11.2813,0.325,7002
3.41099e-07,-2.116e-08,-1.7012e-06,-0.000112272,-2.29521e-05,-0.00704667,21.1285,28.4259,-0.260079,14.3448,28.4278,21.1285,-0.261934,25.8257,213,3.65515,11.2795,0.325,7003
-9.98342e-08,-1.32744e-07,-1.71202e-06,-4.26232e-05,-4.94339e-05,-0.00628244,28.9404,28.3528,0.0264071,14.4912,29.0085,28.2849,0.0261643,28.6274,213,13.2342,14.4853,0.325,7004
2.71931e-07,-6.30881e-08,-1.70689e-06,-9.32459e-05,-3.09583e-05,-0.00839561,22.9298,27.1737,0.103296,13.5379,27.1786,22.9253,0.102883,25.2195,213,4.29074,12.8307,0.325,7005
-2.70465e-07,-6.35151e-08,-1.70885e-06,-9.30591e-05,-3.11446e-05,-0.00777486,23.0649,27.6515,0.0676512,13.7924,27.6524,23.0642,0.0675049,25.601,213,15.8093,12.8307,0.325,7006
-1.05515e-07,2.214e-07,-1.70905e-06,-4.40953e-05,-7.60211e-05,-0.00914278,25.7652,23.8226,-0.0956199,12.9386,25.7816,23.8063,-0.0957138,24.9484,213,13.4072,4.86033,0.325,7007
1.05881e-07,2.2145e-07,-1.70786e-06,-4.32639e-05,-7.60649e-05,-0.00702039,27.3608,24.6748,-0.0914255,13.7364,27.3813,24.6543,-0.0914551,26.2159,213,6.69222,4.86036,0.325,7008
9.30042e-08,-1.73983e-07,-1.70908e-06,-4.03032e-05,-6.14225e-05,-0.00703611,28.2087,26.4928,-0.0221358,14.1341,28.2459,26.4557,-0.0222154,27.4169,213,6.97297,15.2137,0.325,7009
7.27904e-07,-5.21532e-07,-1.70321e-06,-0.000228603,-0.00012042,-0.0082339,-3.03604,5.24638,-5.84266,6.18353,5.82393,-2.91313,-6.54312,11.0104,213,0.835166,18.5312,0.325,7010
-7.59816e-07,7.41766e-07,-1.68584e-06,-0.000213338,-0.00020725,-0.00757481,-5.92019,-5.21302,-8.22153,2.74437,-3.98272,-5.90057,-9.47146,4.82471,213,19.2648,0.968771,0.325,7011
-7.28158e-07,-5.26212e-07,-1.70269e-06,-0.000207004,-0.000125672,-0.00826028,-2.15698,5.30035,-8.23757,7.04219,5.63652,-2.28286,-8.44786,12.2289,213,19.2648,18.5312,0.325,7012
7.58308e-07,7.37662e-07,-1.71248e-06,-0.000225953,-0.000217544,-0.0088137,-4.46407,-3.48311,-5.2422,2.67301,-2.01001,-3.82334,-7.35603,4.70893,213,0.835166,0.968771,0.325,7013
-2.21091e-07,3.92556e-08,-1.7037e-06,-7.5975e-05,-2.67379e-05,-0.00836132,24.7809,28.1247,0.304491,13.9127,28.1295,24.7765,0.304141,26.3096,213,15.1756,8.74929,0.325,7014
2.22145e-07,3.88551e-08,-1.70458e-06,-7.70599e-05,-2.64013e-05,-0.00776089,24.8845,28.6428,0.157845,14.2444,28.6463,24.8813,0.157524,26.8053,213,4.91079,8.76188,0.325,7015
8.94008e-07,8.86088e-07,-1.47049e-06,-0.000290109,-0.000283167,-0.00783222,-6.17884,-5.62812,-2.58347,6.603,1.98362,-5.15168,-11.2224,11.4491,213,0.367583,0.484385,0.325,7016
6.44699e-07,8.7788e-07,-1.64459e-06,-0.000232363,-0.000294943,-0.00774877,-0.0638652,-4.91235,-1.00018,5.72252,4.72038,-3.97211,-6.72466,10.3471,213,1.29031,0.484385,0.325,7017
9.06491e-07,6.32028e-07,-1.61675e-06,-0.000302444,-0.000223761,-0.00773752,-6.12058,0.0133293,-2.58158,6.219,4.61361,-5.47804,-7.8244,11.4466,213,0.367583,1.45939,0.325,7018
-6.47315e-07,8.74913e-07,-1.62026e-06,-0.000220891,-0.000292969,-0.00891933,3.45834,-0.49376,-3.28073,5.84165,5.93546,-0.50378,-5.74783,10.1357,213,18.8097,0.484385,0.325,7019
-8.79496e-07,8.73854e-07,-1.46873e-06,-0.000271875,-0.00026649,-0.00788024,-4.066,-3.6029,-3.253,6.43329,2.82521,-3.70574,-10.0414,11.1432,213,19.7324,0.484385,0.325,7020
-9.02801e-07,6.35017e-07,-1.59565e-06,-0.00030477,-0.000214449,-0.00891871,-0.698531,4.20328,-2.1167,5.88971,6.90779,-0.648098,-4.87164,10.3365,213,19.7324,1.45939,0.325,7021
8.19154e-07,-6.47932e-07,-1.57958e-06,-0.000282819,-0.000214787,-0.00789401,-3.67818,1.34089,-3.2212,6.97656,5.08189,-1.76917,-8.87122,12.0844,213,0.367583,19.0156,0.325,7022
9.05966e-07,-4.70487e-07,-1.59438e-06,-0.000314461,-0.000150789,-0.00891661,-0.215634,9.58517,-1.83211,7.72471,11.5483,-0.109774,-3.90111,13.9458,213,0.367583,18.0406,0.325,7023
5.8361e-07,-6.0295e-07,-1.70476e-06,-0.000222566,-0.000225282,-0.00893754,5.48875,5.8597,-1.60483,6.24195,8.55025,5.12702,-3.93365,11.1728,213,1.29031,19.0156,0.325,7024
-9.01279e-07,-4.70988e-07,-1.59419e-06,-0.000295716,-0.00015177,-0.00779674,-3.03811,7.93364,-1.53271,7.61612,10.7803,-2.96548,-4.45197,14.5461,213,19.7324,18.0406,0.325,7025
-8.14702e-07,-6.43768e-07,-1.58025e-06,-0.000276897,-0.000201883,-0.00792422,-2.94276,2.6615,-3.75148,7.17126,5.85391,-1.39802,-8.48862,12.4213,213,19.7324,19.0156,0.325,7026
-5.84381e-07,-6.01176e-07,-1.70252e-06,-0.000218285,-0.000216161,-0.00894178,5.84155,6.41171,-2.51342,6.94939,9.07003,5.49856,-4.82875,12.5017,213,18.8097,19.0156,0.325,7027
4.07542e-07,8.04638e-07,-1.67702e-06,-0.000128122,-0.000286305,-0.00614469,10.8972,-3.09978,1.73863,7.69898,12.1975,0.538948,-3.20043,13.9105,213,2.65784,0.849583,0.325,7028
3.06832e-07,8.28215e-07,-1.66318e-06,-9.26839e-05,-0.000288946,-0.00770907,14.8932,0.435429,-1.44693,9.04819,15.7714,0.435314,-2.325,16.8863,213,3.58056,0.849583,0.325,7029
5.40281e-07,7.45482e-07,-1.73663e-06,-0.000182986,-0.000263721,-0.00765795,6.94547,1.16583,0.536928,4.43326,8.21251,1.08971,-0.653997,8.13603,213,1.77033,0.962542,0.325,7030
4.06339e-07,5.61061e-07,-1.73876e-06,-0.00013527,-0.000186698,-0.00784728,13.6757,8.46203,0.313572,6.81507,13.9031,8.2753,0.272929,11.8636,213,2.68271,1.81212,0.325,7031
6.41846e-07,6.20889e-07,-1.7767e-06,-0.000216136,-0.000204374,-0.00905829,3.85581,4.84182,-2.62615,4.03909,5.38945,3.37074,-2.68872,7.2818,213,1.31519,1.44693,0.325,7032
2.26674e-07,8.45872e-07,-1.66986e-06,-7.71133e-05,-0.000298742,-0.00613692,16.2889,-3.32265,0.517617,10.0634,16.7908,0.0289642,-3.33592,18.6731,213,4.50329,0.849583,0.325,7033
1.33592e-07,9.05504e-07,-1.64818e-06,-4.90623e-05,-0.000303356,-0.00775791,19.4449,0.0427501,0.137931,10.1924,19.8767,0.257009,-0.508085,20.0132,213,6.05058,0.712873,0.325,7034
9.27073e-08,9.17573e-07,-1.65129e-06,-3.78447e-05,-0.000312758,-0.00891555,19.8006,2.28452,-2.02258,11.3781,20.2675,2.28382,-2.48874,20.785,213,6.97331,0.712873,0.325,7035
2.30993e-07,5.52642e-07,-1.73892e-06,-7.99282e-05,-0.000181999,-0.00786769,19.0456,10.4086,-1.20366,10.1595,19.1093,10.3509,-1.20968,17.6525,213,4.41072,1.99158,0.325,7036
1.67375e-07,7.71318e-07,-1.72333e-06,-5.80013e-05,-0.000273652,-0.00925675,19.2175,6.36441,-1.82862,10.7156,19.4099,6.36461,-2.02122,18.7055,213,5.3438,1.142,0.325,7037
1.32789e-07,6.00198e-07,-1.74023e-06,-5.01964e-05,-0.000187625,-0.0103609,21.5422,13.4084,-0.763649,11.164,21.5586,13.3979,-0.769481,19.5685,213,5.95801,1.85487,0.325,7038
6.25598e-08,8.92636e-07,-1.67177e-06,-3.4665e-05,-0.000304716,-0.00671173,20.9537,-2.00941,-0.12919,11.6812,21.352,-0.526373,-2.01049,22.6569,213,7.78971,0.811382,0.325,7039
3.40188e-08,8.99344e-07,-1.66082e-06,-2.77171e-05,-0.000304614,-0.00783172,20.3076,-0.201884,-3.87705,12.3285,20.5421,-0.19845,-4.11495,22.9508,213,8.71244,0.811382,0.325,7040
7.31016e-08,6.88963e-07,-1.75116e-06,-3.28503e-05,-0.000246984,-0.00771794,23.05,7.17379,0.168722,11.5167,23.1276,7.17065,0.0942375,20.4357,213,7.4812,1.52425,0.325,7041
1.19959e-08,8.28206e-07,-1.7071e-06,-2.34207e-05,-0.000284928,-0.00674822,22.5734,0.37482,-0.803678,11.8348,22.7193,0.375422,-0.950191,23.0353,213,9.58864,1.06179,0.325,7042
-1.12205e-08,8.25273e-07,-1.71197e-06,-2.53249e-05,-0.000289588,-0.00673524,22.6522,0.228921,0.35313,11.3365,22.8394,0.228417,0.166396,22.6421,213,10.5114,1.06179,0.325,7043
2.17967e-08,6.13752e-07,-1.75724e-06,-2.69693e-05,-0.00022394,-0.00765505,24.9663,10.3627,1.74001,11.6854,25.0381,10.3638,1.66718,20.4593,213,9.1738,1.87317,0.325,7044
-3.49843e-08,8.9976e-07,-1.6683e-06,-2.85618e-05,-0.000310352,-0.00781058,21.2464,0.367007,-0.823709,11.316,21.5278,0.366115,-1.10423,21.9339,213,11.3876,0.811382,0.325,7045
-6.27366e-08,8.93101e-07,-1.67201e-06,-3.21845e-05,-0.000307923,-0.00671051,20.8452,-2.61607,-0.866991,11.9242,21.2307,-1.25082,-2.61773,23.1952,213,12.3103,0.811382,0.325,7046
-2.29093e-08,6.12155e-07,-1.74962e-06,-2.7085e-05,-0.000216311,-0.00769574,24.5384,10.509,0.139002,12.2349,24.5736,10.5089,0.103883,21.2703,213,10.9262,1.87317,0.325,7047
-9.20788e-08,9.18996e-07,-1.65436e-06,-3.82789e-05,-0.000316255,-0.00885185,19.7931,2.10828,-1.82425,11.3478,20.3325,2.10779,-2.36315,20.8233,213,13.1267,0.712826,0.325,7048
-1.33639e-07,9.06349e-07,-1.65262e-06,-5.07171e-05,-0.000315074,-0.00883415,19.5721,2.80594,0.174335,10.01,19.8674,2.8377,-0.152703,18.705,213,14.0494,0.712826,0.325,7049
-7.14312e-08,6.86433e-07,-1.74198e-06,-3.17271e-05,-0.000243225,-0.0062394,23.4584,4.91455,-0.499367,12.028,23.5078,4.91386,-0.54811,21.8433,213,12.6188,1.52421,0.325,7050
-2.26583e-07,8.46042e-07,-1.6709e-06,-7.6305e-05,-0.000298374,-0.0061381,16.1915,-3.45951,-0.0064302,10.075,16.6655,-0.455385,-3.48457,18.8192,213,15.5967,0.849583,0.325,7051
-3.062e-07,8.27098e-07,-1.66739e-06,-9.30994e-05,-0.000289291,-0.00771008,14.8186,0.353535,-1.51585,8.99245,15.6464,0.348346,-2.33848,16.8034,213,16.5194,0.849583,0.325,7052
-1.67758e-07,7.71944e-07,-1.72657e-06,-5.80957e-05,-0.000275081,-0.00921225,19.4245,6.49257,-1.28683,10.5408,19.6102,6.49156,-1.4715,18.4384,213,14.7562,1.14198,0.325,7053
-2.31265e-07,5.52315e-07,-1.73681e-06,-7.93465e-05,-0.000180806,-0.00786886,19.3033,10.8535,-0.966781,10.1574,19.3477,10.8094,-0.967037,17.6674,213,15.6893,1.99156,0.325,7054
-1.3259e-07,5.9909e-07,-1.74459e-06,-5.16185e-05,-0.000214102,-0.00776289,21.5734,9.5267,-1.06071,11.4001,21.6607,9.51829,-1.13959,19.7596,213,14.1419,1.8548,0.325,7055
-4.07129e-07,8.02484e-07,-1.68306e-06,-0.000127831,-0.000280118,-0.00884927,13.4394,3.4915,0.321987,7.12319,14.0065,3.48626,-0.239873,12.7969,213,17.4422,0.849583,0.325,7056
-4.04608e-07,5.60083e-07,-1.73606e-06,-0.000133107,-0.000207101,-0.00617971,12.5552,5.74599,0.811845,6.08826,12.8533,5.58298,0.676767,10.6112,213,17.4173,1.81212,0.325,7057
-5.40687e-07,7.49584e-07,-1.7381e-06,-0.000190289,-0.00026507,-0.00771025,6.24733,0.703002,0.126024,4.0325,7.18265,0.77606,-0.882351,7.37695,213,18.3297,0.962542,0.325,7058
-6.46487e-07,6.25146e-07,-1.78855e-06,-0.000241391,-0.000230088,-0.0051615,-6.16716,-5.06193,-4.7685,1.25969,-4.2179,-5.04241,-6.73728,2.22482,213,18.7848,1.44693,0.325,7059
8.78361e-07,-3.06131e-07,-1.63193e-06,-0.000299051,-9.7579e-05,-0.00615887,-4.23822,13.5086,-0.0243975,9.48571,14.6821,-1.14673,-4.28936,17.6117,213,0.655674,16.8026,0.325,7060
9.03007e-07,-2.23254e-07,-1.62665e-06,-0.00030563,-7.01045e-05,-0.00770756,-0.233889,17.0967,-0.715644,9.80995,17.9958,-0.224526,-1.62411,18.9589,213,0.655674,15.8276,0.325,7061
7.86194e-07,-3.79669e-07,-1.6908e-06,-0.000282537,-0.000124529,-0.00919949,4.7704,14.121,0.00618,7.55504,14.6001,4.80737,-0.50993,13.2757,213,0.847604,17.5625,0.325,7062
6.18236e-07,-2.83868e-07,-1.74197e-06,-0.000212846,-9.26427e-05,-0.00892845,8.61485,17.4607,-0.791955,9.16206,17.5079,8.59186,-0.816195,15.8711,213,1.60328,16.815,0.325,7063
6.37238e-07,-4.32009e-07,-1.75934e-06,-0.000247068,-0.000139102,-0.00623339,-0.582658,9.0177,-2.97006,6.29908,9.42108,-0.779016,-3.17708,11.5868,213,1.31519,18.0531,0.325,7064
8.61388e-07,-1.64975e-07,-1.67011e-06,-0.000291497,-5.89336e-05,-0.00776797,0.874578,18.4619,-0.763826,9.98663,18.8338,0.878268,-1.13944,19.0447,213,0.841592,14.9984,0.325,7065
8.78543e-07,-1.16952e-07,-1.67687e-06,-0.000301808,-4.12463e-05,-0.00775252,0.567312,20.0686,-0.715176,10.7541,20.4307,0.567467,-1.07744,20.7347,213,0.841592,14.0234,0.325,7066
6.52201e-07,-1.70074e-07,-1.73637e-06,-0.000206815,-5.78043e-05,-0.00892841,8.19272,19.9523,-1.73895,10.8494,19.9579,8.1889,-1.74077,18.8141,213,1.59727,15.226,0.325,7067
9.62232e-07,-8.19574e-08,-1.63075e-06,-0.000317371,-3.70493e-05,-0.00771555,-1.2128,20.0284,-0.735586,11.0962,20.7333,-1.19432,-1.45902,22.0612,213,0.597879,13.1061,0.325,7068
9.66673e-07,-4.78639e-08,-1.6324e-06,-0.000320827,-3.11142e-05,-0.00774264,-1.38998,20.5092,-0.898007,11.4478,21.2249,-1.33283,-1.67081,22.7286,213,0.597879,12.1311,0.325,7069
6.80118e-07,-8.79825e-08,-1.74172e-06,-0.000223356,-3.82307e-05,-0.00887701,7.96196,21.7998,-0.671683,11.2451,21.8033,7.97384,-0.687015,19.6478,213,1.53947,13.4796,0.325,7070
8.55566e-07,-1.75787e-08,-1.69704e-06,-0.000294982,-2.36645e-05,-0.00774858,1.7716,22.1836,-0.442935,11.5409,22.4101,1.77402,-0.671819,21.9613,213,0.967271,11.1043,0.325,7071
8.58994e-07,4.24268e-09,-1.69375e-06,-0.000297849,-2.28015e-05,-0.00771154,1.73956,22.2972,-0.352011,11.5741,22.542,1.74887,-0.60616,22.0651,213,0.967271,10.1293,0.325,7072
6.5767e-07,-2.9832e-08,-1.75455e-06,-0.000214962,-2.6947e-05,-0.00886543,9.00375,22.9023,-1.07975,11.9938,22.9046,9.00462,-1.08296,20.8611,213,1.66515,11.5354,0.325,7073
9.3527e-07,3.14149e-08,-1.63527e-06,-0.000308667,-2.47028e-05,-0.00769956,0.0465706,21.65,-0.316814,11.571,22.2392,0.0434327,-0.902838,22.6837,213,0.716167,9.06465,0.325,7074
9.26908e-07,5.73058e-08,-1.6474e-06,-0.000311559,-3.21653e-05,-0.00883163,2.97301,20.9211,-0.666338,11.2447,21.3712,2.97483,-1.11827,20.748,213,0.716167,8.08965,0.325,7075
6.34797e-07,2.09096e-08,-1.75926e-06,-0.00020741,-2.49218e-05,-0.00890643,10.0128,23.403,-0.813002,12.109,23.4038,10.0132,-0.814196,21.0125,213,1.78344,9.44393,0.325,7076
9.74748e-07,8.76473e-08,-1.6162e-06,-0.000321643,-3.4988e-05,-0.00778353,-1.3101,20.0844,-1.08014,11.3224,20.8011,-1.26341,-1.84358,22.3603,213,0.547658,7.30764,0.325,7077
9.60468e-07,1.26688e-07,-1.61835e-06,-0.000319027,-4.75255e-05,-0.00777659,-1.13798,19.0763,-0.637043,10.6611,19.7734,-0.923325,-1.54881,21.0165,213,0.547658,6.33264,0.325,7078
7.29989e-07,7.38468e-08,-1.74175e-06,-0.000267897,-3.37751e-05,-0.00771376,4.04678,21.5479,-1.72378,11.7003,21.602,4.06745,-1.79853,21.0885,213,1.36383,7.59729,0.325,7079
8.58524e-07,1.70672e-07,-1.66932e-06,-0.00029074,-5.88175e-05,-0.00887928,3.9286,18.9217,-0.860844,10.2359,19.2674,3.92627,-1.20426,18.4495,213,0.841592,5.47658,0.325,7080
8.45501e-07,2.35359e-07,-1.66324e-06,-0.000283785,-7.60263e-05,-0.00778888,1.10382,16.8507,-0.905179,9.27624,17.2431,1.11552,-1.30933,17.4667,213,0.841592,4.50158,0.325,7081
6.85695e-07,1.39067e-07,-1.73883e-06,-0.000250255,-5.11947e-05,-0.00767502,5.71772,20.6228,-0.900851,10.7993,20.6497,5.73872,-0.948788,19.1515,213,1.48925,5.95922,0.325,7082
8.86767e-07,3.10678e-07,-1.61897e-06,-0.000303262,-9.25202e-05,-0.00771613,-0.671498,14.8403,-0.68913,8.7605,15.8377,-0.674749,-1.68329,17.0391,213,0.655674,3.67244,0.325,7083
8.61358e-07,4.19215e-07,-1.63451e-06,-0.00029815,-0.000128773,-0.00612051,-4.83216,10.0748,0.876218,8.30859,11.7156,-0.695123,-4.9016,14.9641,213,0.655674,2.69744,0.325,7084
6.37749e-07,2.47121e-07,-1.74239e-06,-0.000201416,-8.21189e-05,-0.00785475,5.52841,17.2641,-2.07529,9.69329,17.3049,5.49409,-2.08173,16.9223,213,1.59727,4.27402,0.325,7085
6.03463e-07,4.12072e-07,-1.73959e-06,-0.000204941,-0.000133085,-0.00783211,6.12021,13.0204,-0.454652,6.84862,13.1846,6.01408,-0.512681,11.8665,213,1.60328,2.68498,0.325,7086
7.74657e-07,5.23784e-07,-1.71004e-06,-0.000276031,-0.000170206,-0.00919748,4.07575,10.2553,-0.346163,5.91501,10.8639,4.08701,-0.966072,10.2813,213,0.847604,1.93754,0.325,7087
-8.61438e-07,4.17683e-07,-1.63813e-06,-0.000290684,-0.000129732,-0.00771095,-0.723023,11.4538,-0.399839,6.92314,12.3271,-0.477078,-1.51913,13.3558,213,19.4443,2.69744,0.325,7088
-8.85516e-07,3.10281e-07,-1.61929e-06,-0.000299976,-9.15883e-05,-0.00775825,-0.72109,14.8416,-0.930074,8.70585,15.6613,-0.720535,-1.75036,16.9203,213,19.4443,3.67244,0.325,7089
-7.79489e-07,5.2411e-07,-1.71505e-06,-0.000277565,-0.000177795,-0.00925501,3.86252,9.73886,-0.0716347,5.49142,10.2968,3.91896,-0.68603,9.55264,213,19.2524,1.93754,0.325,7090
-6.02407e-07,4.10621e-07,-1.74449e-06,-0.000231277,-0.000130133,-0.00620432,2.59531,11.7407,-0.0857705,6.12106,11.9851,2.52215,-0.257018,11.1162,213,18.4967,2.68498,0.325,7091
-8.44924e-07,2.34712e-07,-1.66266e-06,-0.000284485,-7.62753e-05,-0.00776861,1.11201,16.8891,-0.733592,9.21502,17.286,1.12564,-1.14408,17.4065,213,19.2584,4.50158,0.325,7092
-8.58284e-07,1.70156e-07,-1.66584e-06,-0.000289779,-5.75351e-05,-0.00883742,4.11356,19.1248,-0.684874,10.2683,19.489,4.11204,-1.04754,18.5043,213,19.2584,5.47658,0.325,7093
-6.37964e-07,2.46538e-07,-1.74052e-06,-0.000200454,-8.25164e-05,-0.0078719,5.68045,17.263,-2.08083,9.69436,17.3008,5.64964,-2.08787,16.9048,213,18.5027,4.27402,0.325,7094
-9.57809e-07,1.27774e-07,-1.61528e-06,-0.00031535,-4.77721e-05,-0.00770343,-0.45328,19.4256,-0.119298,10.6238,20.2064,-0.312077,-1.04127,20.8926,213,19.5523,6.33264,0.325,7095
-9.68931e-07,8.78191e-08,-1.61786e-06,-0.000309024,-3.61664e-05,-0.00773415,-0.394593,20.3202,-0.882783,11.4581,21.1682,-0.377458,-1.74794,22.2626,213,19.5523,7.30764,0.325,7096
-6.85372e-07,1.3882e-07,-1.73256e-06,-0.000245258,-5.08105e-05,-0.00659981,3.93855,20.4791,-1.74192,11.1298,20.4934,3.94868,-1.7663,20.0235,213,18.6108,5.95922,0.325,7097
-9.22649e-07,5.73282e-08,-1.64283e-06,-0.000304097,-3.16191e-05,-0.00768898,0.834487,21.225,-0.383256,11.4153,21.832,0.842753,-0.998538,21.9679,213,19.3838,8.08965,0.325,7098
-9.32961e-07,3.08014e-08,-1.62646e-06,-0.00030985,-2.52236e-05,-0.00766019,0.761251,21.9179,-0.0355846,11.5758,22.5185,0.758198,-0.633131,22.4883,213,19.3838,9.06465,0.325,7099
-7.29263e-07,7.30658e-08,-1.73271e-06,-0.000242018,-3.41628e-05,-0.00772529,5.29988,22.1496,-0.743747,11.4664,22.1609,5.31676,-0.771961,20.5757,213,18.7362,7.59729,0.325,7100
-8.57305e-07,4.48323e-09,-1.67667e-06,-0.00029176,-2.21277e-05,-0.00873868,5.22653,22.5599,-0.019163,11.5534,22.8235,5.22709,-0.283277,20.9036,213,19.1327,10.1293,0.325,7101
-8.51403e-07,-1.70303e-08,-1.68495e-06,-0.000288444,-2.46755e-05,-0.00770103,2.69579,22.4803,-0.133984,11.5264,22.6977,2.69948,-0.355094,21.6875,213,19.1327,11.1043,0.325,7102
-6.37603e-07,2.06516e-08,-1.74811e-06,-0.000230429,-2.43552e-05,-0.00773692,8.54541,24.1117,-0.28829,12.2044,24.1164,8.54499,-0.292532,21.4052,213,18.3166,9.44392,0.325,7103
-9.59235e-07,-4.76957e-08,-1.63569e-06,-0.000319724,-3.1798e-05,-0.00876728,2.51188,20.8158,-0.660925,11.2914,21.367,2.51541,-1.21569,20.9676,213,19.5021,12.1311,0.325,7104
-9.58459e-07,-8.25345e-08,-1.62799e-06,-0.00031939,-3.788e-05,-0.00766465,-0.631813,20.2913,-0.208205,10.9116,20.9461,-0.617767,-0.877074,21.6947,213,19.5021,13.1061,0.325,7105
-6.58873e-07,-2.93171e-08,-1.74228e-06,-0.00023834,-2.66034e-05,-0.00773291,7.44097,23.4404,-0.787397,12.1235,23.4516,7.43779,-0.795443,21.3559,213,18.4348,11.5354,0.325,7106
-8.78152e-07,-1.16676e-07,-1.67363e-06,-0.000302584,-4.07809e-05,-0.00879875,3.59064,20.4107,-0.478411,10.7828,20.7492,3.59001,-0.816311,19.7348,213,19.2584,14.0234,0.325,7107
-8.62323e-07,-1.64233e-07,-1.66986e-06,-0.000291803,-5.90164e-05,-0.00776122,0.883594,18.4753,-0.689405,9.9556,18.8438,0.893125,-1.06742,19.0069,213,19.2584,14.9984,0.325,7108
-6.80472e-07,-8.78526e-08,-1.73467e-06,-0.000247414,-3.82426e-05,-0.00769202,6.22024,22.148,-0.28663,11.2647,22.1911,6.22883,-0.338294,20.0685,213,18.5605,13.4796,0.325,7109
-9.04723e-07,-2.23435e-07,-1.62818e-06,-0.000308091,-7.02153e-05,-0.00770283,-0.469661,17.0403,-0.681756,9.76953,17.943,-0.457984,-1.59609,18.9956,213,19.4443,15.8276,0.325,7110
-8.80563e-07,-3.04703e-07,-1.63181e-06,-0.000300736,-9.56066e-05,-0.00616921,-4.5099,13.5717,-0.343317,9.64401,14.7486,-1.49061,-4.53946,17.9587,213,19.4443,16.8026,0.325,7111
-6.52557e-07,-1.69335e-07,-1.73875e-06,-0.000208067,-5.84582e-05,-0.00892915,8.02302,19.8339,-1.80118,10.8228,19.8412,8.01893,-1.80438,18.7722,213,18.5027,15.226,0.325,7112
-6.1704e-07,-2.82774e-07,-1.74138e-06,-0.000216235,-9.08658e-05,-0.00891192,8.41618,17.6421,-0.492411,9.10583,17.6882,8.40111,-0.523453,15.7728,213,18.4967,16.815,0.325,7113
-7.8775e-07,-3.77683e-07,-1.69722e-06,-0.00028382,-0.000125074,-0.00917731,4.67752,14.0584,0.0589297,7.47456,14.5181,4.70785,-0.431061,13.1553,213,19.2524,17.5625,0.325,7114
-6.38157e-07,-4.31843e-07,-1.76479e-06,-0.000222936,-0.000144206,-0.0067992,-0.155492,8.31789,-4.84495,6.67654,8.50149,-0.332461,-4.85158,11.7636,213,18.7848,18.0531,0.325,7115
-3.64982e-07,-5.28147e-07,-1.72573e-06,-0.000128249,-0.000198019,-0.00620412,13.4303,7.2063,0.37088,7.66184,14.8023,6.72664,-0.521416,13.2771,213,17.4422,18.6504,0.325,7116
-2.65816e-07,-5.36017e-07,-1.71635e-06,-8.93903e-05,-0.0002071,-0.00776194,17.5392,8.87279,-1.71053,10.2379,18.2134,8.7504,-2.26236,17.7495,213,16.5194,18.6504,0.325,7117
-5.08924e-07,-5.01326e-07,-1.75534e-06,-0.000190761,-0.000182431,-0.00921284,10.8561,11.4663,-0.112122,6.87654,13.0258,9.91176,-0.727274,12.4907,213,18.3297,18.5375,0.325,7118
-3.9684e-07,-3.72254e-07,-1.73892e-06,-0.000142942,-0.000105672,-0.00790328,14.8562,16.0628,-0.449498,8.72714,16.9102,14.1034,-0.544083,16.2339,213,17.4173,17.6879,0.325,7119
-1.92154e-07,-5.50281e-07,-1.71701e-06,-6.92883e-05,-0.000202789,-0.00772019,19.6759,9.77792,-2.15092,11.5372,20.3813,9.61473,-2.69311,19.9979,213,15.5967,18.6504,0.325,7120
-1.06747e-07,-5.97464e-07,-1.71468e-06,-4.24047e-05,-0.000223559,-0.00894159,22.1867,10.6661,-0.645067,11.9829,22.7671,10.6394,-1.19873,20.7555,213,14.048,18.7974,0.325,7121
-7.26893e-08,-6.07671e-07,-1.71349e-06,-3.12537e-05,-0.000232412,-0.00895663,22.6345,9.8141,-1.37163,12.3955,23.0309,9.80608,-1.76003,21.4856,213,13.1253,18.7974,0.325,7122
-2.20579e-07,-3.62522e-07,-1.72306e-06,-7.9644e-05,-0.000110699,-0.00598362,21.742,17.5908,-0.0250224,11.1301,22.1456,17.2769,-0.114667,20.2693,213,15.6841,17.5146,0.325,7123
-1.4452e-07,-5.04122e-07,-1.73684e-06,-5.28503e-05,-0.000192472,-0.00780675,22.1249,11.7918,-0.860726,11.6995,22.3574,11.7401,-1.04153,20.293,213,14.7511,18.3642,0.325,7124
-1.21342e-07,-3.95298e-07,-1.73659e-06,-4.89535e-05,-0.000137955,-0.00623541,25.1375,17.1692,0.160389,12.5568,25.2728,17.0351,0.159188,22.1738,213,14.1355,17.6616,0.325,7125
-5.09495e-08,-5.85736e-07,-1.72022e-06,-2.60261e-05,-0.000221612,-0.00675235,24.2051,7.54698,-1.4164,13.0712,24.468,7.54199,-1.67436,22.9658,213,12.3516,18.6819,0.325,7126
-2.8638e-08,-5.91732e-07,-1.71818e-06,-2.17089e-05,-0.000213749,-0.00674642,24.9271,8.32957,-1.20451,13.3717,25.2358,8.32415,-1.50774,23.4295,213,11.4289,18.6819,0.325,7127
-6.28652e-08,-4.53899e-07,-1.73761e-06,-2.95849e-05,-0.000150229,-0.00780438,25.9991,17.0545,-0.267579,13.1821,26.0573,17.0357,-0.306938,23.208,213,12.6587,17.9793,0.325,7128
-9.35563e-09,-5.41272e-07,-1.73161e-06,-2.00651e-05,-0.000199633,-0.00674941,25.7863,10.3873,-0.744526,13.3915,25.9126,10.3868,-0.870343,23.2927,213,10.5114,18.4382,0.325,7129
9.51726e-09,-5.43992e-07,-1.73078e-06,-1.94643e-05,-0.000197795,-0.00678388,25.8468,10.7038,-0.988386,13.5041,25.9334,10.7037,-1.07489,23.4534,213,9.58864,18.4382,0.325,7130
-2.12572e-08,-4.04555e-07,-1.7357e-06,-2.40745e-05,-9.17239e-05,-0.00944147,25.8196,19.359,-0.553144,13.2029,25.8361,19.3589,-0.5696,23.8366,213,10.9675,17.6201,0.325,7131
2.8879e-08,-5.92482e-07,-1.71784e-06,-2.29446e-05,-0.000215168,-0.0078716,23.9709,9.74575,-2.38516,13.3522,24.1502,9.73544,-2.55415,23.151,213,8.64142,18.6863,0.325,7132
5.21749e-08,-5.85583e-07,-1.7192e-06,-2.68666e-05,-0.000219323,-0.00676322,24.2459,7.85153,-1.23649,12.9881,24.4941,7.84891,-1.48207,22.7914,213,7.71869,18.6863,0.325,7133
2.09194e-08,-4.03753e-07,-1.73961e-06,-2.41119e-05,-0.000138163,-0.00924105,26.0542,19.35,0.230173,12.9295,26.0722,19.3489,0.213214,23.2386,213,9.10278,17.6245,0.325,7134
7.34298e-08,-6.15519e-07,-1.70814e-06,-3.08453e-05,-0.000233205,-0.00783313,22.8817,7.96952,-1.73854,12.7305,23.3066,7.96036,-2.15433,22.2045,213,6.94707,18.8284,0.325,7135
1.07213e-07,-6.03855e-07,-1.70969e-06,-4.2406e-05,-0.000228671,-0.00784446,22.3523,8.79706,-0.614783,11.9698,22.8514,8.77131,-1.08814,20.8394,213,6.02434,18.8284,0.325,7136
6.52467e-08,-4.58771e-07,-1.73971e-06,-3.03813e-05,-0.00015673,-0.00928413,24.997,17.5979,-0.0202429,12.5544,25.0498,17.5839,-0.0590038,22.3323,213,7.38394,18.0147,0.325,7137
1.91708e-07,-5.50564e-07,-1.71534e-06,-6.95893e-05,-0.000203777,-0.0088543,20.0753,11.4773,-1.19636,11.0138,20.5169,11.35,-1.51067,19.1656,213,4.50329,18.6504,0.325,7138
2.65267e-07,-5.36915e-07,-1.71555e-06,-8.89861e-05,-0.000207269,-0.00776079,17.5459,8.85068,-1.77602,10.2068,18.1531,8.72804,-2.26057,17.696,213,3.58056,18.6504,0.325,7139
1.44392e-07,-5.05862e-07,-1.73349e-06,-5.30111e-05,-0.000192447,-0.00782941,22.0155,11.6776,-1.09839,11.722,22.2077,11.6233,-1.23627,20.3349,213,5.34626,18.3773,0.325,7140
2.20485e-07,-3.64793e-07,-1.72424e-06,-7.92593e-05,-0.000125012,-0.00774763,21.6832,18.3957,-0.186739,11.0946,21.9802,18.1209,-0.208933,20.5333,213,4.41318,17.5278,0.325,7141
1.2266e-07,-4.01303e-07,-1.73584e-06,-4.86135e-05,-0.000138263,-0.00776924,24.3841,17.7374,-0.305192,12.4369,24.5398,17.6104,-0.333926,22.2342,213,5.93424,17.7057,0.325,7142
3.64977e-07,-5.29014e-07,-1.72553e-06,-0.000128935,-0.000199162,-0.00621244,13.2687,7.03435,0.340575,7.68574,14.7303,6.55461,-0.641232,13.3211,213,2.65784,18.6504,0.325,7143
3.97223e-07,-3.73329e-07,-1.74079e-06,-0.00014397,-0.000108158,-0.00894958,15.7225,16.8998,-0.329331,9.01012,17.6303,15.0525,-0.389894,16.8796,213,2.68271,17.6879,0.325,7144
5.08369e-07,-5.01076e-07,-1.75533e-06,-0.000189936,-0.000182969,-0.00770823,8.58716,9.28032,0.506645,5.79939,11.169,7.63495,-0.4298,10.2971,213,1.77033,18.5375,0.325,7145
-1.37476e-08,-5.25709e-09,-1.71619e-06,-2.77789e-05,-2.50501e-05,-0.00931598,28.2515,28.4166,-0.00382899,14.2103,28.4167,28.2514,-0.00383335,28.3382,213,10.5339,10.5968,0.325,7146
-4.49378e-08,2.99056e-09,-1.71589e-06,-3.11212e-05,-2.51985e-05,-0.00630399,31.194,31.7214,-0.00491779,15.8632,31.7215,31.194,-0.00496647,31.466,213,11.5915,10.2659,0.325,7147
-2.86463e-08,2.6197e-08,-1.71594e-06,-3.0061e-05,-2.55973e-05,-0.00888356,28.5204,28.8052,0.000485922,14.4025,28.8055,28.5201,0.000463473,28.6634,213,11.0622,9.34368,0.325,7148
-2.90782e-08,4.95712e-08,-1.71579e-06,-2.99393e-05,-2.91709e-05,-0.00780835,29.5904,29.6474,-0.00757333,14.8341,29.6606,29.5772,-0.0075864,29.6266,213,11.0844,8.49751,0.325,7149
6.28306e-10,4.02128e-08,-1.716e-06,-2.66756e-05,-2.84506e-05,-0.00630523,31.6307,31.4795,0.0140148,15.8084,31.6307,31.4795,0.0140021,31.5414,213,10.0268,8.82834,0.325,7150
2.99078e-08,5.03023e-08,-1.71594e-06,-2.99352e-05,-2.94254e-05,-0.00780878,29.5765,29.6143,-0.0249387,14.8253,29.6256,29.5652,-0.0249808,29.6204,213,8.99232,8.46722,0.325,7151
3.07927e-08,2.69198e-08,-1.71608e-06,-3.01923e-05,-2.60039e-05,-0.00888446,28.4907,28.763,-0.0192871,14.3914,28.7635,28.4902,-0.0193133,28.6472,213,8.97013,9.3134,0.325,7152
4.99193e-08,1.20096e-08,-1.71605e-06,-3.15261e-05,-2.51871e-05,-0.00780979,29.5408,30.0108,-0.0106544,15.0107,30.0108,29.5408,-0.0106733,29.7893,213,8.35256,9.89197,0.325,7153
1.86237e-08,3.18199e-09,-1.71624e-06,-2.86977e-05,-2.46961e-05,-0.00630641,31.5112,31.8672,-0.00876996,15.9381,31.8674,31.511,-0.00877404,31.6995,213,9.38706,10.2531,0.325,7154
3.6269e-09,-1.97705e-08,-1.71627e-06,-2.86464e-05,-2.49435e-05,-0.00630668,31.5013,31.8281,-0.0244088,15.9263,31.8282,31.5012,-0.0244238,31.6904,213,9.91635,11.1754,0.325,7155
2.26711e-07,1.69876e-07,-1.70534e-06,-8.14338e-05,-5.93776e-05,-0.0088439,23.1014,24.5178,-0.0645428,12.3198,24.5748,23.0447,-0.064859,23.9114,213,4.71445,5.48368,0.325,7156
2.68087e-07,1.22778e-07,-1.7024e-06,-9.01527e-05,-4.72473e-05,-0.00627001,23.1315,26.9307,-0.103546,13.5271,26.9502,23.1124,-0.103992,25.3541,213,4.2808,6.34262,0.325,7157
1.99457e-07,1.15743e-07,-1.70859e-06,-7.12533e-05,-4.57862e-05,-0.00627267,25.5745,27.8393,0.101821,13.8859,27.8734,25.5406,0.101629,26.682,213,5.12928,6.54949,0.325,7158
1.72591e-07,2.12789e-07,-1.70754e-06,-6.26606e-05,-7.66297e-05,-0.00776664,24.8309,23.8053,-0.00402007,12.4673,24.9294,23.7079,-0.00510398,24.3467,213,5.42512,4.90775,0.325,7159
2.33542e-07,2.2393e-07,-1.70361e-06,-8.25783e-05,-7.93504e-05,-0.00624948,22.9984,23.2834,0.0203627,11.8638,23.7474,22.535,0.0197467,23.1453,213,4.57664,4.70087,0.325,7160
1.58649e-07,9.36226e-08,-1.71161e-06,-6.0465e-05,-3.93224e-05,-0.00628389,27.0782,28.9493,-0.0383316,14.5045,28.9706,27.057,-0.0384454,28.1012,213,5.78426,7.09838,0.325,7161
1.31957e-07,1.32891e-07,-1.71216e-06,-5.1558e-05,-5.00285e-05,-0.00929374,25.7155,25.8017,0.0302857,12.9428,25.9155,25.6019,0.030026,25.7301,213,6.21792,6.23944,0.325,7162
1.33931e-07,1.89292e-07,-1.70951e-06,-5.16966e-05,-6.76403e-05,-0.0077776,26.2663,25.0715,0.0833919,13.1192,26.3217,25.0162,0.0832928,25.6106,213,6.12758,5.27546,0.325,7163
1.38321e-07,2.48905e-07,-1.70577e-06,-5.29427e-05,-8.59877e-05,-0.00776496,25.5619,23.112,-0.0491214,12.82,25.5904,23.0839,-0.0495581,24.4831,213,5.98976,4.49265,0.325,7164
1.0434e-07,1.56856e-07,-1.71215e-06,-4.3359e-05,-5.87333e-05,-0.00628342,28.457,27.0982,-0.17332,14.3311,28.4887,27.0667,-0.17349,27.9783,213,6.78256,5.82434,0.325,7165
9.2217e-08,-1.06893e-07,-1.7134e-06,-4.21618e-05,-4.27664e-05,-0.00628637,29.2451,29.1864,0.0374559,14.6786,29.3946,29.037,0.0374139,29.18,213,7.08684,13.9275,0.325,7166
6.69809e-08,-8.31165e-08,-1.71461e-06,-3.45237e-05,-3.75708e-05,-0.00930603,27.4114,27.2244,0.00453448,13.7212,27.4468,27.189,0.00449226,27.3143,213,7.78351,13.3077,0.325,7167
1.18171e-07,-7.4469e-08,-1.71403e-06,-4.80165e-05,-3.43895e-05,-0.00887355,26.7036,27.5689,-0.00955558,13.7945,27.5794,26.6932,-0.00965026,27.1568,213,6.54565,13.1056,0.325,7168
1.20979e-07,-1.30954e-07,-1.71186e-06,-4.86402e-05,-5.08079e-05,-0.00885778,26.2383,26.0972,-0.0153,13.1886,26.3617,25.9739,-0.0154298,26.1854,213,6.41097,14.4695,0.325,7169
6.90092e-08,-1.44016e-07,-1.71099e-06,-3.50563e-05,-5.39281e-05,-0.00628266,29.7637,28.0902,0.113084,14.8349,29.7828,28.0712,0.113031,28.852,213,7.64883,14.6717,0.325,7170
1.34646e-07,-4.13948e-08,-1.71389e-06,-5.35334e-05,-2.75339e-05,-0.00629427,28.3195,30.6237,-0.0888005,15.3586,30.6278,28.3159,-0.0893017,29.6289,213,6.25704,12.0431,0.325,7171
1.73854e-07,-5.91179e-08,-1.71197e-06,-6.32819e-05,-3.12811e-05,-0.00628594,27.0243,29.8725,0.0321425,14.9243,29.8807,27.0162,0.0320854,28.5244,213,5.56036,12.6629,0.325,7172
2.31165e-07,-4.54124e-08,-1.70884e-06,-8.12718e-05,-2.80123e-05,-0.00776867,24.3942,28.3553,0.165351,14.0969,28.359,24.3906,0.165264,26.4339,213,4.78124,12.2156,0.325,7173
2.05893e-07,-7.86736e-08,-1.71015e-06,-7.43097e-05,-3.4818e-05,-0.00886033,24.3316,26.8536,-0.0699005,13.4655,26.8609,24.3244,-0.0700486,25.7566,213,5.06986,13.2781,0.325,7174
2.19533e-07,-1.05054e-07,-1.70831e-06,-7.93631e-05,-4.15844e-05,-0.00778404,24.0953,26.8962,-0.109262,13.5115,26.9136,24.0781,-0.109385,25.7227,213,4.85747,13.9743,0.325,7175
2.34951e-07,-1.47218e-07,-1.70199e-06,-8.36785e-05,-5.4094e-05,-0.00776351,23.4517,25.6499,0.301757,12.7004,25.7017,23.4006,0.301022,24.3319,213,4.60968,14.8635,0.325,7176
1.64761e-07,-1.36435e-07,-1.70894e-06,-6.03537e-05,-5.20297e-05,-0.00777834,25.7784,26.4095,-0.00252874,13.2529,26.5032,25.6847,-0.00259316,26.1062,213,5.60118,14.6146,0.325,7177
2.90296e-07,-8.65041e-08,-1.70572e-06,-9.88801e-05,-3.70403e-05,-0.00776663,22.2667,26.859,0.0443276,13.4115,26.867,22.2589,0.0440444,24.8416,213,4.07836,13.527,0.325,7178
1.29574e-07,-1.81194e-07,-1.70692e-06,-5.18945e-05,-6.26155e-05,-0.00778614,26.3539,25.559,-0.017858,13.236,26.454,25.4592,-0.0180681,25.9889,213,6.16318,15.3587,0.325,7179
-1.89237e-07,-5.71891e-08,-1.71137e-06,-6.64873e-05,-3.09119e-05,-0.00779227,25.7544,28.392,-0.0528747,14.2267,28.4003,25.7464,-0.0531278,27.2236,213,14.7812,12.6097,0.325,7180
-1.50471e-07,-4.1239e-08,-1.71209e-06,-5.76041e-05,-2.72262e-05,-0.00779611,26.785,29.0303,-0.022775,14.5293,29.0357,26.7798,-0.0229454,27.9989,213,14.1332,12.0401,0.325,7181
-1.37325e-07,-7.09637e-08,-1.71356e-06,-5.34773e-05,-3.36476e-05,-0.00779368,27.0246,28.4903,-0.0228182,14.2616,28.5003,27.0148,-0.0229578,27.8103,213,13.9368,13.0139,0.325,7182
-2.17527e-07,-7.64481e-08,-1.71066e-06,-7.78912e-05,-3.46843e-05,-0.00628376,25.0922,28.9225,-0.0308402,14.4797,28.9284,25.0864,-0.0310066,27.2424,213,15.197,13.2071,0.325,7183
-2.35399e-07,-4.58554e-08,-1.70926e-06,-8.11325e-05,-2.77938e-05,-0.00928783,23.7821,26.954,0.0013791,13.4772,26.9555,23.7808,0.00118429,25.5155,213,15.3935,12.2333,0.325,7184
-1.7671e-07,-1.28894e-07,-1.70962e-06,-6.4068e-05,-4.95592e-05,-0.00627729,26.2702,27.565,-0.0402841,13.8343,27.6281,26.2074,-0.0405674,26.9864,213,14.6827,14.4707,0.325,7185
-2.36547e-07,-1.43302e-07,-1.70354e-06,-8.45176e-05,-5.30341e-05,-0.00776813,23.3165,25.6507,0.0976976,12.7996,25.6965,23.2711,0.0972583,24.4769,213,15.5073,14.7906,0.325,7186
-2.32515e-07,-1.02109e-07,-1.70864e-06,-8.32758e-05,-4.00433e-05,-0.00778034,23.7398,26.9465,-0.084351,13.5212,26.958,23.7283,-0.0844242,25.581,213,15.4094,13.9034,0.325,7187
-2.89246e-07,-8.70504e-08,-1.70707e-06,-9.93461e-05,-3.64643e-05,-0.0088412,22.0808,26.0911,-0.0645655,13.0796,26.0945,22.0775,-0.0647054,24.4,213,16.0216,13.527,0.325,7188
-1.33342e-07,-1.10343e-07,-1.71266e-06,-5.24471e-05,-4.37818e-05,-0.00928701,25.7878,26.3066,0.0320661,13.1548,26.3416,25.7529,0.0319306,26.0203,213,13.9095,14.0344,0.325,7189
-1.35021e-07,-1.54801e-07,-1.70932e-06,-5.36195e-05,-5.62121e-05,-0.00627438,27.3161,27.0808,-0.0977307,13.8176,27.5374,26.8597,-0.0978604,27.3027,213,14.0073,14.9217,0.325,7190
-1.03441e-07,-8.79813e-08,-1.7141e-06,-4.37123e-05,-3.87669e-05,-0.0062909,29.1741,29.6199,0.0151527,14.8269,29.6689,29.1251,0.0151283,29.3857,213,13.2615,13.4648,0.325,7191
-1.96104e-07,1.18388e-07,-1.70894e-06,-6.98532e-05,-4.63856e-05,-0.00778821,24.9457,26.7081,-0.0133756,13.3743,26.7352,24.9188,-0.0134932,25.8883,213,14.9361,6.49479,0.325,7192
-2.6349e-07,1.25769e-07,-1.70382e-06,-8.88704e-05,-4.79099e-05,-0.00628083,23.1642,26.7918,-0.356773,13.5841,26.811,23.1453,-0.357103,25.5334,213,15.7851,6.2884,0.325,7193
-2.26091e-07,1.70367e-07,-1.70537e-06,-8.09484e-05,-5.93895e-05,-0.00777814,23.4222,25.0208,-0.107221,12.5924,25.0772,23.366,-0.107474,24.3742,213,15.3851,5.48319,0.325,7194
-2.33109e-07,2.24252e-07,-1.70255e-06,-8.24705e-05,-7.95022e-05,-0.00774374,22.7701,22.9901,0.104077,11.6378,23.3791,22.3816,0.103539,22.7932,213,15.5232,4.70075,0.325,7195
-1.7245e-07,2.12853e-07,-1.70751e-06,-6.21547e-05,-7.69244e-05,-0.00625819,25.63,24.3242,0.122221,12.805,25.7313,24.2238,0.121357,24.8904,213,14.6742,4.90714,0.325,7196
-1.30782e-07,1.33408e-07,-1.71174e-06,-5.11407e-05,-5.02253e-05,-0.00778837,26.8032,26.8711,0.0113227,13.5079,27.027,26.6475,0.0111315,26.8281,213,13.8685,6.23298,0.325,7197
-1.55057e-07,9.62068e-08,-1.71108e-06,-5.91257e-05,-4.01885e-05,-0.00778868,26.2518,27.6528,-0.0321066,13.8528,27.6733,26.2314,-0.032292,27.0136,213,14.2685,7.03819,0.325,7198
-1.38401e-07,2.4889e-07,-1.7061e-06,-5.3093e-05,-8.63468e-05,-0.00776,25.5025,23.0371,-0.141388,12.8364,25.5313,23.0084,-0.141544,24.509,213,14.1098,4.49252,0.325,7199
-1.33801e-07,1.89273e-07,-1.71008e-06,-5.21987e-05,-6.73983e-05,-0.00778366,26.1401,25.0096,-0.119975,13.1571,26.1942,24.9555,-0.120054,25.7173,213,13.9717,5.27495,0.325,7200
-1.03118e-07,1.5741e-07,-1.71185e-06,-4.32637e-05,-5.87701e-05,-0.00778455,27.403,26.2504,0.086642,13.6716,27.4297,26.2239,0.0864428,26.7607,213,13.3041,5.81835,0.325,7201
2.08039e-08,-2.06665e-07,-1.70557e-06,-2.56072e-05,-7.08771e-05,-0.00628815,30.3473,26.3392,0.122512,15.1131,30.3482,26.3388,0.122001,28.4343,213,9.22861,15.6282,0.325,7202
1.9549e-08,-2.99459e-07,-1.7116e-06,-2.42761e-05,-9.89999e-05,-0.00930657,26.9046,22.4989,0.196961,13.3609,26.9138,22.4946,0.192065,24.8091,213,9.22802,16.7147,0.325,7203
3.66354e-10,-2.59493e-07,-1.70934e-06,-2.36406e-05,-8.98448e-05,-0.00628346,30.0578,24.189,0.460486,14.8019,30.0611,24.189,0.457232,27.1483,213,10.0506,16.2899,0.325,7204
-1.5099e-08,-3.14491e-07,-1.71833e-06,-2.40024e-05,-0.000104017,-0.00885424,27.0506,21.881,-0.0795247,13.5664,27.0528,21.8792,-0.0799576,24.9515,213,10.6919,16.8638,0.325,7205
-1.55944e-08,-2.17144e-07,-1.70879e-06,-2.55665e-05,-7.45732e-05,-0.00928902,27.2778,24.3595,-0.0358441,13.6577,27.2793,24.3583,-0.036175,25.9784,213,10.6925,15.7773,0.325,7206
2.26969e-08,-1.45979e-07,-1.71064e-06,-2.72566e-05,-5.46224e-05,-0.00778755,29.1716,27.1485,0.0843104,14.5447,29.1737,27.1465,0.0843001,28.1306,213,9.18794,14.6665,0.325,7207
4.50318e-08,-1.69799e-07,-1.7086e-06,-2.86782e-05,-6.26235e-05,-0.00929446,27.2516,25.2326,-0.126035,13.6922,27.2582,25.2262,-0.126262,26.4271,213,8.36537,15.0913,0.325,7208
-3.67697e-09,-1.31754e-07,-1.71232e-06,-2.53277e-05,-5.14832e-05,-0.00929735,27.8597,26.2962,0.0208258,13.9196,27.8599,26.296,0.0207743,27.0911,213,10.2011,14.3913,0.325,7209
1.90894e-08,-1.06275e-07,-1.71353e-06,-2.775e-05,-4.28929e-05,-0.00779947,29.43,28.304,0.0153794,14.7079,29.4312,28.3028,0.0153284,28.8682,213,9.33788,13.8544,0.325,7210
-3.82362e-08,-2.06087e-07,-1.70974e-06,-2.80364e-05,-7.22406e-05,-0.00629011,29.9491,26.0308,0.00572304,14.9745,29.9543,26.0259,0.00537778,28.1908,213,11.5298,15.6408,0.325,7211
-2.14754e-08,-1.68804e-07,-1.71008e-06,-2.71701e-05,-6.05739e-05,-0.00628899,30.5028,27.537,0.107449,15.1995,30.5064,27.5335,0.107359,29.027,213,10.8885,15.0669,0.325,7212
-2.62336e-08,-1.24444e-07,-1.71302e-06,-2.82031e-05,-4.84832e-05,-0.00629517,30.6901,28.8883,-0.161958,15.4272,30.6923,28.8862,-0.162075,29.9921,213,11.0384,14.2548,0.325,7213
-1.53381e-08,3.18103e-07,-1.70113e-06,-2.58989e-05,-0.000103642,-0.00928972,26.5165,21.8125,-0.087767,13.3024,26.5169,21.8123,-0.0878905,24.5923,213,10.6791,3.87002,0.325,7214
-1.5453e-08,4.64879e-07,-1.71624e-06,-2.57206e-05,-0.000150499,-0.00624946,27.454,16.3638,-0.18655,13.8211,27.4548,16.3638,-0.187409,24.0941,213,10.6791,2.71232,0.325,7215
9.84922e-10,3.85639e-07,-1.69879e-06,-2.55944e-05,-0.000127874,-0.00627503,28.8067,19.7331,1.23994,13.7891,28.8123,19.7333,1.23416,24.3434,213,10.05,3.28128,0.325,7216
1.63762e-08,4.63761e-07,-1.70535e-06,-2.32293e-05,-0.000147357,-0.00781009,26.9879,17.7849,0.381429,13.3122,26.9957,17.7873,0.371222,23.4198,213,9.42062,2.7126,0.325,7217
1.59413e-08,3.186e-07,-1.69292e-06,-2.35967e-05,-0.000103293,-0.00890031,27.1872,22.0676,0.164098,13.5127,27.1886,22.0671,0.163199,24.8634,213,9.42062,3.8703,0.325,7218
2.26608e-08,2.33396e-07,-1.70604e-06,-2.65824e-05,-7.99631e-05,-0.0062729,29.9745,25.2492,0.246553,14.8658,29.9781,25.2457,0.246444,27.6706,213,9.18824,4.79022,0.325,7219
2.29173e-08,1.7226e-07,-1.71143e-06,-2.76016e-05,-6.23044e-05,-0.00778293,28.8613,26.2761,-0.0511648,14.4565,28.8617,26.2757,-0.0512234,27.7106,213,9.18701,5.63775,0.325,7220
1.95692e-10,1.9588e-07,-1.71068e-06,-2.5222e-05,-7.14307e-05,-0.0102805,26.4492,24.1423,0.0863303,13.1817,26.4495,24.1422,0.0861398,25.2888,213,10.0488,5.28651,0.325,7221
3.81601e-08,2.82811e-07,-1.70018e-06,-2.70467e-05,-9.72547e-05,-0.0078019,27.6624,22.457,-0.640797,14.1566,27.6705,22.4509,-0.642764,26.0979,213,8.55886,4.22154,0.325,7222
-2.26756e-08,1.7221e-07,-1.71275e-06,-2.77845e-05,-6.20117e-05,-0.00628728,30.3081,27.2689,-0.0693107,15.189,30.3086,27.2685,-0.0694268,28.9778,213,10.9088,5.63598,0.325,7223
-2.21873e-08,2.3281e-07,-1.70816e-06,-2.74451e-05,-7.89631e-05,-0.0077722,28.4238,24.5882,0.0471043,14.1908,28.4281,24.5845,0.0464697,26.6684,213,10.91,4.78846,0.325,7224
-3.90098e-08,2.81305e-07,-1.70544e-06,-2.81906e-05,-9.67979e-05,-0.00776563,27.8138,22.7303,-0.011349,13.9136,27.8157,22.7285,-0.0114687,25.6645,213,11.5391,4.21949,0.325,7225
-4.10583e-07,3.79514e-09,-1.71337e-06,-0.000138516,-2.24519e-05,-0.00889811,19.0197,26.412,0.161289,13.1258,26.4125,19.0197,0.160777,23.4464,213,17.0148,10.1708,0.325,7226
-4.73217e-07,1.98708e-08,-1.72323e-06,-0.000155666,-2.40295e-05,-0.00781791,16.1772,25.9368,-1.48571,13.7126,25.9387,16.1762,-1.4866,24.0772,213,17.4447,9.4784,0.325,7227
-3.33771e-07,2.8026e-08,-1.70478e-06,-0.000108487,-2.46161e-05,-0.0062926,21.8892,29.3271,0.561061,14.3887,29.333,21.8887,0.555686,25.8713,213,16.394,9.14066,0.325,7228
-3.15262e-07,-4.59231e-09,-1.70388e-06,-0.000102147,-2.27324e-05,-0.00776062,22.4229,28.2848,0.107679,14.0897,28.286,22.4229,0.106498,25.7535,213,16.2083,10.5572,0.325,7229
-4.44671e-07,-1.2544e-08,-1.72119e-06,-0.000148864,-2.30902e-05,-0.00934851,18.092,25.589,-0.331703,12.9617,25.5904,18.0917,-0.332874,23.1054,213,17.259,10.8949,0.325,7230
-2.21388e-07,1.14612e-08,-1.70232e-06,-7.78785e-05,-2.24689e-05,-0.00774176,24.9655,29.0736,0.252719,14.4117,29.0751,24.9651,0.251667,27.004,213,15.1559,9.87516,0.325,7231
-1.85518e-07,-9.33933e-09,-1.70644e-06,-6.58004e-05,-2.39365e-05,-0.00627288,27.0397,30.7553,0.175903,15.29,30.7557,27.0395,0.175663,28.9017,213,14.6627,10.7765,0.325,7232
-2.45891e-07,-8.55828e-09,-1.70285e-06,-8.29646e-05,-2.35536e-05,-0.009243,23.8092,27.353,0.187539,13.5839,27.3545,23.8084,0.186832,25.5796,213,15.4709,10.7344,0.325,7233
-2.64984e-07,-2.57011e-08,-1.70567e-06,-9.04289e-05,-2.41136e-05,-0.00777302,23.5156,28.4393,0.0438204,14.2006,28.4439,23.5122,0.0425977,26.2848,213,15.7151,11.4585,0.325,7234
-2.54349e-07,2.48289e-08,-1.70171e-06,-8.5469e-05,-2.4815e-05,-0.0102219,23.2749,26.2918,0.237352,13.0296,26.2956,23.2721,0.236381,24.6867,213,15.5698,9.29117,0.325,7235
-1.91958e-07,2.44828e-08,-1.70465e-06,-6.86485e-05,-2.48444e-05,-0.00626082,26.6951,30.5792,0.247613,15.1672,30.5816,26.6932,0.247113,28.5893,213,14.7617,9.33327,0.325,7236
-2.91424e-07,4.24849e-08,-1.70346e-06,-9.8672e-05,-2.68599e-05,-0.00626568,22.9068,29.2727,0.229394,14.5283,29.2822,22.9009,0.225707,26.4497,213,15.9998,8.59877,0.325,7237
3.35346e-07,2.79447e-08,-1.70034e-06,-0.000109609,-2.45289e-05,-0.00777271,21.5264,27.8344,0.0275516,13.9052,27.8365,21.5257,0.026135,25.2534,213,3.70591,9.14074,0.325,7238
4.73938e-07,1.97857e-08,-1.71919e-06,-0.000152054,-2.44794e-05,-0.00628739,15.6846,27.0195,-1.51189,14.2689,27.0229,15.6842,-1.51493,24.8876,213,2.65527,9.47841,0.325,7239
4.1242e-07,3.4925e-09,-1.70662e-06,-0.000136212,-2.25003e-05,-0.00928864,19.2822,26.0492,-0.122194,13.0886,26.0523,19.2818,-0.124945,23.5341,213,3.08518,10.1709,0.325,7240
4.4675e-07,-1.26922e-08,-1.71173e-06,-0.000146567,-2.22203e-05,-0.00888714,18.1954,26.1217,-0.140034,13.1351,26.126,18.1954,-0.144282,23.3384,213,2.84484,10.894,0.325,7241
3.15893e-07,-4.65641e-09,-1.69966e-06,-0.000103086,-2.28369e-05,-0.00626478,22.2751,29.4034,-0.318106,14.8628,29.4054,22.2752,-0.320215,26.8794,213,3.89548,10.5564,0.325,7242
2.40386e-07,-7.9767e-09,-1.70453e-06,-8.38107e-05,-2.35031e-05,-0.00625773,24.8748,30.2292,0.277943,14.9761,30.2298,24.8746,0.277542,27.6662,213,4.70378,10.7169,0.325,7243
1.80009e-07,-9.09932e-09,-1.70958e-06,-6.48283e-05,-2.38347e-05,-0.00778168,26.1681,29.2205,0.0691069,14.5762,29.2211,26.168,0.0686564,27.7521,213,5.51128,10.7608,0.325,7244
2.21087e-07,1.15604e-08,-1.70456e-06,-7.8865e-05,-2.27258e-05,-0.00776538,24.8063,28.9686,0.152377,14.4087,28.9693,24.8061,0.151912,26.9778,213,4.94331,9.87713,0.325,7245
2.60306e-07,-2.50072e-08,-1.70495e-06,-8.98324e-05,-2.37166e-05,-0.0092754,23.0132,26.9515,-0.343816,13.6492,26.9534,23.0125,-0.345007,25.5569,213,4.46345,11.44,0.325,7246
1.92072e-07,2.43325e-08,-1.70711e-06,-6.88214e-05,-2.46371e-05,-0.00927767,24.8971,27.5364,0.0952235,13.7211,27.5372,24.8966,0.0949218,26.2219,213,5.3308,9.34146,0.325,7247
2.55365e-07,2.48903e-08,-1.70146e-06,-8.74909e-05,-2.43788e-05,-0.00774787,23.8955,28.5758,0.203166,14.1882,28.579,23.8928,0.202634,26.3477,213,4.5233,9.29755,0.325,7248
2.94109e-07,4.22851e-08,-1.70103e-06,-0.000100155,-2.67226e-05,-0.00776942,22.4291,27.8619,-0.0124296,13.9403,27.8665,22.4261,-0.0140234,25.5977,213,4.0934,8.60507,0.325,7249
-2.45846e-07,4.14521e-07,-1.69567e-06,-8.654e-05,-0.000132111,-0.00924505,20.8492,18.0392,-0.0499051,10.4891,20.9225,17.9717,-0.0556523,19.6694,213,15.8271,2.84997,0.325,7250
-1.74321e-07,3.77929e-07,-1.69066e-06,-6.08327e-05,-0.000124763,-0.00627009,24.112,18.4467,0.0907823,12.0362,24.1624,18.397,0.0900612,21.77,213,14.8306,3.20432,0.325,7251
-2.50585e-07,3.07631e-07,-1.69363e-06,-8.81923e-05,-0.00010147,-0.0077087,21.559,20.5313,0.153639,10.8286,21.8099,20.2813,0.152746,20.9347,213,15.809,3.77034,0.325,7252
-3.25786e-07,4.46967e-07,-1.6993e-06,-9.96262e-05,-0.000151447,-0.00773865,18.9046,15.2515,0.736939,9.17332,19.0622,15.1152,0.715611,16.7261,213,16.6676,2.55757,0.325,7253
-3.24588e-07,2.46985e-07,-1.69911e-06,-0.00010532,-8.75764e-05,-0.00774819,20.081,21.3729,-0.236416,10.9012,21.565,19.8899,-0.237363,21.0149,213,16.5198,4.34639,0.325,7254
-4.26772e-07,1.8111e-07,-1.70804e-06,-0.000147123,-6.16691e-05,-0.00773488,16.8054,23.1452,0.581412,11.3084,23.1827,16.7834,0.565895,20.1926,213,17.2754,5.18998,0.325,7255
-4.59221e-07,2.4964e-07,-1.71548e-06,-0.000155113,-8.68906e-05,-0.0077348,14.7617,19.9212,-0.246826,10.1216,19.9939,14.6914,-0.249233,18.1813,213,17.5612,4.25957,0.325,7256
-4.75417e-07,3.29647e-07,-1.71241e-06,-0.000169775,-0.000105361,-0.00620705,12.0533,17.7862,1.83373,8.11554,18.0211,11.8622,1.78997,14.1921,213,17.7471,3.43043,0.325,7257
-4.33968e-07,4.22351e-07,-1.70304e-06,-0.000142181,-0.000134998,-0.00923258,16.2647,16.8048,0.414641,8.43855,17.2727,15.8158,0.395625,16.1978,213,17.5552,2.67053,0.325,7258
2.50832e-07,3.07318e-07,-1.69498e-06,-8.82878e-05,-0.000100475,-0.00924487,21.5127,20.739,0.116789,10.8005,21.7167,20.5362,0.115642,21.0356,213,4.29089,3.77046,0.325,7259
1.74551e-07,3.7812e-07,-1.68967e-06,-6.05592e-05,-0.000125593,-0.0077664,23.5762,18.7644,-0.129119,11.8766,23.623,18.7186,-0.130151,21.7203,213,5.26927,3.20447,0.325,7260
2.45797e-07,4.14285e-07,-1.69653e-06,-8.64736e-05,-0.000134038,-0.00622525,20.5837,16.3413,-0.0446592,10.3656,20.6851,16.2413,-0.0460299,18.9051,213,4.27286,2.84999,0.325,7261
3.26339e-07,4.46429e-07,-1.70208e-06,-0.000102387,-0.000151229,-0.00879802,19.3467,16.2577,1.05995,9.23811,19.5026,16.1353,1.02639,17.0439,213,3.43235,2.55757,0.325,7262
4.58946e-07,2.49477e-07,-1.71614e-06,-0.000156688,-8.74711e-05,-0.00622796,13.5204,19.6755,-0.0485447,9.90161,19.7505,13.4496,-0.0527172,17.524,213,2.53883,4.25957,0.325,7263
4.26794e-07,1.80965e-07,-1.70634e-06,-0.000146836,-6.1513e-05,-0.0092538,17.7642,22.8503,0.596373,11.1517,22.8834,17.7475,0.579989,20.2305,213,2.82458,5.18998,0.325,7264
3.25138e-07,2.46745e-07,-1.69862e-06,-0.000103841,-8.77746e-05,-0.00882793,20.2397,21.2991,-0.362944,10.9192,21.475,20.0644,-0.363521,21.1685,213,3.58023,4.34639,0.325,7265
4.75359e-07,3.30244e-07,-1.71212e-06,-0.00016873,-0.000104419,-0.00879208,14.827,18.9198,1.47858,8.81875,19.0812,14.7004,1.44372,15.9062,213,2.35292,3.43043,0.325,7266
4.35892e-07,4.23022e-07,-1.70149e-06,-0.000144753,-0.000135555,-0.00772523,14.8381,15.5201,0.43212,7.76878,15.9549,14.418,0.417381,14.8289,213,2.54485,2.67053,0.325,7267
2.45133e-07,-2.71572e-07,-1.70042e-06,-8.7383e-05,-9.11444e-05,-0.00625059,21.997,21.654,0.0534506,11.2891,22.6298,21.0231,0.051545,21.8193,213,4.27532,16.6693,0.325,7268
1.71799e-07,-2.51428e-07,-1.70247e-06,-6.18008e-05,-8.55938e-05,-0.00775958,24.7887,23.029,0.299942,12.3276,24.952,22.869,0.296733,23.6825,213,5.30477,16.3792,0.325,7269
2.51681e-07,-2.02968e-07,-1.69403e-06,-8.88688e-05,-6.69627e-05,-0.00776522,22.3991,24.0232,-0.0657591,12.1201,24.174,22.2489,-0.0662883,23.3373,213,4.32394,15.7939,0.325,7270
3.22605e-07,-2.92503e-07,-1.70692e-06,-0.000106047,-0.000100087,-0.00624163,19.6121,20.1629,0.705454,10.1894,21.0688,18.7216,0.690053,19.3124,213,3.43235,16.9424,0.325,7271
3.31607e-07,-1.60977e-07,-1.69795e-06,-0.000108724,-5.77133e-05,-0.00625451,20.497,25.0322,0.0116162,12.5446,25.1005,20.4289,0.0113749,23.1102,213,3.58023,15.1536,0.325,7272
4.37437e-07,-1.1754e-07,-1.71038e-06,-0.000149228,-4.39142e-05,-0.00881676,17.6976,24.4035,0.50872,11.9636,24.4231,17.6909,0.495894,21.3717,213,2.82458,14.31,0.325,7273
4.69357e-07,-1.65118e-07,-1.71739e-06,-0.0001612,-5.84053e-05,-0.00623742,14.1285,23.2815,0.448527,11.4342,23.308,14.1108,0.439684,19.9305,213,2.53883,15.2404,0.325,7274
4.88249e-07,-2.20141e-07,-1.72282e-06,-0.000175375,-7.03329e-05,-0.00621968,12.4197,21.7376,1.45212,10.2001,21.8171,12.3754,1.41693,17.6833,213,2.35292,16.0696,0.325,7275
4.41213e-07,-2.81418e-07,-1.72292e-06,-0.000156646,-9.23251e-05,-0.00772567,14.9417,19.7105,0.618163,9.61742,19.8383,14.8286,0.603454,17.2834,213,2.54485,16.8295,0.325,7276
-2.53515e-07,-1.98166e-07,-1.69465e-06,-8.98366e-05,-6.61765e-05,-0.00926935,22.1461,23.5272,0.00343807,11.8202,23.6433,22.0305,0.00292271,22.8767,213,15.793,15.721,0.325,7277
-1.72869e-07,-2.4428e-07,-1.70077e-06,-6.25739e-05,-8.18115e-05,-0.00626139,25.4202,23.7213,0.167055,12.7426,25.6519,23.4899,0.166709,24.4759,213,14.8095,16.2932,0.325,7278
-2.44826e-07,-2.70541e-07,-1.69916e-06,-8.80477e-05,-8.79181e-05,-0.00775687,21.8845,21.7844,0.00387107,11.2278,22.4572,21.2139,0.00162789,21.8605,213,15.822,16.6562,0.325,7279
-3.22802e-07,-2.92235e-07,-1.70501e-06,-0.000106042,-9.8977e-05,-0.00624484,19.5941,20.2347,0.53811,10.301,21.1277,18.7135,0.525664,19.5073,213,16.6676,16.9424,0.325,7280
-4.69378e-07,-1.64996e-07,-1.71646e-06,-0.000161048,-5.82329e-05,-0.0062399,14.0616,23.2203,0.214406,11.521,23.2469,14.0446,0.204832,20.0893,213,17.5612,15.2404,0.325,7281
-4.37736e-07,-1.17433e-07,-1.7088e-06,-0.000149198,-4.33748e-05,-0.00880278,17.6868,24.4323,0.397225,12.0315,24.4496,17.6802,0.386604,21.4932,213,17.2754,14.31,0.325,7282
-3.31448e-07,-1.60795e-07,-1.69846e-06,-0.000109365,-5.78525e-05,-0.0066859,20.4101,24.7753,-0.11286,12.4756,24.8383,20.3472,-0.112971,23.0364,213,16.5198,15.1536,0.325,7283
-4.87652e-07,-2.20181e-07,-1.72242e-06,-0.000174806,-7.01835e-05,-0.00622033,12.3977,21.6884,1.19154,10.3057,21.7684,12.3522,1.15705,17.8721,213,17.7471,16.0696,0.325,7284
-4.40709e-07,-2.81046e-07,-1.72075e-06,-0.000155855,-9.06885e-05,-0.00923237,16.2749,20.0546,0.404018,9.89074,20.1723,16.1704,0.390842,18.1151,213,17.5552,16.8295,0.325,7285
1.39695e-07,-2.00685e-08,-1.71344e-06,-5.48818e-05,-2.40296e-05,-0.00929792,26.0349,27.8711,-0.00235751,13.9372,27.872,26.0341,-0.00248453,27.0025,213,6.18251,11.2171,0.325,7286
9.24326e-08,-3.16213e-08,-1.71556e-06,-4.0672e-05,-2.66698e-05,-0.00888359,27.5384,28.4408,0.00581047,14.2188,28.4433,27.5359,0.00578354,27.9949,213,7.1678,11.6597,0.325,7287
1.27626e-07,-6.86668e-11,-1.71349e-06,-5.10358e-05,-2.37506e-05,-0.00629261,28.7939,31.2147,0.00352343,15.6056,31.2147,28.7939,0.00349576,30.074,213,6.42204,10.3774,0.325,7288
6.35638e-08,-1.09311e-08,-1.71619e-06,-3.54854e-05,-2.38113e-05,-0.00780926,29.1717,30.0373,-0.0117894,15.0247,30.0376,29.1714,-0.0118182,29.6258,213,7.93138,10.8327,0.325,7289
7.91638e-08,1.18847e-08,-1.71557e-06,-3.79668e-05,-2.49442e-05,-0.00888474,27.798,28.6386,-0.0502932,14.3446,28.639,27.7976,-0.0503083,28.278,213,7.51445,9.89298,0.325,7290
1.06974e-07,2.30408e-08,-1.71454e-06,-4.62437e-05,-2.48814e-05,-0.00780198,28.0239,29.6077,-0.0343092,14.8215,29.6086,28.023,-0.0343116,28.8828,213,6.84322,9.43666,0.325,7291
6.09185e-08,-3.21428e-08,-1.71609e-06,-3.42591e-05,-2.70335e-05,-0.00630495,30.7341,31.3784,-0.027808,15.7038,31.3798,30.7327,-0.0278113,31.0891,213,8.00591,11.6587,0.325,7292
-1.01757e-07,-3.08869e-08,-1.71441e-06,-4.26726e-05,-2.66833e-05,-0.00629748,29.7155,31.139,-0.00131946,15.5724,31.1434,29.7112,-0.00137987,30.4539,213,13.1477,11.639,0.325,7293
-1.44089e-07,-2.03563e-08,-1.71113e-06,-5.61983e-05,-2.43363e-05,-0.008866,26.2575,28.2832,0.0418853,14.1216,28.2849,26.2561,0.0416565,27.2854,213,13.9922,11.2347,0.325,7294
-1.28121e-07,2.13024e-10,-1.71151e-06,-5.12556e-05,-2.36109e-05,-0.00778895,27.5866,29.6362,0.0620137,14.7873,29.6364,27.5865,0.0618978,28.6047,213,13.6773,10.3755,0.325,7295
-7.85811e-08,1.1362e-08,-1.71493e-06,-3.78539e-05,-2.47743e-05,-0.00780619,28.885,29.8626,-0.0240802,14.9436,29.8631,28.8845,-0.0240989,29.4101,213,12.5633,9.92326,0.325,7296
-5.92155e-08,-1.94153e-08,-1.71578e-06,-3.47286e-05,-2.469e-05,-0.00780844,29.2283,29.9722,-0.00180784,14.9876,29.9734,29.2271,-0.00182154,29.6091,213,12.035,11.1764,0.325,7297
-1.06509e-07,2.24076e-08,-1.71315e-06,-4.62506e-05,-2.45767e-05,-0.00779602,28.0546,29.6616,0.0168788,14.8229,29.6627,28.0535,0.0168482,28.8749,213,13.2338,9.46505,0.325,7298
-6.3588e-08,-4.07245e-08,-1.71567e-06,-3.54523e-05,-2.77166e-05,-0.00780741,29.0637,29.6372,-0.00786382,14.8246,29.6413,29.0596,-0.00788367,29.3627,213,12.176,11.9817,0.325,7299
-1.18409e-07,-2.9661e-07,-1.71159e-06,-4.82114e-05,-9.8166e-05,-0.00778885,25.666,21.9623,-0.0972684,12.9279,25.7574,21.8721,-0.0984042,24.1487,213,13.8977,16.8051,0.325,7300
-1.23149e-07,-2.16567e-07,-1.70439e-06,-4.9838e-05,-7.40366e-05,-0.00779257,26.1253,24.318,-0.257808,13.2262,26.1938,24.2502,-0.258505,25.536,213,13.8687,15.8699,0.325,7301
-8.51445e-08,-3.49865e-07,-1.72437e-06,-3.61655e-05,-0.000122165,-0.00884748,25.8289,20.3405,0.703599,12.5987,25.88,20.3105,0.682518,22.9258,213,13.1947,17.2383,0.325,7302
-5.98927e-08,-3.39614e-07,-1.72176e-06,-3.05388e-05,-0.000117731,-0.00626473,28.193,20.4583,0.319018,13.948,28.2127,20.441,0.316678,24.9356,213,12.421,17.1228,0.325,7303
-5.47321e-08,-2.62823e-07,-1.71139e-06,-3.11821e-05,-8.4801e-05,-0.0102831,25.72,22.9653,0.0452652,12.8414,25.7275,22.9583,0.0447553,24.4162,213,12.1453,16.3665,0.325,7304
-3.71879e-08,-3.39528e-07,-1.7223e-06,-2.53423e-05,-0.000118165,-0.00627421,28.7041,20.4794,0.0545263,14.3341,28.7145,20.4773,0.0462034,25.5651,213,11.6094,17.1075,0.325,7305
-9.08255e-08,-1.88398e-07,-1.70825e-06,-3.91226e-05,-6.76749e-05,-0.00779346,27.4189,25.3193,-0.229313,13.8382,27.4464,25.2926,-0.230043,26.6648,213,13.0955,15.4336,0.325,7306
-6.28852e-08,-2.05909e-07,-1.70968e-06,-3.27668e-05,-7.25449e-05,-0.00779289,28.0859,25.1391,0.107585,13.9952,28.0978,25.1273,0.10742,26.6297,213,12.3414,15.6561,0.325,7307
-6.98792e-08,-1.45766e-07,-1.71121e-06,-3.54274e-05,-5.33957e-05,-0.00779246,28.3401,27.0079,0.032324,14.1631,28.3582,26.9901,0.0320616,27.6674,213,12.48,14.7079,0.325,7308
1.26804e-07,-2.31882e-07,-1.70535e-06,-5.07755e-05,-7.88779e-05,-0.00778359,25.9866,23.903,-0.043682,13.0523,26.0598,23.831,-0.0448812,25.0647,213,6.14256,16.0802,0.325,7309
1.22631e-07,-3.11321e-07,-1.71717e-06,-4.93217e-05,-0.000103632,-0.00777009,25.469,21.4347,0.0918217,12.731,25.552,21.3534,0.0900468,23.644,213,6.09394,16.9556,0.325,7310
8.95615e-08,-3.69519e-07,-1.7281e-06,-3.65419e-05,-0.000130149,-0.00775018,26.2362,19.2943,0.68726,12.8207,26.3033,19.2525,0.661907,22.9435,213,6.77203,17.4066,0.325,7311
6.41652e-08,-3.55778e-07,-1.72659e-06,-3.20221e-05,-0.000123648,-0.00775137,26.7632,20.0193,0.22142,13.2823,26.782,20.0045,0.217434,23.9075,213,7.54364,17.2645,0.325,7312
4.31891e-08,-3.21618e-07,-1.71997e-06,-2.70624e-05,-0.000111221,-0.00625643,29.0906,21.6334,0.956084,14.0735,29.099,21.629,0.952032,25.2546,213,8.2808,16.9628,0.325,7313
6.3522e-08,-2.604e-07,-1.71101e-06,-3.32481e-05,-8.64127e-05,-0.00930337,26.2869,23.139,-0.214797,13.258,26.3003,23.1265,-0.215761,25.0803,213,7.66888,16.3547,0.325,7314
9.09669e-08,-2.23734e-07,-1.70839e-06,-3.91341e-05,-7.75122e-05,-0.00779602,27.2256,24.3811,-0.0323742,13.6426,27.2517,24.3561,-0.0335434,25.9589,213,6.95235,15.9351,0.325,7315
6.50325e-08,-2.04183e-07,-1.70717e-06,-3.4186e-05,-7.07685e-05,-0.00779301,27.8739,25.1805,-0.210713,14.0535,27.8959,25.1589,-0.211059,26.8433,213,7.6895,15.6333,0.325,7316
-1.27078e-07,3.30775e-07,-1.6988e-06,-4.88813e-05,-0.000109298,-0.00924857,24.6123,21.0203,0.17368,12.2298,24.6322,21.0016,0.172517,22.8616,213,13.9276,3.67312,0.325,7317
-1.24945e-07,4.45535e-07,-1.70428e-06,-4.86092e-05,-0.000142817,-0.00626485,25.2445,16.8551,0.739349,12.2646,25.268,16.8321,0.738806,21.5852,213,13.9457,2.75275,0.325,7318
-9.27513e-08,5.20265e-07,-1.71953e-06,-3.79804e-05,-0.000179156,-0.00880716,23.8551,14.8489,-0.316902,12.1132,23.8882,14.837,-0.338146,21.2029,213,13.239,2.3236,0.325,7319
-5.71217e-08,3.86857e-07,-1.70599e-06,-3.26802e-05,-0.000120291,-0.00927748,25.5694,20.2098,-0.00374794,12.788,25.5717,20.208,-0.00425211,23.3606,213,12.1755,3.2613,0.325,7320
-6.58778e-08,2.83314e-07,-1.70652e-06,-3.3482e-05,-9.79968e-05,-0.00626685,28.3972,22.6754,0.0165561,14.1942,28.404,22.6695,0.0156077,25.9999,213,12.4064,4.17974,0.325,7321
-7.32173e-08,2.13063e-07,-1.70984e-06,-3.59248e-05,-7.27413e-05,-0.0102746,25.665,23.8213,0.059102,12.8058,25.6707,23.8157,0.0589891,24.7364,213,12.5886,4.99913,0.325,7322
-9.58959e-08,2.94534e-07,-1.70375e-06,-4.07737e-05,-0.000101205,-0.00778807,26.3591,21.889,-0.0434267,13.2058,26.3677,21.8808,-0.0438428,24.4785,213,13.225,4.04094,0.325,7323
-3.89855e-08,5.0383e-07,-1.72119e-06,-2.71182e-05,-0.000170169,-0.00774429,25.9137,15.3281,0.272622,12.8441,25.9371,15.3284,0.248949,22.3586,213,11.5553,2.46191,0.325,7324
-6.50157e-08,5.07986e-07,-1.71755e-06,-3.24138e-05,-0.000170231,-0.00775716,25.3153,15.0973,0.170771,12.5842,25.3295,15.0929,0.161047,21.9225,213,12.4226,2.42216,0.325,7325
1.25115e-07,4.45459e-07,-1.70442e-06,-4.83208e-05,-0.000143133,-0.0062627,25.2224,16.7817,0.629575,12.3063,25.2415,16.7633,0.628894,21.6561,213,6.1541,2.75298,0.325,7326
1.27544e-07,3.30419e-07,-1.6997e-06,-4.92339e-05,-0.000109454,-0.00926497,24.5726,20.9932,0.107107,12.2418,24.5902,20.9762,0.106516,22.8916,213,6.17213,3.67346,0.325,7327
9.42074e-08,5.19678e-07,-1.72288e-06,-3.67538e-05,-0.000180464,-0.00774504,24.7068,14.0617,0.544207,12.1179,24.7476,14.0533,0.511786,21.0371,213,6.86088,2.32386,0.325,7328
6.53783e-08,2.83277e-07,-1.70593e-06,-3.4821e-05,-9.71157e-05,-0.00626414,28.3242,22.7961,0.167864,14.0823,28.3321,22.7885,0.16755,25.8426,213,7.69172,4.18172,0.325,7329
5.63967e-08,3.85044e-07,-1.7061e-06,-3.35122e-05,-0.000117522,-0.0088651,25.7931,20.2496,-0.116432,12.9575,25.7978,20.2457,-0.117223,23.6333,213,7.92411,3.26179,0.325,7330
9.63861e-08,2.94071e-07,-1.70512e-06,-4.08131e-05,-0.000100483,-0.00776072,26.4253,21.9826,-0.0186053,13.2258,26.4328,21.9753,-0.0188255,24.5286,213,6.87459,4.04116,0.325,7331
7.36356e-08,2.13081e-07,-1.7096e-06,-3.64535e-05,-7.31467e-05,-0.00777297,27.7291,25.0047,0.193333,13.7734,27.7399,24.9941,0.193108,26.2817,213,7.50935,5.00092,0.325,7332
3.7607e-08,4.99672e-07,-1.72733e-06,-2.71371e-05,-0.000171011,-0.00772606,26.4789,15.8579,1.86557,12.3189,26.491,15.8581,1.85326,21.4034,213,8.54443,2.46219,0.325,7333
6.55757e-08,5.0661e-07,-1.72778e-06,-3.4679e-05,-0.000174912,-0.00622663,26.1229,13.6967,1.32375,12.405,26.1285,13.6964,1.31844,21.4862,213,7.67729,2.42237,0.325,7334
-4.31954e-08,1.45145e-07,-1.71381e-06,-2.95468e-05,-5.52603e-05,-0.00779763,28.8546,26.9602,-0.020898,14.4394,28.8577,26.9573,-0.0210556,27.977,213,11.6092,6.08985,0.325,7335
-1.86552e-08,1.20531e-07,-1.71469e-06,-2.7618e-05,-4.69416e-05,-0.0103154,26.7041,25.7433,-0.0335662,13.3692,26.7048,25.7427,-0.0336396,26.2706,213,10.748,6.5879,0.325,7336
-6.72739e-08,1.04624e-07,-1.71468e-06,-3.57519e-05,-4.13458e-05,-0.0103121,26.2509,25.9755,-0.0287363,13.1459,26.263,25.9635,-0.0288517,26.1434,213,12.3247,6.90907,0.325,7337
-7.14288e-08,1.51091e-07,-1.71296e-06,-3.55192e-05,-5.66726e-05,-0.00779191,28.2222,26.655,0.00435457,14.115,28.2343,26.643,0.00430891,27.4689,213,12.4855,5.95715,0.325,7338
-1.90156e-08,8.19058e-08,-1.71549e-06,-2.81627e-05,-3.65799e-05,-0.00630274,31.1486,30.4011,-0.0507712,15.6001,31.1494,30.4003,-0.0508284,30.8325,213,10.7487,7.51197,0.325,7339
-5.03161e-08,6.36997e-08,-1.71549e-06,-3.1579e-05,-3.2945e-05,-0.00780745,29.2999,29.2062,-0.0068614,14.6684,29.3298,29.1763,-0.00693334,29.2603,213,11.7842,8.02731,0.325,7340
-8.07543e-08,6.7353e-08,-1.71478e-06,-3.7993e-05,-3.401e-05,-0.00629907,30.0421,30.3983,-0.00629934,15.2143,30.4222,30.0182,-0.00636364,30.2286,213,12.6604,7.89461,0.325,7341
1.11763e-10,9.98811e-08,-1.71486e-06,-2.64979e-05,-4.2013e-05,-0.00630258,31.1784,29.8071,-0.00113129,15.5898,31.1784,29.8071,-0.00116439,30.517,213,10.0483,7.0581,0.325,7342
1.9109e-08,1.2009e-07,-1.714e-06,-2.77016e-05,-4.69191e-05,-0.00780195,29.2757,27.8537,-0.0855419,14.681,29.2765,27.8529,-0.0855871,28.6768,213,9.34445,6.59796,0.325,7343
4.34539e-08,1.44744e-07,-1.71304e-06,-2.93408e-05,-5.53732e-05,-0.00778966,28.9389,27.0088,0.10058,14.4211,28.9425,27.0054,0.100366,27.924,213,8.48392,6.10168,0.325,7344
7.1851e-08,1.50826e-07,-1.71293e-06,-3.59872e-05,-5.65748e-05,-0.00929317,26.8729,25.6522,0.0916688,13.3967,26.8848,25.6405,0.0914497,26.1934,213,7.59969,5.9649,0.325,7345
6.81472e-08,1.03881e-07,-1.71466e-06,-3.586e-05,-4.12972e-05,-0.00780352,28.6085,28.2009,-0.0498873,14.339,28.6278,28.1817,-0.0500643,28.4575,213,7.75713,6.92511,0.325,7346
5.12795e-08,6.4316e-08,-1.7156e-06,-3.17091e-05,-3.30197e-05,-0.00780835,29.286,29.1989,0.00516496,14.6547,29.3145,29.1705,0.00507619,29.2377,213,8.2885,8.00709,0.325,7347
1.94079e-08,8.16163e-08,-1.71537e-06,-2.80983e-05,-3.65154e-05,-0.00630242,31.1649,30.4193,-0.0346193,15.6004,31.1661,30.4181,-0.0346221,30.8335,213,9.34518,7.52203,0.325,7348
8.20598e-08,6.8197e-08,-1.71519e-06,-3.79288e-05,-3.40764e-05,-0.00780497,28.6243,28.91,-0.0059483,14.4661,28.9261,28.6083,-0.00606254,28.7746,213,7.40427,7.8703,0.325,7349
5.06803e-07,-2.82328e-08,-1.72215e-06,-0.000161267,-2.52982e-05,-0.00779883,15.9223,26.0032,-0.5763,13.293,26.0064,15.9223,-0.579516,23.2466,213,2.4478,11.5323,0.325,7350
5.70504e-07,-5.74167e-08,-1.72717e-06,-0.000198136,-2.81227e-05,-0.00624223,11.1232,26.1792,1.62099,12.3198,26.219,11.1251,1.57929,21.5181,213,2.07841,12.5592,0.325,7351
3.88344e-07,-3.7192e-08,-1.70605e-06,-0.000128039,-2.5977e-05,-0.00629403,19.1263,28.1871,-0.180476,14.1844,28.1877,19.1263,-0.181056,25.0965,213,3.25811,11.9178,0.325,7352
5.22566e-07,-8.50771e-08,-1.71934e-06,-0.000170888,-3.64171e-05,-0.00624756,13.4267,25.3848,-0.279005,12.8327,25.3856,13.4268,-0.279888,22.2441,213,2.32212,13.4764,0.325,7353
3.70589e-07,-8.13598e-08,-1.70574e-06,-0.00012241,-3.50451e-05,-0.00777442,19.7991,26.2764,-0.225016,13.2544,26.2835,19.7922,-0.225305,23.9328,213,3.36352,13.3896,0.325,7354
3.47693e-07,-5.85193e-08,-1.70642e-06,-0.000116988,-2.97092e-05,-0.00777713,20.5905,27.0615,-0.0257368,13.5453,27.064,20.5889,-0.0266513,24.5034,213,3.5759,12.6934,0.325,7355
3.05601e-07,-4.04376e-08,-1.70526e-06,-0.000102787,-2.69013e-05,-0.00778638,22.0035,27.6384,-0.342458,13.992,27.6409,22.0016,-0.343069,25.6339,213,3.97294,12.0551,0.325,7356
3.62318e-07,1.31834e-07,-1.70005e-06,-0.00011791,-4.85591e-05,-0.00778974,19.8149,24.9423,-0.422225,12.6955,24.9684,19.7893,-0.422687,23.2385,213,3.36352,6.11038,0.325,7357
5.11356e-07,1.33954e-07,-1.72587e-06,-0.00017573,-5.04129e-05,-0.00622275,12.3238,23.506,-0.257337,11.8962,23.5251,12.3148,-0.267356,20.6162,213,2.32212,6.02355,0.325,7358
5.74496e-07,9.63036e-08,-1.73031e-06,-0.000202745,-3.70298e-05,-0.00772269,11.6321,23.9185,0.201688,11.8712,23.9321,11.6304,0.189726,20.566,213,2.02819,6.87962,0.325,7359
3.20626e-07,8.72023e-08,-1.70337e-06,-0.000108084,-3.69941e-05,-0.00778567,21.3311,26.6018,0.0702257,13.271,26.6108,21.3234,0.0689081,24.3329,213,3.77835,7.1762,0.325,7360
5.4531e-07,6.93042e-08,-1.73303e-06,-0.000192372,-3.27332e-05,-0.00623002,13.1465,27.3316,5.46896,10.9953,27.3962,13.1453,5.40554,19.3207,213,2.1967,7.66162,0.325,7361
5.09181e-07,4.64899e-08,-1.73027e-06,-0.00017723,-2.65809e-05,-0.00927697,17.2628,26.2492,3.74805,11.2541,26.2529,17.2623,3.7448,19.6236,213,2.40417,8.41377,0.325,7362
4.07363e-07,6.76744e-08,-1.71179e-06,-0.000128103,-3.26432e-05,-0.00780183,18.7059,25.8007,-1.63527,13.732,25.8169,18.7014,-1.64705,24.6877,213,3.06853,7.6961,0.325,7363
3.02175e-07,6.15296e-08,-1.70235e-06,-0.000101775,-3.13216e-05,-0.00627395,22.2202,28.4632,-0.140734,14.3084,28.4754,22.2088,-0.141456,26.055,213,3.98581,7.92834,0.325,7364
-5.70215e-07,-5.69043e-08,-1.72586e-06,-0.000196486,-2.82558e-05,-0.00626697,10.3219,25.2271,-0.941964,13.0947,25.2372,10.322,-0.952119,22.7536,213,18.0216,12.5592,0.325,7365
-5.05445e-07,-2.87307e-08,-1.72851e-06,-0.000168151,-2.56527e-05,-0.00630316,14.5309,27.2072,0.820396,13.1982,27.2116,14.5317,0.815147,22.8659,213,17.6522,11.5323,0.325,7366
-3.861e-07,-3.78273e-08,-1.71589e-06,-0.00012708,-2.67949e-05,-0.00631344,19.1461,28.0387,-0.382016,14.2105,28.0388,19.1462,-0.38216,25.1812,213,16.8458,11.9187,0.325,7367
-3.69944e-07,-8.21628e-08,-1.70723e-06,-0.000123532,-3.42211e-05,-0.00778959,19.7182,26.3398,-0.17855,13.2615,26.3442,19.714,-0.178752,23.9076,213,16.7365,13.3896,0.325,7368
-5.22405e-07,-8.54539e-08,-1.71816e-06,-0.000172986,-3.61707e-05,-0.00623058,13.3307,25.5125,0.157132,12.679,25.5139,13.3307,0.155766,21.9663,213,17.7779,13.4764,0.325,7369
-3.45882e-07,-5.96083e-08,-1.71046e-06,-0.000117431,-2.98001e-05,-0.00778892,20.5179,27.015,-0.0741184,13.5449,27.0153,20.5179,-0.0744262,24.4961,213,16.5241,12.6934,0.325,7370
-3.03521e-07,-4.11995e-08,-1.70986e-06,-0.00010268,-2.74417e-05,-0.00778333,22.1155,27.7172,0.00750435,13.8555,27.7183,22.1144,0.00740774,25.3774,213,16.1309,12.056,0.325,7371
-5.12065e-07,1.3391e-07,-1.72538e-06,-0.000176295,-5.01783e-05,-0.00923395,15.519,23.021,0.344571,11.3522,23.0378,15.5134,0.333385,20.0317,213,17.7779,6.02355,0.325,7372
-3.61066e-07,1.3226e-07,-1.70348e-06,-0.00011865,-4.84901e-05,-0.00778179,19.7531,24.9548,-0.325931,12.6491,24.9718,19.7366,-0.326417,23.1293,213,16.7365,6.11038,0.325,7373
-5.74652e-07,9.67318e-08,-1.72945e-06,-0.000203397,-3.74562e-05,-0.00772627,11.4572,23.7602,-0.0401052,11.914,23.7744,11.4566,-0.0536824,20.6396,213,18.0718,6.87962,0.325,7374
-3.1487e-07,8.95744e-08,-1.70638e-06,-0.000105951,-3.73229e-05,-0.00931106,21.5485,25.6337,0.211252,12.7153,25.6398,21.5445,0.209154,23.6504,213,16.2875,7.12198,0.325,7375
-5.4413e-07,6.91996e-08,-1.73617e-06,-0.00019422,-3.29143e-05,-0.00776516,12.1049,24.0644,-1.11136,12.5917,24.0687,12.1039,-1.11463,21.8184,213,17.9033,7.66162,0.325,7376
-4.04431e-07,6.81945e-08,-1.71881e-06,-0.000127883,-3.29879e-05,-0.00783119,19.1641,26.1998,-0.492169,13.3489,26.2052,19.1592,-0.492648,23.9647,213,17.0315,7.6961,0.325,7377
-5.08306e-07,4.62959e-08,-1.73447e-06,-0.000178531,-2.69859e-05,-0.00777399,14.9993,26.2418,1.75213,12.248,26.2472,14.9949,1.75113,21.2376,213,17.6958,8.41377,0.325,7378
-2.96243e-07,6.35266e-08,-1.70559e-06,-9.92681e-05,-3.21607e-05,-0.0078054,22.2657,27.2795,-0.0724672,13.6812,27.2894,22.2562,-0.072922,25.2252,213,16.0801,7.87413,0.325,7379
5.53096e-08,-5.60148e-08,-1.71569e-06,-3.36792e-05,-3.00458e-05,-0.00780847,29.1647,29.434,-0.043344,14.7435,29.4436,29.1551,-0.0433522,29.3438,213,8.15661,12.4983,0.325,7380
3.77694e-08,-8.44127e-08,-1.7147e-06,-2.92671e-05,-3.80354e-05,-0.00629963,30.9768,30.2025,-0.00788581,15.4947,30.9815,30.1978,-0.00796236,30.6052,213,8.6978,13.3203,0.325,7381
9.26756e-09,-7.47811e-08,-1.71541e-06,-2.71663e-05,-3.52399e-05,-0.00630156,31.3344,30.62,-0.0109737,15.6727,31.3345,30.6199,-0.0109764,30.9944,213,9.71098,13.045,0.325,7382
-5.54129e-10,-4.19836e-08,-1.71623e-06,-2.80103e-05,-2.82025e-05,-0.00931467,28.1546,28.142,-0.0151481,14.0867,28.1582,28.1385,-0.0151713,28.1635,213,10.0671,12.015,0.325,7383
3.20235e-08,-3.26451e-08,-1.71626e-06,-2.8728e-05,-2.73377e-05,-0.00630573,31.4152,31.5417,0.0030591,15.7726,31.5483,31.4086,0.00301806,31.4757,213,8.92019,11.6713,0.325,7384
-1.80755e-08,-5.80665e-08,-1.71588e-06,-2.75508e-05,-3.21577e-05,-0.00780778,29.7355,29.3986,-0.0278262,14.8827,29.7376,29.3965,-0.0278413,29.5964,213,10.7071,12.5491,0.325,7385
-7.76381e-08,-6.71674e-08,-1.71517e-06,-3.76378e-05,-3.30208e-05,-0.00930678,27.259,27.5318,0.0158938,13.7681,27.552,27.2389,0.0158156,27.381,213,12.594,12.8636,0.325,7386
-4.05989e-08,-5.31179e-08,-1.71593e-06,-2.99517e-05,-3.09138e-05,-0.00888331,28.3879,28.3268,-0.0185377,14.2098,28.4011,28.3136,-0.0185513,28.376,213,11.4813,12.4009,0.325,7387
-2.93908e-08,-8.87475e-08,-1.71489e-06,-2.90648e-05,-3.81219e-05,-0.0078012,29.4413,28.7658,0.0431621,14.7007,29.4446,28.7625,0.0431431,29.0664,213,11.1252,13.431,0.325,7388
-4.92523e-08,-1.16875e-07,-1.71336e-06,-3.01202e-05,-4.66104e-05,-0.00930425,27.5082,26.5285,-0.119846,13.8167,27.5136,26.5232,-0.119897,27.1518,213,11.8126,14.1066,0.325,7389
-7.46688e-08,-1.06056e-07,-1.71384e-06,-3.69353e-05,-4.31185e-05,-0.0062922,29.8833,29.3348,0.0573291,14.931,29.919,29.2993,0.0571257,29.5569,213,12.5667,13.8841,0.325,7390
-9.35205e-08,4.24011e-08,-1.71421e-06,-4.24003e-05,-2.7288e-05,-0.00780065,28.3644,29.4877,0.00670889,14.7423,29.4913,28.3608,0.00666306,28.936,213,12.9544,8.70251,0.325,7391
-1.48567e-07,2.96379e-08,-1.70916e-06,-5.54376e-05,-2.58075e-05,-0.00778166,27.1002,29.297,0.0783385,14.6113,29.3007,27.0967,0.0781306,28.1853,213,14.0683,9.15471,0.325,7392
-1.15766e-07,7.68036e-08,-1.71328e-06,-4.67924e-05,-3.5676e-05,-0.00886808,26.783,27.4897,-0.0201193,13.7653,27.5104,26.7625,-0.0202609,27.1644,213,13.4949,7.58427,0.325,7393
-1.75554e-07,6.64154e-08,-1.70947e-06,-6.45027e-05,-3.25009e-05,-0.00778348,25.9592,28.3319,0.0558674,14.1429,28.3415,25.9499,0.0556486,27.1691,213,14.5625,7.84609,0.325,7394
-1.72018e-07,4.48824e-08,-1.70755e-06,-6.35323e-05,-2.76028e-05,-0.00884367,25.5538,27.8408,0.108496,13.869,27.846,25.549,0.108065,26.6638,213,14.4822,8.57073,0.325,7395
-2.25304e-07,5.98798e-08,-1.70552e-06,-7.59218e-05,-3.12508e-05,-0.00775357,24.8476,28.183,0.187022,14.0019,28.1907,24.8401,0.186846,26.488,213,15.2559,8.02464,0.325,7396
1.49729e-07,2.93439e-08,-1.71157e-06,-5.64427e-05,-2.57897e-05,-0.00778962,26.9876,29.2613,0.0667526,14.5985,29.2635,26.9855,0.0665771,28.1272,213,6.00343,9.16216,0.325,7397
9.51674e-08,4.30987e-08,-1.71517e-06,-4.28023e-05,-2.75598e-05,-0.00780439,28.2972,29.433,-0.04412,14.7402,29.4362,28.2941,-0.04419,28.9262,213,7.09584,8.67778,0.325,7398
1.17748e-07,7.6496e-08,-1.71398e-06,-4.76535e-05,-3.5546e-05,-0.0088734,26.6945,27.4719,-0.0266425,13.7573,27.4879,26.6787,-0.0267931,27.1191,213,6.56448,7.5958,0.325,7399
1.80151e-07,6.44161e-08,-1.71049e-06,-6.60164e-05,-3.20213e-05,-0.00778267,25.8143,28.3348,0.0484664,14.1472,28.3426,25.8068,0.0482249,27.1155,213,5.47584,7.90586,0.325,7400
2.28992e-07,5.78563e-08,-1.70511e-06,-7.8293e-05,-3.05995e-05,-0.00626832,25.2636,29.4974,0.171073,14.6671,29.5048,25.2568,0.170544,27.4578,213,4.80321,8.08516,0.325,7401
1.74433e-07,4.44233e-08,-1.70991e-06,-6.44673e-05,-2.75742e-05,-0.00778255,26.0387,28.7705,-0.118683,14.4465,28.7742,26.0351,-0.118786,27.6255,213,5.58342,8.58258,0.325,7402
-1.49213e-06,-6.5927e-07,-1.7516e-06,-0.00124629,-0.000348571,-0.0137233,19.9285,21.192,2.36831,13.9651,25.7366,19.9458,-2.19357,25.5321,213,20.2,18.525,0.35,7403
-1.51248e-06,8.31259e-07,-1.68221e-06,-0.00126713,-0.000383098,-0.0136787,19.8815,21.1256,2.41332,13.88,25.6391,19.9024,-2.12102,25.3827,213,20.2,0.975,0.35,7404
-1.64432e-06,4.42394e-08,-1.73343e-06,-0.000890947,-3.22893e-05,-0.0145985,20.0942,21.3027,0.80206,14.1246,25.1769,20.0944,-3.07232,26.082,213,20.2,8.775,0.35,7405
-1.60448e-06,2.30093e-07,-1.73109e-06,-0.000890422,-8.22139e-05,-0.014355,20.4138,21.5512,1.46363,13.8269,25.3341,20.4143,-2.31977,25.5517,213,20.2,4.875,0.35,7406
-1.56137e-06,4.23956e-07,-1.69094e-06,-0.000967954,-0.000134934,-0.0143856,20.0406,21.213,1.1565,13.9913,25.1762,20.0403,-2.80644,25.801,213,20.2,2.925,0.35,7407
-1.63819e-06,1.12886e-07,-1.75263e-06,-0.00102251,-3.95263e-05,-0.0148688,19.2374,20.6209,-0.249984,14.3909,24.5764,19.2372,-4.20531,26.5184,213,20.2,6.825,0.35,7408
-1.63089e-06,-1.27762e-08,-1.73973e-06,-0.000850654,-2.98192e-05,-0.0146219,20.1828,21.338,0.800982,13.6227,24.6923,20.1827,-2.55318,25.294,213,20.2,10.725,0.35,7409
-1.64077e-06,-7.04182e-08,-1.74915e-06,-0.00100827,-3.06624e-05,-0.0149933,19.0909,20.4668,-0.591794,14.2569,24.1944,19.0909,-4.31934,26.3355,213,20.2,12.675,0.35,7410
-1.63205e-06,-1.6111e-07,-1.7077e-06,-0.00089598,-6.5721e-05,-0.0143665,20.4051,21.5736,1.4466,13.8163,25.326,20.4059,-2.30657,25.5306,213,20.2,14.625,0.35,7411
-1.53573e-06,-3.22325e-07,-1.7191e-06,-0.00083058,-0.000109373,-0.0146509,20.0658,21.0808,0.614996,13.0483,23.896,20.0662,-2.20064,24.4082,213,20.2,16.575,0.35,7412
-1.25864e-06,9.56217e-07,-1.42507e-06,-0.000752391,-0.000368128,-0.0132472,22.1841,22.7249,4.5988,15.5504,29.1945,22.2197,-1.90635,28.2664,213,20.2,0.4875,0.3375,7413
-1.62445e-06,1.14306e-06,-1.75444e-06,-0.00139513,-0.000680908,-0.0135659,19.1873,20.1925,2.05802,12.752,23.8063,19.3292,-1.69771,23.5863,213,20.2,0.4875,0.3625,7414
-1.69665e-06,6.91939e-07,-1.90259e-06,-0.00151021,-0.000247138,-0.0136684,19.3804,21.158,2.26887,13.4621,25.1722,19.3872,-1.75206,24.5484,213,20.2,1.4625,0.3625,7415
-1.5689e-06,-9.54197e-07,-1.9008e-06,-0.00140804,-0.000648444,-0.0135654,19.2021,20.2711,2.09167,12.8949,23.994,19.3668,-1.7959,23.8158,213,20.2,19.0125,0.3625,7416
-1.20135e-06,-7.62345e-07,-1.57256e-06,-0.000770516,-0.000321995,-0.0132474,22.2044,22.8356,4.64438,15.6941,29.4097,22.253,-1.97838,28.492,213,20.2,19.0125,0.3375,7417
-1.70311e-06,-5.38039e-07,-1.92527e-06,-0.00141357,-0.000212237,-0.0140737,19.0669,20.7577,1.24898,13.1798,24.18,19.0732,-2.17963,24.2135,213,20.2,18.0375,0.3625,7418
-1.30502e-06,6.5903e-07,-1.55929e-06,-0.000933038,-0.000259007,-0.0140424,20.5068,21.4554,2.05651,14.4276,26.1794,20.5151,-2.67579,26.4814,213,20.2,1.4625,0.3375,7419
-1.31119e-06,-5.08087e-07,-1.57758e-06,-0.000793331,-0.00022286,-0.0136717,21.6009,22.4038,3.47581,15.696,28.6349,21.6028,-2.75718,28.5335,213,20.2,18.0375,0.3375,7420
-1.71041e-06,5.06114e-07,-1.88177e-06,-0.00118985,-0.000174619,-0.0141071,19.7559,21.1848,1.57604,13.9071,25.2876,19.7558,-2.52663,25.5023,213,20.2,2.4375,0.3625,7421
-1.74639e-06,3.66551e-07,-1.87299e-06,-0.00109395,-0.000108528,-0.0144855,19.5356,20.9224,0.688125,13.2526,24.0577,19.536,-2.44759,24.5586,213,20.2,3.4125,0.3625,7422
-1.45485e-06,5.82934e-07,-1.73725e-06,-0.00102051,-0.000174611,-0.0140997,20.2846,21.4751,1.87686,14.0576,25.7307,20.2903,-2.38442,25.8283,213,20.2,1.95,0.35,7423
-1.32435e-06,4.87661e-07,-1.52873e-06,-0.000758831,-0.000148171,-0.0144237,20.594,21.4534,1.36196,14.0783,25.4875,20.591,-2.66916,26.0558,213,20.2,2.4375,0.3375,7424
-1.76592e-06,2.74527e-07,-1.89991e-06,-0.00103101,-9.04406e-05,-0.0144246,19.8573,21.181,1.00705,13.1278,24.2217,19.8575,-2.03388,24.3684,213,20.2,4.3875,0.3625,7425
-1.79093e-06,1.91863e-07,-1.92014e-06,-0.00112951,-7.84337e-05,-0.0140815,20.14,21.6193,1.91131,14.2125,25.9779,20.1399,-2.44717,26.0023,213,20.2,5.3625,0.3625,7426
-1.52533e-06,3.17161e-07,-1.71563e-06,-0.000716218,-9.09343e-05,-0.0143563,20.9285,21.8086,1.73142,14.3341,26.104,20.9288,-2.56422,26.4629,213,20.2,3.9,0.35,7427
-1.37611e-06,2.69202e-07,-1.54283e-06,-0.000588523,-8.92849e-05,-0.0142381,21.5148,22.2174,2.30432,15.3873,27.6482,21.5147,-3.12642,28.2124,213,20.2,4.3875,0.3375,7428
-1.35682e-06,3.61297e-07,-1.51548e-06,-0.000609186,-0.00010968,-0.0142641,21.3756,22.0786,2.15759,15.4482,27.5661,21.3761,-3.3304,28.3136,213,20.2,3.4125,0.3375,7429
-1.80627e-06,1.33654e-07,-1.93455e-06,-0.00125421,-4.22703e-05,-0.0145532,19.0446,20.7503,0.327531,14.1814,24.7205,19.0443,-3.64233,25.9938,213,20.2,6.3375,0.3625,7430
-1.80277e-06,9.57718e-08,-1.94287e-06,-0.00114277,-3.59173e-05,-0.0148962,18.8317,20.3895,-0.524982,13.6051,23.5373,18.8318,-3.67292,25.1893,213,20.2,7.3125,0.3625,7431
-1.39435e-06,1.92074e-07,-1.56765e-06,-0.000694472,-6.90171e-05,-0.0144497,20.8775,21.7578,1.51837,13.9871,25.6254,20.877,-2.34874,25.9281,213,20.2,5.3625,0.3375,7432
-1.56931e-06,1.57575e-07,-1.76041e-06,-0.00100278,-5.95663e-05,-0.0141537,20.4389,21.7664,1.93022,14.4588,26.3071,20.4389,-2.61048,26.4758,213,20.2,5.85,0.35,7433
-1.41446e-06,1.34112e-07,-1.57364e-06,-0.000788638,-4.91032e-05,-0.0147168,20.1845,21.2253,0.581896,14.53,25.434,20.1838,-3.62605,26.8231,213,20.2,6.3375,0.3375,7434
-1.80127e-06,6.15298e-08,-1.93023e-06,-0.00100359,-3.44059e-05,-0.0146919,19.5939,20.9579,0.328801,13.4684,24.1119,19.5936,-2.82494,24.986,213,20.2,8.2875,0.3625,7435
-1.82856e-06,2.94595e-08,-1.90935e-06,-0.00108417,-3.10048e-05,-0.0145163,19.6421,21.1244,0.737616,14.2664,25.1974,19.6422,-3.33541,26.2007,213,20.2,9.2625,0.3625,7436
-1.57371e-06,7.77802e-08,-1.766e-06,-0.000730687,-3.55872e-05,-0.0148426,20.1767,21.155,0.315417,14.4692,25.2043,20.1768,-3.734,26.7809,213,20.2,7.8,0.35,7437
-1.42132e-06,5.95157e-08,-1.56197e-06,-0.000590124,-3.4011e-05,-0.0146773,20.8794,21.6621,1.05298,15.4123,26.7699,20.8791,-4.05458,28.342,213,20.2,8.2875,0.3375,7438
-1.42058e-06,9.28421e-08,-1.57073e-06,-0.000659676,-3.55356e-05,-0.0148664,20.3543,21.2327,0.359696,15.7135,26.5095,20.3545,-4.91737,28.8462,213,20.2,7.3125,0.3375,7439
-1.81942e-06,1.09369e-09,-1.9126e-06,-0.00103953,-2.92326e-05,-0.0144939,19.8179,21.2398,0.882072,14.2933,25.3542,19.8179,-3.2324,26.2599,213,20.2,10.2375,0.3625,7440
-1.78714e-06,-2.88271e-08,-1.93816e-06,-0.00102115,-3.19663e-05,-0.0146233,19.6571,21.0493,0.51338,14.0452,24.827,19.6563,-3.26348,25.8952,213,20.2,11.2125,0.3625,7441
-1.4405e-06,2.84228e-08,-1.5469e-06,-0.000717177,-2.89272e-05,-0.0146242,20.5875,21.5562,1.0147,14.3693,25.6548,20.5874,-3.08383,26.5699,213,20.2,9.2625,0.3375,7442
-1.61503e-06,1.49017e-08,-1.72999e-06,-0.000919184,-2.70494e-05,-0.0145152,20.1535,21.4091,1.01836,14.758,25.9717,20.1535,-3.54428,27.0798,213,20.2,9.75,0.35,7443
-1.43211e-06,1.78102e-09,-1.54977e-06,-0.000657276,-2.7575e-05,-0.0146612,20.7117,21.5979,1.00245,13.8462,25.1466,20.7113,-2.54582,25.7627,213,20.2,10.2375,0.3375,7444
-1.79736e-06,-5.70137e-08,-1.9505e-06,-0.00117419,-2.63491e-05,-0.0149315,18.6935,20.309,-0.668711,14.1335,23.9538,18.6932,-4.31327,26.0384,213,20.2,12.1875,0.3625,7445
-1.81583e-06,-8.5128e-08,-1.91329e-06,-0.00122196,-3.20371e-05,-0.0147058,18.9092,20.5839,-0.0680217,14.1935,24.4513,18.9096,-3.93579,26.0619,213,20.2,13.1625,0.3625,7446
-1.41819e-06,-2.60933e-08,-1.57152e-06,-0.000668805,-2.94218e-05,-0.0147538,20.5214,21.4213,0.698063,13.7013,24.7621,20.5192,-2.6405,25.5468,213,20.2,11.2125,0.3375,7447
-1.57042e-06,-4.27031e-08,-1.77714e-06,-0.000919536,-2.98526e-05,-0.0147695,19.7304,20.9825,0.237831,14.261,24.8711,19.7304,-3.65084,26.3307,213,20.2,11.7,0.35,7448
-1.42487e-06,-5.49932e-08,-1.57906e-06,-0.000751396,-3.02054e-05,-0.0150034,19.8584,20.8734,-0.200017,14.324,24.6609,19.8581,-3.9872,26.5742,213,20.2,12.1875,0.3375,7449
-1.81639e-06,-1.30408e-07,-1.882e-06,-0.00112746,-6.38254e-05,-0.0142007,19.9744,21.4714,1.575,14.1973,25.7205,19.9744,-2.67408,26.0021,213,20.2,14.1375,0.3625,7450
-1.79259e-06,-1.97725e-07,-1.89792e-06,-0.00103696,-7.33467e-05,-0.0144354,19.8494,21.2056,0.992381,13.1416,24.2405,19.8496,-2.04272,24.3861,213,20.2,15.1125,0.3625,7451
-1.4291e-06,-8.76101e-08,-1.54794e-06,-0.000775057,-3.75476e-05,-0.014849,20.0278,21.0658,0.2201,14.3669,25.0098,20.028,-3.72412,26.5953,213,20.2,13.1625,0.3375,7452
-1.59403e-06,-1.04194e-07,-1.70868e-06,-0.000997869,-4.61208e-05,-0.0143319,20.1833,21.5228,1.4169,14.4236,25.8934,20.1833,-2.95371,26.4583,213,20.2,13.65,0.35,7453
-1.42362e-06,-1.31517e-07,-1.52582e-06,-0.000702617,-5.15626e-05,-0.0144596,20.8649,21.7812,1.50318,13.9304,25.5726,20.8647,-2.28809,25.8306,213,20.2,14.1375,0.3375,7454
-1.75154e-06,-2.74716e-07,-1.90013e-06,-0.00106505,-9.03229e-05,-0.0145349,19.5726,20.9444,0.615083,13.1103,23.8901,19.5725,-2.3305,24.3506,213,20.2,16.0875,0.3625,7455
-1.69615e-06,-3.88233e-07,-1.90281e-06,-0.00102631,-0.00014244,-0.0144332,19.7722,21.0161,0.90327,12.9971,23.9545,19.7767,-2.03964,24.1775,213,20.2,17.0625,0.3625,7456
-1.4019e-06,-1.91582e-07,-1.54087e-06,-0.000596844,-7.22017e-05,-0.0142653,21.4727,22.211,2.23552,15.3999,27.6233,21.4723,-3.17641,28.2314,213,20.2,15.1125,0.3375,7457
-1.54886e-06,-2.31319e-07,-1.73988e-06,-0.000721738,-7.64131e-05,-0.014349,20.9476,21.8558,1.76849,14.3816,26.1938,20.9475,-2.56946,26.532,213,20.2,15.6,0.35,7458
-1.35824e-06,-2.69039e-07,-1.54248e-06,-0.000539373,-9.34226e-05,-0.0143608,21.4563,22.084,2.00398,15.1036,27.1475,21.4565,-3.05973,27.8021,213,20.2,16.0875,0.3375,7459
-1.48493e-06,-4.50207e-07,-1.73716e-06,-0.000776399,-0.000140559,-0.0142385,20.857,21.7519,1.91039,14.2773,26.1068,20.8604,-2.44784,26.3264,213,20.2,17.55,0.35,7460
-1.3203e-06,-3.73519e-07,-1.54509e-06,-0.000523819,-0.000118228,-0.0143827,21.427,21.9978,1.92185,14.9328,26.892,21.4282,-2.97356,27.5431,213,20.2,17.0625,0.3375,7461
7.44638e-07,-1.23247e-06,-1.88486e-06,-0.000391826,-0.00121076,-0.0137441,21.0842,19.9316,2.29207,14.1029,25.7796,19.9545,-2.42622,25.7914,213,0.822727,19.5,0.35,7462
-9.79639e-08,-1.27934e-06,-1.96424e-06,-3.48248e-05,-0.00104254,-0.014012,22.0091,20.5908,2.33744,14.5774,26.7507,20.5908,-2.40416,26.615,213,13.7409,19.5,0.35,7463
4.19084e-08,-1.26637e-06,-1.97997e-06,-2.51907e-05,-0.000939033,-0.014324,21.6962,20.41,1.57187,14.3088,25.9428,20.4101,-2.67483,26.2916,213,8.20455,19.5,0.35,7464
9.93663e-08,-1.27511e-06,-1.97118e-06,-3.47907e-05,-0.00104682,-0.0141524,21.7717,20.3473,1.90242,14.6315,26.4686,20.3472,-2.79437,26.7332,213,6.35909,19.5,0.35,7465
1.8585e-07,-1.21463e-06,-1.97673e-06,-7.09671e-05,-0.000855536,-0.0145214,21.3695,20.2653,1.03179,14.1516,25.3526,20.2645,-2.95051,26.1332,213,4.51364,19.5,0.35,7466
-3.53255e-07,-1.13526e-06,-1.9747e-06,-0.000128116,-0.000756078,-0.0146791,21.0996,20.2158,0.62037,13.1688,24.031,20.2114,-2.30663,24.6508,213,17.4318,19.5,0.35,7467
-1.84953e-07,-1.14512e-06,-1.98652e-06,-7.05962e-05,-0.000718169,-0.0147634,21.1988,20.2874,0.52,13.0209,23.8799,20.2883,-2.16196,24.4447,213,15.5864,19.5,0.35,7468
-4.16778e-08,-1.27658e-06,-1.97334e-06,-2.53149e-05,-0.000919311,-0.0142987,21.7697,20.5115,1.68119,14.3983,26.1238,20.5113,-2.67272,26.4409,213,11.8955,19.5,0.35,7469
-4.06856e-10,-1.25372e-06,-1.9827e-06,-2.65432e-05,-0.000791625,-0.0144908,21.6602,20.5834,1.30311,14.0327,25.5146,20.583,-2.5509,25.9535,213,10.05,19.5,0.35,7470
3.54543e-07,-1.1409e-06,-1.96854e-06,-0.000130987,-0.000762487,-0.0146639,21.1054,20.2166,0.651652,13.1759,24.0547,20.216,-2.29709,24.6576,213,2.66818,19.5,0.35,7471
-7.40031e-07,-1.22548e-06,-1.90266e-06,-0.000392123,-0.00120264,-0.0137135,21.1468,20.0061,2.39818,14.2027,25.9646,20.0273,-2.44085,25.9513,213,19.2773,19.5,0.35,7472
8.57718e-07,-1.01814e-06,-1.62533e-06,-0.000373612,-0.000725485,-0.0132651,22.7231,22.2279,4.57955,15.7634,29.4035,22.2503,-2.12326,28.6285,213,0.361364,19.5,0.3375,7473
1.05368e-06,-1.38665e-06,-1.95475e-06,-0.000699959,-0.00135208,-0.0135766,20.1875,19.2697,2.06477,12.9864,24.0507,19.3932,-1.922,23.9856,213,0.361364,19.5,0.3625,7474
6.14942e-07,-1.38796e-06,-2.1219e-06,-0.000254628,-0.00144554,-0.0137655,21.0818,19.4057,2.06648,13.7765,25.3458,19.4154,-2.2072,25.1185,213,1.28409,19.5,0.3625,7475
-8.53345e-07,-1.00754e-06,-1.6537e-06,-0.000375165,-0.000711896,-0.0132281,22.8013,22.3274,4.71192,15.8846,29.6332,22.3435,-2.13605,28.8242,213,19.7386,19.5,0.3375,7476
-1.05006e-06,-1.37917e-06,-1.98226e-06,-0.00070228,-0.00134784,-0.013567,20.2032,19.2947,2.09733,13.0889,24.1812,19.4107,-1.99663,24.1486,213,19.7386,19.5,0.3625,7477
-6.10026e-07,-1.3795e-06,-2.13339e-06,-0.000254314,-0.00143533,-0.0137594,21.1097,19.4475,2.1026,13.7825,25.3842,19.4564,-2.18074,25.1309,213,18.8159,19.5,0.3625,7478
5.728e-07,-9.87401e-07,-1.7767e-06,-0.000263897,-0.000881684,-0.0141035,21.4245,20.555,1.94655,14.7484,26.4284,20.5661,-3.06842,27.0464,213,1.28409,19.5,0.3375,7479
-5.68751e-07,-9.8087e-07,-1.78789e-06,-0.000261118,-0.000872248,-0.0140944,21.4634,20.6033,1.99427,14.7808,26.5048,20.613,-3.05679,27.1004,213,18.8159,19.5,0.3375,7480
-3.04714e-07,-1.38877e-06,-2.14155e-06,-0.000104084,-0.00110388,-0.0143837,21.0869,19.6798,0.989644,13.6179,24.6595,19.6732,-2.57636,25.1167,213,16.9705,19.5,0.3625,7481
-4.32259e-07,-1.30773e-06,-2.16009e-06,-0.000173586,-0.000986539,-0.0142484,21.2897,20.1456,1.4807,13.9651,25.3498,20.1466,-2.58041,25.7263,213,17.8932,19.5,0.3625,7482
-4.07595e-07,-9.27386e-07,-1.80314e-06,-0.000145131,-0.000492103,-0.0145801,21.6437,21.1554,1.32775,14.058,25.548,21.147,-2.56807,26.1943,213,17.8932,19.5,0.3375,7483
-5.00721e-07,-1.11101e-06,-1.99259e-06,-0.000170835,-0.000907494,-0.0142235,21.4688,20.432,1.6909,14.4827,26.0631,20.431,-2.90236,26.6004,213,18.3545,19.5,0.35,7484
-1.55357e-07,-1.33995e-06,-2.16509e-06,-6.65333e-05,-0.000943475,-0.0143697,21.4878,20.2536,1.35742,14.0806,25.5036,20.253,-2.65773,25.9377,213,15.125,19.5,0.3625,7485
-2.23557e-07,-1.38718e-06,-2.15273e-06,-7.81424e-05,-0.00109269,-0.0143675,21.211,19.7831,1.10007,13.582,24.7365,19.7851,-2.4275,25.058,213,16.0477,19.5,0.3625,7486
-2.97105e-07,-9.54311e-07,-1.78797e-06,-0.000101686,-0.000466007,-0.0143093,22.2637,21.7509,2.26774,15.7928,28.0593,21.7492,-3.52623,28.951,213,16.9705,19.5,0.3375,7487
-2.58277e-07,-1.20698e-06,-1.96257e-06,-8.43499e-05,-0.000754091,-0.0140577,22.2568,21.3142,2.59064,15.6211,28.0448,21.3143,-3.19741,28.4798,213,16.5091,19.5,0.35,7488
-2.16278e-07,-9.57764e-07,-1.79815e-06,-7.96648e-05,-0.000455057,-0.0144363,22.1403,21.612,1.93462,15.6004,27.6376,21.6124,-3.56316,28.6671,213,16.0477,19.5,0.3375,7489
-8.52544e-08,-1.4697e-06,-2.13982e-06,-3.4261e-05,-0.00127129,-0.0138227,21.9461,20.2051,2.5401,14.5459,26.7882,20.2067,-2.30353,26.423,213,13.2795,19.5,0.3625,7490
-1.14939e-07,-1.43743e-06,-2.146e-06,-2.82005e-05,-0.00126509,-0.0139386,21.7845,20.0437,2.20699,14.4506,26.4474,20.0417,-2.45389,26.2904,213,14.2023,19.5,0.3625,7491
-1.12009e-07,-1.03244e-06,-1.79479e-06,-3.55197e-05,-0.00078108,-0.0143295,21.9151,20.8658,1.79769,14.6614,26.5188,20.8638,-2.80398,26.9441,213,14.2023,19.5,0.3375,7492
-1.27791e-07,-1.16494e-06,-1.98408e-06,-4.89022e-05,-0.000875782,-0.0144039,21.5965,20.4327,1.39313,14.6471,26.1419,20.4328,-3.15227,26.8979,213,14.6636,19.5,0.35,7493
-1.53538e-07,-9.64406e-07,-1.80453e-06,-5.73015e-05,-0.000486002,-0.0147385,21.6616,21.0582,0.999155,13.8283,25.1585,21.0585,-2.49809,25.8516,213,15.125,19.5,0.3375,7494
-3.29265e-08,-1.44178e-06,-2.1587e-06,-1.58131e-05,-0.00104367,-0.0144755,21.3042,19.8576,0.953594,13.5735,24.7023,19.8577,-2.44466,25.0781,213,11.4341,19.5,0.3625,7495
-5.57953e-08,-1.46196e-06,-2.14798e-06,-3.20473e-05,-0.00118043,-0.0140412,21.7432,20.127,2.02665,14.6035,26.4887,20.1265,-2.71827,26.6027,213,12.3568,19.5,0.3625,7496
-7.98621e-08,-1.05011e-06,-1.79234e-06,-3.15205e-05,-0.000744163,-0.0142695,22.0863,21.0833,2.04767,14.7912,26.8578,21.0841,-2.72462,27.1598,213,13.2795,19.5,0.3375,7497
-6.88311e-08,-1.2173e-06,-1.97558e-06,-3.10377e-05,-0.00102085,-0.0141776,21.7844,20.3913,1.87436,14.9124,26.7417,20.3914,-3.08304,27.2111,213,12.8182,19.5,0.35,7498
-5.2861e-08,-1.04817e-06,-1.79625e-06,-2.66093e-05,-0.000706533,-0.0144222,21.9125,20.9555,1.65206,14.5984,26.3814,20.9541,-2.81542,26.897,213,12.3568,19.5,0.3375,7499
1.32012e-08,-1.43055e-06,-2.16171e-06,-2.81116e-05,-0.0010259,-0.0142125,21.7277,20.3234,1.76452,14.5715,26.318,20.3227,-2.82504,26.6559,213,9.58864,19.5,0.3625,7500
-1.43664e-08,-1.42665e-06,-2.1652e-06,-3.0581e-05,-0.000921609,-0.0145704,21.3037,20.0497,0.840265,13.3575,24.4295,20.0497,-2.28549,24.8166,213,10.5114,19.5,0.3625,7501
-3.00003e-08,-1.04607e-06,-1.79975e-06,-2.19389e-05,-0.000575859,-0.0142566,22.4131,21.6335,2.37918,15.8216,28.2177,21.6337,-3.42558,28.9189,213,11.4341,19.5,0.3375,7502
-2.43818e-08,-1.19054e-06,-1.99027e-06,-1.98926e-05,-0.000645106,-0.0145537,21.8178,20.9379,1.36285,14.6296,26.2198,20.9381,-3.03941,27.0085,213,10.9727,19.5,0.35,7503
-1.06343e-08,-1.03437e-06,-1.80387e-06,-2.33524e-05,-0.000504879,-0.0143956,22.2971,21.6194,2.06957,15.6528,27.8363,21.6192,-3.4694,28.7066,213,10.5114,19.5,0.3375,7504
5.55585e-08,-1.458e-06,-2.15388e-06,-2.87253e-05,-0.00117458,-0.014009,21.8159,20.2033,2.14004,14.5838,26.5619,20.2031,-2.60568,26.5652,213,7.74318,19.5,0.3625,7505
3.31568e-08,-1.4344e-06,-2.16053e-06,-1.94294e-05,-0.00113674,-0.0141309,21.7062,20.1337,1.84566,14.4151,26.1909,20.1341,-2.63943,26.3297,213,8.66591,19.5,0.3625,7506
2.96586e-08,-1.03823e-06,-1.80577e-06,-2.25155e-05,-0.000692717,-0.0145269,21.7757,20.8324,1.36212,14.3623,25.9313,20.8322,-2.79331,26.545,213,8.66591,19.5,0.3375,7507
2.31199e-08,-1.19304e-06,-1.98822e-06,-2.17538e-05,-0.000899729,-0.0143279,21.7648,20.5291,1.63016,14.6549,26.3523,20.5291,-2.95739,26.8755,213,9.12727,19.5,0.35,7508
9.96348e-09,-1.03271e-06,-1.80553e-06,-2.1474e-05,-0.000615301,-0.0146235,21.7474,20.9116,1.19644,14.0527,25.5255,20.9098,-2.57988,26.1054,213,9.58864,19.5,0.3375,7509
1.16442e-07,-1.42671e-06,-2.15251e-06,-2.58786e-05,-0.00126508,-0.0140794,21.5604,19.8164,1.78146,14.3706,26.0428,19.8139,-2.69842,26.1884,213,5.89773,19.5,0.3625,7510
8.62638e-08,-1.4708e-06,-2.14683e-06,-3.85476e-05,-0.00126634,-0.013928,21.7682,20.0402,2.22001,14.603,26.5963,20.0418,-2.60964,26.5427,213,6.82045,19.5,0.3625,7511
5.26949e-08,-1.04168e-06,-1.80296e-06,-2.66181e-05,-0.000694162,-0.014431,21.9183,20.9788,1.64553,14.6199,26.4025,20.9774,-2.83725,26.94,213,7.74318,19.5,0.3375,7512
6.75541e-08,-1.22462e-06,-1.97853e-06,-3.05324e-05,-0.00101683,-0.0140828,21.9481,20.56,2.17083,15.0958,27.1552,20.5602,-3.03641,27.4939,213,7.28182,19.5,0.35,7513
8.04269e-08,-1.04958e-06,-1.79774e-06,-3.24208e-05,-0.000746146,-0.0142974,22.0346,21.0301,1.95795,14.9641,26.9599,21.0312,-2.96838,27.4484,213,6.82045,19.5,0.3375,7514
2.24415e-07,-1.42113e-06,-2.14503e-06,-8.04207e-05,-0.00118648,-0.0141704,21.3736,19.817,1.54327,14.6133,26.0714,19.8175,-3.1551,26.6556,213,4.05227,19.5,0.3625,7515
1.56379e-07,-1.37683e-06,-2.16241e-06,-6.79191e-05,-0.000970962,-0.0145289,21.177,19.9061,0.824499,13.4301,24.4307,19.9065,-2.42955,24.9082,213,4.975,19.5,0.3625,7516
1.12788e-07,-1.02787e-06,-1.79909e-06,-3.58346e-05,-0.000774095,-0.0144104,21.7927,20.7537,1.56182,14.6449,26.3234,20.7512,-2.96646,26.9395,213,5.89773,19.5,0.3375,7517
1.28261e-07,-1.15164e-06,-1.98582e-06,-4.69663e-05,-0.000835517,-0.0144011,21.6731,20.5633,1.471,14.4597,26.0319,20.563,-2.88746,26.6098,213,5.43636,19.5,0.35,7518
1.54078e-07,-9.97657e-07,-1.8015e-06,-5.8174e-05,-0.000561047,-0.014399,22.0931,21.3854,1.90974,15.4918,27.4931,21.3856,-3.49047,28.4263,213,4.975,19.5,0.3375,7519
4.34949e-07,-1.31942e-06,-2.15226e-06,-0.000176503,-0.00100273,-0.0141787,21.3688,20.206,1.66209,14.0669,25.5815,20.2078,-2.55235,25.869,213,2.20682,19.5,0.3625,7520
3.05056e-07,-1.38424e-06,-2.13696e-06,-0.000102745,-0.00117431,-0.0140877,21.4613,19.9532,1.77872,14.7221,26.3432,19.951,-3.10104,26.8256,213,3.12955,19.5,0.3625,7521
2.17047e-07,-9.88805e-07,-1.79298e-06,-7.97543e-05,-0.000611949,-0.0144708,21.8259,21.0769,1.57191,14.7543,26.4545,21.0742,-3.05403,27.2202,213,4.05227,19.5,0.3375,7522
2.59964e-07,-1.20588e-06,-1.95816e-06,-8.30005e-05,-0.000990885,-0.0139971,21.9714,20.6937,2.38857,15.5105,27.6908,20.6931,-3.33023,28.1815,213,3.59091,19.5,0.35,7523
2.9734e-07,-9.55634e-07,-1.78478e-06,-0.000102497,-0.000571727,-0.0145726,21.6553,20.9949,1.28998,14.1795,25.6516,20.9959,-2.70737,26.3415,213,3.12955,19.5,0.3375,7524
5.04234e-07,-1.12156e-06,-1.98408e-06,-0.0001678,-0.000937071,-0.014165,21.5256,20.443,1.82589,14.6003,26.2754,20.4444,-2.92526,26.7658,213,1.74545,19.5,0.35,7525
4.0951e-07,-9.32076e-07,-1.79671e-06,-0.000146662,-0.000501914,-0.0145652,21.6475,21.1476,1.35485,14.0899,25.5951,21.1395,-2.5847,26.2373,213,2.20682,19.5,0.3375,7526
-5.40229e-08,1.12254e-06,-1.3803e-06,-3.2244e-05,-0.000287672,-0.000203747,20.6643,-16.8517,-4.52518,20.4583,24.0639,-7.92385,-16.8527,37.2633,213,11.8955,0,0.25,7527
4.26126e-07,1.01875e-06,-1.38616e-06,-0.000130364,-0.000248627,-0.000180574,2.8971,-14.4727,-4.47745,10.9244,7.37042,-8.94516,-14.4783,19.6746,213,2.66818,0,0.25,7528
1.2616e-07,1.09967e-06,-1.38586e-06,-4.79839e-05,-0.00020967,-0.000205331,24.0237,0.27597,0.913279,11.8914,24.0411,0.913625,0.258267,23.462,213,6.35909,0,0.25,7529
7.48749e-07,9.65233e-07,-1.33586e-06,-0.000222208,-0.000208949,-0.000150648,-12.6709,-10.7236,-2.16054,7.31557,0.105906,-11.1357,-14.5252,13.2652,213,0.822727,0,0.25,7530
2.38634e-07,1.07567e-06,-1.38747e-06,-7.75293e-05,-0.000274563,-0.00018797,12.4802,-16.4592,-3.74074,16.3229,16.1735,-7.42087,-16.4723,29.1922,213,4.51364,0,0.25,7531
-7.43842e-07,9.63167e-07,-1.36588e-06,-0.000219118,-0.000206507,-0.000133504,-10.0976,-8.24542,2.47691,7.99879,4.17505,-8.21864,-11.8225,14.5347,213,19.2773,0,0.25,7532
5.40487e-08,1.12104e-06,-1.38588e-06,-3.24701e-05,-0.000285008,-0.000198799,21.3213,-15.7703,-3.10829,20.1972,24.6216,-6.40614,-15.7728,36.6208,213,8.20455,0,0.25,7533
5.81828e-10,1.13101e-06,-1.37465e-06,-2.78803e-05,-0.000289755,-0.000213493,20.6074,-17.8555,-6.65456,21.2024,24.5479,-10.5938,-17.8568,39.2801,213,10.05,0,0.25,7534
-1.25746e-07,1.10084e-06,-1.38055e-06,-4.83611e-05,-0.000209325,-0.000204664,24.0277,0.386057,1.07077,11.8342,24.0518,1.0493,0.383419,23.3426,213,13.7409,0,0.25,7535
-2.38559e-07,1.07577e-06,-1.38616e-06,-7.77259e-05,-0.00027478,-0.000186748,12.5268,-16.4156,-3.48583,16.3191,16.2057,-7.14775,-16.4326,29.1277,213,15.5864,0,0.25,7536
-4.26887e-07,1.01915e-06,-1.38666e-06,-0.000130663,-0.000248875,-0.000175889,3.24004,-14.1224,-3.40261,11.4798,8.82894,-8.9833,-14.1306,20.8676,213,17.4318,0,0.25,7537
8.38337e-07,9.41313e-07,-1.17799e-06,-0.00021693,-0.000167427,-0.000147937,-7.26809,0.00269564,2.86528,5.97446,4.12525,-0.701696,-7.82367,10.4115,213,0.361364,0,0.2125,7538
8.75004e-07,9.9598e-07,-1.1867e-06,-0.000264226,-0.00023352,-8.9228e-05,-19.3255,-14.8156,6.37729,14.71,9.11746,-16.5788,-20.3025,27.7461,213,0.361364,0,0.2875,7539
6.54539e-07,9.96492e-07,-1.42736e-06,-0.000209919,-0.000243539,-0.000175132,-15.2387,-20.1767,-10.1295,10.0903,-3.01612,-19.332,-23.1968,18.5527,213,1.28409,0,0.2875,7540
-8.63319e-07,9.85775e-07,-1.26563e-06,-0.000254799,-0.000234745,-9.25261e-05,-17.4825,-14.5371,6.35129,14.1279,9.21139,-15.8352,-19.0445,26.7958,213,19.7386,0,0.2875,7541
-8.3676e-07,9.43294e-07,-1.25561e-06,-0.000219562,-0.000165364,-0.000153096,-8.19025,-0.22986,1.57201,5.79117,3.27456,-1.81487,-8.30779,10.0551,213,19.7386,0,0.2125,7542
-6.50958e-07,9.92457e-07,-1.42756e-06,-0.000202893,-0.000239235,-0.000146781,-10.4982,-15.8359,-2.25677,10.5487,3.78919,-15.0718,-17.3083,20.0729,213,18.8159,0,0.2875,7543
6.48421e-07,9.45876e-07,-1.41288e-06,-0.00019232,-0.000161474,-0.00017511,-3.33691,1.19357,-0.809202,5.28602,4.46153,-1.30355,-6.11052,9.16818,213,1.28409,0,0.2125,7544
-6.4584e-07,9.4717e-07,-1.41413e-06,-0.000190662,-0.000157818,-0.00017792,-2.85926,1.9648,-0.987704,4.52836,3.98767,-0.800783,-5.06905,7.84766,213,18.8159,0,0.2125,7545
4.89128e-07,1.02658e-06,-1.41475e-06,-0.000148699,-0.000267565,-0.000151752,-0.58549,-18.044,-1.03389,12.7918,7.31273,-8.70528,-18.2708,22.3897,213,2.20682,0,0.2875,7546
3.69403e-07,1.05445e-06,-1.37851e-06,-0.000111407,-0.000271517,-0.000156573,7.5571,-15.959,0.92336,14.689,13.4081,-4.91676,-15.9699,25.7005,213,3.12955,0,0.2875,7547
5.6405e-07,9.84163e-07,-1.43609e-06,-0.000173865,-0.000161107,-0.000199237,-1.12194,0.751809,-4.84846,3.89859,1.85875,-1.13892,-5.93842,6.81239,213,1.74545,0,0.25,7548
4.92089e-07,9.80365e-07,-1.39917e-06,-0.000148347,-0.00018617,-0.000207248,1.91964,-3.6356,-6.7314,4.48843,1.98362,-3.43774,-6.99324,7.82997,213,2.20682,0,0.2125,7549
2.7824e-07,1.08368e-06,-1.38608e-06,-8.92563e-05,-0.0002899,-0.000159894,10.8524,-18.6172,0.477472,17.2058,15.7907,-4.45709,-18.6209,29.9562,213,4.05227,0,0.2875,7550
2.05559e-07,1.10651e-06,-1.39547e-06,-6.8016e-05,-0.00030198,-0.00016398,14.4464,-19.917,0.351715,19.4192,18.9078,-4.09606,-19.9306,33.8255,213,4.975,0,0.2875,7551
3.70379e-07,1.00876e-06,-1.364e-06,-0.000116466,-0.000185487,-0.000218823,8.56406,-1.57338,-6.46958,7.76911,8.81947,-1.57963,-6.71875,13.7111,213,3.12955,0,0.2125,7552
3.20963e-07,1.04321e-06,-1.36599e-06,-9.82831e-05,-0.000192211,-0.000194369,14.5912,0.795517,0.47864,7.91978,15.4523,0.80039,-0.387296,15.2804,213,3.59091,0,0.25,7553
2.77106e-07,1.03783e-06,-1.37044e-06,-8.89667e-05,-0.00019798,-0.000212208,14.6237,-1.3876,-3.47739,10.0275,15.5243,-1.23502,-4.53062,18.6271,213,4.05227,0,0.2125,7554
1.49857e-07,1.11762e-06,-1.39401e-06,-5.39552e-05,-0.000207002,-0.000235047,20.0605,-2.41817,-6.53739,14.1516,20.8907,-2.37324,-7.41253,26.1503,213,5.89773,0,0.2875,7555
1.05239e-07,1.12908e-06,-1.39403e-06,-4.26926e-05,-0.00020095,-0.000251048,21.8376,-1.40644,-8.76464,16.1419,22.6784,-1.40648,-9.60539,29.065,213,6.82045,0,0.2875,7556
1.75503e-07,1.08805e-06,-1.38564e-06,-5.93795e-05,-0.000204307,-0.000206838,21.6454,0.359263,-0.0124994,11.2006,21.7177,0.957869,-0.683421,21.6273,213,5.43636,0,0.25,7557
1.49493e-07,1.07198e-06,-1.37853e-06,-5.32058e-05,-0.000200104,-0.000193898,24.7315,3.15584,4.06739,10.8157,24.7781,4.02988,3.14672,21.2036,213,5.89773,0,0.2125,7558
2.0482e-07,1.06025e-06,-1.37986e-06,-6.7994e-05,-0.000195463,-0.000231286,18.1165,-0.605563,-5.86713,12.6149,18.7164,-0.559354,-6.51328,22.8423,213,4.975,0,0.2125,7559
6.95446e-08,1.1403e-06,-1.39552e-06,-3.59361e-05,-0.000310312,-0.000176525,20.2051,-20.0939,-0.443929,22.166,24.2366,-4.4738,-20.0955,38.9464,213,7.74318,0,0.2875,7560
3.93459e-08,1.14488e-06,-1.38659e-06,-2.94627e-05,-0.000315718,-0.000182781,20.671,-21.3727,-1.84757,22.9007,24.4262,-5.60034,-21.3751,40.3001,213,8.66591,0,0.2875,7561
1.05227e-07,1.08274e-06,-1.37741e-06,-4.27369e-05,-0.000201957,-0.000209707,25.5967,2.21117,1.07297,12.3705,25.6914,2.23907,0.950359,24.1225,213,6.82045,0,0.2125,7562
8.66768e-08,1.10979e-06,-1.38455e-06,-3.8022e-05,-0.000203463,-0.000238648,23.8842,-0.414933,-5.5827,15.1359,24.2875,-0.416567,-5.98435,27.9077,213,7.28182,0,0.25,7563
6.99099e-08,1.09268e-06,-1.37767e-06,-3.47943e-05,-0.000207091,-0.000238729,24.3133,-0.992803,-5.63962,15.6365,24.948,-0.942032,-6.32509,28.9593,213,7.74318,0,0.2125,7564
1.34333e-08,1.15045e-06,-1.38001e-06,-2.7375e-05,-0.000319988,-0.000187889,20.2962,-22.6813,-3.27919,23.4347,24.1855,-7.16574,-22.684,41.355,213,9.58864,0,0.2875,7565
-1.22244e-08,1.15369e-06,-1.38307e-06,-2.85215e-05,-0.000321218,-0.000183157,20.348,-22.6418,-2.3641,23.5852,24.5285,-6.54447,-22.642,41.5314,213,10.5114,0,0.2875,7566
4.00904e-08,1.09811e-06,-1.36909e-06,-3.0083e-05,-0.000210915,-0.000235574,25.383,-1.17673,-4.79852,16.0682,26.3239,-1.10376,-5.81241,30.0599,213,8.66591,0,0.2125,7567
2.64573e-08,1.12088e-06,-1.36866e-06,-2.8166e-05,-0.000210878,-0.000238601,25.5644,-1.27141,-5.34319,16.1573,26.2669,-1.26945,-6.0477,30.2103,213,9.12727,0,0.25,7568
1.35843e-08,1.10302e-06,-1.36207e-06,-2.85087e-05,-0.000211346,-0.000243577,24.9731,-1.88121,-6.61505,16.7711,25.9263,-1.8337,-7.6158,31.0574,213,9.58864,0,0.2125,7569
-3.94008e-08,1.14869e-06,-1.38622e-06,-3.10186e-05,-0.000317827,-0.000176401,20.6962,-21.4287,-0.656771,23.07,24.7111,-4.67152,-21.4289,40.454,213,11.4341,0,0.2875,7570
-6.93531e-08,1.14223e-06,-1.38701e-06,-3.4057e-05,-0.000312625,-0.000182084,19.921,-20.9936,-1.8205,22.4711,23.9451,-5.84097,-20.9972,39.6026,213,12.3568,0,0.2875,7571
-2.57802e-08,1.12425e-06,-1.3732e-06,-2.90708e-05,-0.000210549,-0.000241173,25.1372,-1.51733,-6.01527,16.4967,26.0572,-1.5165,-6.93611,30.6451,213,10.9727,0,0.25,7572
-3.96058e-08,1.09988e-06,-1.36842e-06,-3.01935e-05,-0.000210241,-0.000241401,24.8749,-1.56967,-6.14618,16.1336,25.479,-1.53173,-6.78821,29.9865,213,11.4341,0,0.2125,7573
-1.26648e-08,1.10504e-06,-1.36473e-06,-2.84213e-05,-0.00020832,-0.000246619,24.9926,-1.42994,-7.05513,16.9101,25.8619,-1.39611,-7.95823,31.0633,213,10.5114,0,0.2125,7574
-1.04487e-07,1.13107e-06,-1.38712e-06,-4.31005e-05,-0.000201189,-0.000249775,21.8362,-1.38303,-8.51909,16.1286,22.787,-1.38265,-9.47025,29.0698,213,13.2795,0,0.2875,7575
-1.49507e-07,1.11926e-06,-1.38964e-06,-5.44235e-05,-0.000207565,-0.000231887,20.1907,-2.302,-5.8743,13.8681,21.0129,-2.27519,-6.72328,25.8013,213,14.2023,0,0.2875,7576
-6.94444e-08,1.09301e-06,-1.36942e-06,-3.47701e-05,-0.000210324,-0.000234115,24.4481,-1.33639,-4.83072,15.4645,25.2505,-1.29092,-5.67857,28.9854,213,12.3568,0,0.2125,7577
-8.59091e-08,1.11101e-06,-1.37577e-06,-3.78489e-05,-0.000205667,-0.000236707,23.9012,-0.747083,-5.30615,15.0229,24.3184,-0.743029,-5.72739,27.8897,213,12.8182,0,0.25,7578
-1.04782e-07,1.08321e-06,-1.37056e-06,-4.31181e-05,-0.000202573,-0.00020868,25.5435,2.12355,1.22652,12.2463,25.6178,2.15049,1.12524,23.9964,213,13.2795,0,0.2125,7579
-2.05361e-07,1.10742e-06,-1.39225e-06,-6.79844e-05,-0.000302664,-0.000160871,14.6805,-19.7881,1.03787,19.4921,19.1809,-3.44722,-19.8034,33.9067,213,15.125,0,0.2875,7580
-2.7813e-07,1.08398e-06,-1.38696e-06,-8.96089e-05,-0.000292029,-0.000155664,10.9639,-18.7666,1.2621,17.4276,16.086,-3.85742,-18.7692,30.2902,213,16.0477,0,0.2875,7581
-1.49305e-07,1.07249e-06,-1.37433e-06,-5.33236e-05,-0.000199919,-0.000193688,24.74,3.2088,4.1241,10.7935,24.7845,4.09099,3.19743,21.1544,213,14.2023,0,0.2125,7582
-1.75345e-07,1.08898e-06,-1.38174e-06,-5.94773e-05,-0.000205715,-0.000203827,21.7717,0.293027,0.57034,11.1151,21.8203,1.22468,-0.40989,21.4596,213,14.6636,0,0.25,7583
-2.0474e-07,1.06052e-06,-1.37689e-06,-6.83381e-05,-0.000195025,-0.000229094,18.2796,-0.327464,-5.33148,12.4819,18.9316,-0.278691,-6.03224,22.6421,213,15.125,0,0.2125,7584
-3.70048e-07,1.05575e-06,-1.38123e-06,-0.000112505,-0.000274233,-0.000155728,7.11849,-16.6352,0.770166,15.1043,13.5609,-5.65967,-16.6477,26.4833,213,16.9705,0,0.2875,7585
-4.90111e-07,1.02626e-06,-1.4112e-06,-0.000147824,-0.000270493,-0.000146535,-0.161298,-18.1783,0.0280668,13.3266,8.26665,-8.19161,-18.3866,23.2938,213,17.8932,0,0.2875,7586
-2.77277e-07,1.03756e-06,-1.37121e-06,-8.90353e-05,-0.000197877,-0.000215499,14.3093,-1.67676,-4.26499,9.98589,14.9452,-1.55108,-5.02657,18.4808,213,16.0477,0,0.2125,7587
-3.21094e-07,1.04345e-06,-1.36918e-06,-9.89725e-05,-0.000190743,-0.000198149,14.2094,0.730714,-0.357104,8.01045,14.9322,0.73954,-1.08872,15.1895,213,16.5091,0,0.25,7588
-3.70848e-07,1.00894e-06,-1.36666e-06,-0.000116884,-0.000182809,-0.000216348,8.94517,-0.737635,-5.66355,7.8162,9.46413,-0.751887,-6.16826,13.7491,213,16.9705,0,0.2125,7589
-5.6331e-07,9.82238e-07,-1.42778e-06,-0.000168986,-0.000165322,-0.000193474,0.195356,0.733524,-3.40131,3.56036,2.59271,-0.537133,-4.52801,6.18174,213,18.3545,0,0.25,7590
-4.9228e-07,9.78993e-07,-1.39612e-06,-0.00014667,-0.000187384,-0.000200061,2.88097,-3.09891,-4.9609,4.30527,3.15582,-2.87996,-5.45471,7.6551,213,17.8932,0,0.2125,7591
9.57124e-07,-5.90993e-07,-1.38603e-06,-0.000214688,-0.000183051,-0.000139772,-7.42668,-2.77997,3.5767,7.47597,7.23231,-6.14264,-7.71963,14.2291,213,-0.1,18.525,0.25,7592
1.07592e-06,-3.12332e-07,-1.3601e-06,-0.000254231,-0.000104113,-0.000178231,-13.1469,8.90158,-1.9844,12.5417,11.858,-4.86233,-13.2254,22.1211,213,-0.1,16.575,0.25,7593
1.13537e-06,1.11654e-07,-1.34437e-06,-0.000268996,-4.3486e-05,-0.000183644,-11.5348,21.5869,1.00123,17.6075,23.6663,-1.06417,-11.5488,31.3179,213,-0.1,6.825,0.25,7594
1.05318e-06,4.14824e-07,-1.33564e-06,-0.000247856,-0.000126993,-0.000172913,-13.2562,4.49552,-2.24886,10.8218,8.34882,-6.06353,-13.2948,19.0848,213,-0.1,2.925,0.25,7595
9.76257e-07,7.51759e-07,-1.30872e-06,-0.000205815,-0.000219253,-0.000126511,-7.43829,-9.41194,4.20945,8.80019,6.50608,-8.05256,-11.0943,16.2938,213,-0.1,0.975,0.25,7596
1.13383e-06,-1.58553e-07,-1.34505e-06,-0.000273977,-6.04665e-05,-0.000194571,-15.3404,16.0189,-3.67762,17.2495,19.1558,-6.81184,-15.3431,31.123,213,-0.1,14.625,0.25,7597
1.14855e-06,-6.93533e-08,-1.32913e-06,-0.0002742,-3.41318e-05,-0.000189065,-12.418,22.842,0.0861143,18.4998,24.5782,-1.64672,-12.4214,32.9607,213,-0.1,12.675,0.25,7598
1.16077e-06,4.36109e-08,-1.32133e-06,-0.000269483,-3.06483e-05,-0.000204436,-12.3955,22.6834,-2.84177,18.5942,24.7839,-4.93336,-12.4044,34.0727,213,-0.1,8.775,0.25,7599
1.1687e-06,-1.25285e-08,-1.31683e-06,-0.00027632,-2.86025e-05,-0.000208389,-14.217,22.1665,-4.23967,19.5542,24.8908,-6.96329,-14.2176,36.0331,213,-0.1,10.725,0.25,7600
1.1096e-06,2.24462e-07,-1.36281e-06,-0.000268414,-7.65943e-05,-0.00019076,-15.1546,13.0189,-3.74925,15.811,16.4282,-7.11925,-15.1939,28.4573,213,-0.1,4.875,0.25,7601
9.39115e-07,8.4719e-07,-1.16516e-06,-0.000170082,-0.000213151,-0.000142434,0.231958,-6.09376,4.29285,5.87759,5.22925,-0.27227,-6.52593,10.1872,213,-0.1,0.4875,0.2125,7602
9.98437e-07,8.79761e-07,-1.17387e-06,-0.000237623,-0.00025774,-8.46967e-05,-14.772,-17.7267,7.68904,14.5134,10.0472,-15.8772,-18.9797,27.6067,213,-0.1,0.4875,0.2875,7603
1.02114e-06,6.52276e-07,-1.38385e-06,-0.000241067,-0.000206924,-0.0001484,-16.8041,-11.7894,-3.19364,10.2937,2.51718,-16.2342,-18.0701,19.7335,213,-0.1,1.4625,0.2875,7604
8.88604e-07,-6.78805e-07,-1.3574e-06,-0.000176711,-0.00018395,-0.000157889,-0.0764524,-1.13963,2.68799,3.91211,5.0294,-0.762667,-2.79482,7.03193,213,-0.1,19.0125,0.2125,7605
9.34012e-07,-6.90751e-07,-1.36779e-06,-0.000247283,-0.00021286,-0.000101149,-14.4365,-9.38067,7.02691,13.6967,10.2983,-9.99356,-17.095,24.6231,213,-0.1,19.0125,0.2875,7606
1.02383e-06,-5.05726e-07,-1.39561e-06,-0.000247878,-0.000165612,-0.000157445,-15.4253,-3.34255,-2.14296,11.1298,6.5125,-11.6763,-15.747,20.5291,213,-0.1,18.0375,0.2875,7607
9.65871e-07,6.47774e-07,-1.37062e-06,-0.00016902,-0.000193228,-0.00017295,-0.502786,-4.05838,-1.08004,4.09827,2.69595,-2.83656,-5.50059,7.24186,213,-0.1,1.4625,0.2125,7608
9.75593e-07,-5.06591e-07,-1.38152e-06,-0.000171761,-0.00016737,-0.000185151,0.114726,0.759641,-1.85187,3.53158,2.84521,0.395233,-4.21795,6.21177,213,-0.1,18.0375,0.2125,7609
1.11412e-06,-2.65259e-07,-1.3684e-06,-0.000277682,-8.93045e-05,-0.00017202,-16.8185,10.8494,-1.29942,16.2871,15.7144,-6.12312,-16.8598,28.7509,213,-0.1,16.0875,0.2875,7610
1.08093e-06,-3.66686e-07,-1.37084e-06,-0.000264455,-0.000118488,-0.000162019,-15.4325,6.00642,-0.387221,13.674,11.7145,-5.89434,-15.6335,24.0087,213,-0.1,17.0625,0.2875,7611
1.03695e-06,-4.29553e-07,-1.37223e-06,-0.000165172,-0.000143016,-0.000206536,1.97603,5.23021,-4.09929,5.51035,6.08507,1.95752,-4.93564,9.64386,213,-0.1,17.55,0.25,7612
1.03543e-06,-3.66859e-07,-1.35541e-06,-0.00018832,-0.000121308,-0.000198913,-0.846065,8.99641,-2.40189,6.05813,9.24012,-0.615521,-2.87614,11.159,213,-0.1,17.0625,0.2125,7613
1.16647e-06,-1.30514e-07,-1.34013e-06,-0.000302057,-5.17175e-05,-0.000168461,-18.8311,17.9375,0.790844,20.5251,22.2041,-3.4606,-18.8462,35.9202,213,-0.1,14.1375,0.2875,7614
1.14509e-06,-1.89584e-07,-1.364e-06,-0.000295537,-6.98633e-05,-0.000170676,-19.1671,13.9787,-0.828103,18.5232,17.8255,-4.62111,-19.2209,32.3221,213,-0.1,15.1125,0.2875,7615
1.06923e-06,-2.65128e-07,-1.3528e-06,-0.000199553,-8.85945e-05,-0.000217346,-2.21102,14.086,-4.82436,9.81112,14.442,-2.21109,-5.18026,18.319,213,-0.1,16.0875,0.2125,7616
1.10541e-06,-2.25498e-07,-1.36707e-06,-0.000183577,-7.515e-05,-0.000219121,2.71937,18.6445,-2.50124,10.9228,18.9929,2.72247,-2.85269,19.6601,213,-0.1,15.6,0.25,7617
1.098e-06,-1.90642e-07,-1.34744e-06,-0.000201644,-6.69257e-05,-0.000217329,-0.686696,19.1,-2.99043,11.3256,19.3537,-0.633239,-3.29759,21.4436,213,-0.1,15.1125,0.2125,7618
1.17857e-06,-5.35248e-08,-1.33888e-06,-0.000297011,-3.08139e-05,-0.000190689,-17.7421,21.3555,-2.12616,20.9478,24.0571,-4.73141,-17.8384,37.1201,213,-0.1,12.1875,0.2875,7619
1.17222e-06,-8.73671e-08,-1.33286e-06,-0.000294535,-3.78793e-05,-0.000180028,-16.8111,20.8853,0.00727057,20.2831,23.7247,-2.80188,-16.8414,35.6818,213,-0.1,13.1625,0.2875,7620
1.11604e-06,-1.31426e-07,-1.3239e-06,-0.00020696,-5.4638e-05,-0.000234451,-2.41636,19.956,-6.45408,13.7399,20.4843,-2.40316,-6.99557,25.4958,213,-0.1,14.1375,0.2125,7621
1.14508e-06,-1.06692e-07,-1.32022e-06,-0.000196065,-4.4619e-05,-0.000217565,2.71711,24.9607,-0.440681,13.0168,25.1974,2.87577,-0.836087,24.3904,213,-0.1,13.65,0.25,7622
1.12021e-06,-8.6469e-08,-1.31656e-06,-0.000209825,-3.88057e-05,-0.000209764,0.682336,25.8008,0.691238,12.716,25.9353,0.735684,0.503391,25.3166,213,-0.1,13.1625,0.2125,7623
1.19437e-06,1.54975e-09,-1.31983e-06,-0.00031065,-2.8133e-05,-0.000187871,-20.5061,20.9885,-2.47295,22.2287,23.9475,-5.42826,-20.5098,39.1589,213,-0.1,10.2375,0.2875,7624
1.19017e-06,-2.59173e-08,-1.33112e-06,-0.000309817,-2.84014e-05,-0.000182659,-19.8439,21.489,-1.16751,22.2311,24.6139,-4.28809,-19.8482,39.0789,213,-0.1,11.2125,0.2875,7625
1.12724e-06,-5.41871e-08,-1.32206e-06,-0.00021452,-2.82805e-05,-0.000231906,-1.53184,25.8221,-4.08541,15.1419,25.9856,-1.48255,-4.29823,28.9788,213,-0.1,12.1875,0.2125,7626
1.15851e-06,-4.07268e-08,-1.33086e-06,-0.000194082,-2.68984e-05,-0.000240679,2.68954,27.2446,-4.15447,15.9012,27.4085,2.76511,-4.39396,28.8959,213,-0.1,11.7,0.25,7627
1.13932e-06,-2.7156e-08,-1.31338e-06,-0.00021149,-2.88421e-05,-0.000230269,-0.703006,26.1234,-3.46119,14.9692,26.2996,-0.701614,-3.63877,28.5832,213,-0.1,11.2125,0.2125,7628
1.17957e-06,5.86139e-08,-1.33619e-06,-0.000302157,-3.30654e-05,-0.000178487,-18.0488,21.4739,0.115083,21.3566,24.6538,-3.05429,-18.0594,37.532,213,-0.1,8.2875,0.2875,7629
1.18975e-06,2.87261e-08,-1.32264e-06,-0.000300658,-2.83197e-05,-0.000188921,-18.2203,21.7794,-1.80899,21.4861,24.7349,-4.74758,-18.2372,38.0643,213,-0.1,9.2625,0.2875,7630
1.13964e-06,2.95947e-08,-1.30468e-06,-0.000211255,-2.96842e-05,-0.000230517,-0.748285,25.9199,-3.57739,14.8084,25.9808,-0.750557,-3.636,28.2847,213,-0.1,9.2625,0.2125,7631
1.16691e-06,1.545e-08,-1.30808e-06,-0.000193147,-2.82003e-05,-0.000246719,2.22795,26.4545,-5.64041,16.1385,26.5454,2.22822,-5.73155,29.1246,213,-0.1,9.75,0.25,7632
1.14328e-06,1.20576e-09,-1.30172e-06,-0.000211861,-2.92715e-05,-0.000233195,-1.10595,25.712,-4.23932,15.1043,25.8345,-1.09364,-4.37412,28.7093,213,-0.1,10.2375,0.2125,7633
1.153e-06,1.33879e-07,-1.36577e-06,-0.000288762,-5.01491e-05,-0.000177578,-16.3414,18.7049,-0.0112681,19.0732,21.5269,-2.55512,-16.6195,33.4133,213,-0.1,6.3375,0.2875,7634
1.16658e-06,9.11899e-08,-1.34443e-06,-0.000291218,-3.6387e-05,-0.000187986,-16.618,20.8102,-1.45589,20.2754,23.7735,-4.25975,-16.7774,35.9648,213,-0.1,7.3125,0.2875,7635
1.11662e-06,9.27696e-08,-1.32799e-06,-0.000212226,-3.86737e-05,-0.000225054,-1.31136,24.1791,-3.19552,14.1149,24.3968,-0.89153,-3.83305,26.8801,213,-0.1,7.3125,0.2125,7636
1.14695e-06,7.54661e-08,-1.33551e-06,-0.000195275,-3.2534e-05,-0.000237685,2.15594,26.0585,-4.07313,15.2112,26.2073,2.14918,-4.21513,27.7922,213,-0.1,7.8,0.25,7637
1.12987e-06,5.96031e-08,-1.31884e-06,-0.00021237,-3.16549e-05,-0.000228126,-0.977043,25.5654,-3.29123,14.4868,25.6236,-0.976355,-3.3501,27.8627,213,-0.1,8.2875,0.2125,7638
1.12161e-06,2.65412e-07,-1.35813e-06,-0.000287626,-8.67669e-05,-0.000166526,-18.4579,11.0433,-0.671226,17.2072,15.9251,-5.5216,-18.4893,30.1037,213,-0.1,4.3875,0.2875,7639
1.13968e-06,1.9e-07,-1.37926e-06,-0.000293635,-6.77631e-05,-0.000169641,-18.417,14.7579,-0.205372,18.9466,19.4638,-4.89878,-18.4295,33.2604,213,-0.1,5.3625,0.2875,7640
1.10543e-06,1.34634e-07,-1.34964e-06,-0.000206826,-4.76501e-05,-0.000207263,0.810373,24.1893,0.746212,12.3049,24.2759,1.80394,-0.333913,23.6135,213,-0.1,6.3375,0.2125,7641
1.12216e-06,1.59371e-07,-1.37856e-06,-0.000191609,-5.55642e-05,-0.000218842,2.64568,22.6272,-1.35416,12.3517,22.8121,2.99802,-1.89136,22.6579,213,-0.1,5.85,0.25,7642
1.09443e-06,1.89092e-07,-1.3631e-06,-0.00020426,-6.50689e-05,-0.000231124,-2.43124,18.0124,-6.37696,12.8125,18.629,-2.42866,-6.9961,23.6741,213,-0.1,5.3625,0.2125,7643
1.06091e-06,4.80113e-07,-1.35768e-06,-0.000260094,-0.000144708,-0.000153199,-16.0107,0.936716,-0.310369,12.4723,8.73318,-7.90607,-16.2115,22.0009,213,-0.1,2.4375,0.2875,7644
1.09263e-06,3.57639e-07,-1.33765e-06,-0.000271522,-0.000106646,-0.000168796,-16.6577,7.55846,-1.56976,14.7618,12.862,-6.86932,-16.6616,26.0466,213,-0.1,3.4125,0.2875,7645
1.0456e-06,3.57448e-07,-1.32249e-06,-0.000194136,-0.000109793,-0.00021186,-2.37774,10.0102,-4.98084,7.83899,10.3539,-2.37814,-5.32411,14.4323,213,-0.1,3.4125,0.2125,7646
1.08449e-06,3.09271e-07,-1.33595e-06,-0.000177831,-9.35752e-05,-0.000214275,2.83122,15.2062,-2.52156,9.37162,15.7079,2.84329,-3.03533,16.6037,213,-0.1,3.9,0.25,7647
1.07537e-06,2.63256e-07,-1.34184e-06,-0.000195937,-8.73673e-05,-0.000211784,-0.707347,15.2388,-3.03485,9.52198,15.6199,-0.699182,-3.42408,17.8383,213,-0.1,4.3875,0.2125,7648
1.01249e-06,4.82493e-07,-1.34267e-06,-0.00018194,-0.000147641,-0.00019483,-1.39225,3.6454,-3.28553,3.74958,3.86136,-1.25595,-3.63779,6.63692,213,-0.1,2.4375,0.2125,7649
1.01806e-06,5.57788e-07,-1.37623e-06,-0.000158853,-0.000173306,-0.000198352,1.42836,-0.69441,-4.37307,3.95071,2.26076,-0.259228,-5.64065,6.9908,213,-0.1,1.95,0.25,7650
1.10308e-06,-1.28289e-08,-1.3399e-06,-0.000244445,-2.95446e-05,-0.000196771,-5.5583,26.0052,1.44377,15.9311,26.3004,1.15222,-5.56191,29.0922,213,-0.025,10.7175,0.175,7651
-1.09969e-06,4.39641e-08,-1.37559e-06,-0.000236952,-3.18741e-05,-0.000195868,-3.89071,26.2301,2.14348,15.2447,26.5885,1.79531,-3.90095,28.0781,213,20.125,8.7825,0.175,7652
-1.10451e-06,-1.33451e-08,-1.38e-06,-0.000247038,-2.90757e-05,-0.000195483,-6.0173,25.996,1.55483,16.1678,26.3106,1.24792,-6.02502,29.3822,213,20.125,10.7175,0.175,7653
1.09705e-06,4.38207e-08,-1.34412e-06,-0.000235573,-3.1238e-05,-0.00019634,-3.54392,26.4678,2.21842,15.1935,26.8345,1.86046,-3.55262,28.0747,213,-0.025,8.7825,0.175,7654
7.15127e-07,9.01971e-07,-1.38886e-06,-0.000192514,-0.00016088,-0.00015188,-1.15684,3.4894,4.81131,3.31061,5.03857,3.68795,-1.58265,6.05986,213,0.897727,0.075,0.175,7655
9.02553e-07,9.1515e-07,-1.04927e-06,-0.000192761,-0.000192725,-0.000161276,-5.07079,-5.0654,-0.446419,2.98731,-0.383217,-3.84155,-6.35784,5.19557,213,-0.025,0.075,0.175,7656
9.09525e-07,7.1958e-07,-1.36411e-06,-0.000152767,-0.00019211,-0.00016736,4.03049,-1.748,1.8871,3.68913,4.78059,1.98666,-2.59767,6.45216,213,-0.025,1.05,0.175,7657
-9.09223e-07,9.22588e-07,-1.16603e-06,-0.000202829,-0.00020216,-0.000149587,-7.27987,-7.1816,0.540124,4.29112,0.5437,-6.42652,-8.03853,7.90054,213,20.125,0.075,0.175,7658
-7.14498e-07,9.08508e-07,-1.40384e-06,-0.000198137,-0.000167183,-0.000152444,-3.14986,1.39644,3.56122,4.01314,3.5876,2.65889,-4.43868,7.60457,213,19.2023,0.075,0.175,7659
-9.17774e-07,7.20836e-07,-1.38213e-06,-0.000165015,-0.000195846,-0.000159664,1.45669,-3.07165,2.24257,3.76558,3.03335,2.09207,-4.49781,7.10742,213,20.125,1.05,0.175,7660
8.18315e-07,-7.39086e-07,-1.36165e-06,-0.000205898,-0.000196437,-0.000151849,-7.69392,-6.30427,0.244522,4.81286,0.276689,-4.68132,-9.34904,8.33739,213,-0.025,19.425,0.175,7661
9.04427e-07,-5.68549e-07,-1.41614e-06,-0.000172703,-0.000167729,-0.000171157,1.16287,1.89335,1.38984,3.14252,4.75118,1.22875,-1.53387,5.45625,213,-0.025,18.45,0.175,7662
6.2749e-07,-6.6313e-07,-1.56546e-06,-0.000198708,-0.000182702,-0.000151369,-4.63731,-2.28639,2.31566,4.10628,2.32551,-1.0465,-5.88704,7.15008,213,0.897727,19.425,0.175,7663
-9.08907e-07,-5.65907e-07,-1.43495e-06,-0.000177253,-0.000161977,-0.000166642,1.02877,3.27254,2.58725,3.51903,5.68568,2.55526,-1.35238,6.10751,213,20.125,18.45,0.175,7664
-8.23379e-07,-7.30456e-07,-1.39453e-06,-0.000216077,-0.000194643,-0.000145686,-9.39652,-6.24845,0.942078,5.54906,1.01259,-5.62995,-10.0855,9.67326,213,20.125,19.425,0.175,7665
-6.23946e-07,-6.6113e-07,-1.57974e-06,-0.000203345,-0.000191125,-0.000145765,-6.01514,-4.22031,2.4419,5.26882,2.4713,-2.19852,-8.06634,9.1455,213,19.2023,19.425,0.175,7666
5.39215e-07,9.34757e-07,-1.45479e-06,-0.000158383,-0.000201639,-0.000151524,3.27022,-3.08307,4.27762,3.86092,4.51123,3.16415,-3.21061,7.14419,213,1.89773,0.075,0.175,7667
9.62164e-07,5.48372e-07,-1.40307e-06,-0.000197672,-0.000163808,-0.000157347,-3.18103,1.79272,2.74173,3.05437,2.81576,1.83063,-3.29298,5.68061,213,-0.025,2.01,0.175,7668
-5.38266e-07,9.32671e-07,-1.4477e-06,-0.000155037,-0.000203091,-0.000157975,3.33553,-3.72232,2.90402,3.93098,4.00229,2.37462,-3.85968,7.18771,213,18.2023,0.075,0.175,7669
-9.59707e-07,5.49433e-07,-1.39433e-06,-0.000197752,-0.000163361,-0.000160634,-3.46573,1.5855,1.98611,3.05618,2.50837,1.20151,-3.604,5.57502,213,20.125,2.01,0.175,7670
-9.81774e-07,-4.20159e-07,-1.38851e-06,-0.000206965,-0.000139295,-0.000166929,-4.01884,5.92005,1.86143,5.05427,6.01864,1.8339,-4.0899,8.79733,213,20.125,17.49,0.175,7671
-4.45341e-07,-6.4625e-07,-1.62207e-06,-0.000149019,-0.00022152,-0.000153656,3.46317,-7.18542,2.78205,5.49368,3.60937,2.82841,-7.37799,10.6184,213,18.2023,19.425,0.175,7672
9.83716e-07,-4.18694e-07,-1.39752e-06,-0.000207355,-0.000139082,-0.000165341,-3.94428,6.0832,2.22652,5.02843,6.09888,2.22453,-3.95798,8.78563,213,-0.025,17.49,0.175,7673
4.45853e-07,-6.46757e-07,-1.61662e-06,-0.000155216,-0.000221985,-0.000151293,2.15111,-7.65565,2.72727,5.33766,2.84832,2.20142,-7.82701,10.367,213,1.89773,19.425,0.175,7674
4.06337e-07,9.65101e-07,-1.40211e-06,-0.000128346,-0.000212368,-0.000148185,9.79859,-2.54212,6.88477,6.26322,9.90033,6.86701,-2.6261,11.3188,213,2.82045,0.075,0.175,7675
2.19132e-07,1.02052e-06,-1.4085e-06,-7.19734e-05,-0.000241136,-0.0001655,19.04,-5.80577,5.30323,12.5489,19.2802,5.0749,-5.81763,21.7984,213,4.74318,0.075,0.175,7676
2.9516e-07,9.9462e-07,-1.39567e-06,-9.38438e-05,-0.00021781,-0.000174433,15.1289,-3.0786,3.29228,9.13854,15.1905,3.23875,-3.08663,16.0765,213,3.82045,0.075,0.175,7677
1.11231e-07,1.0445e-06,-1.41163e-06,-4.37252e-05,-0.000221469,-0.000210524,23.4592,-2.6469,-1.03948,13.0569,23.4663,-1.04589,-2.64759,25.351,213,6.66591,0.075,0.175,7678
1.5635e-07,1.03361e-06,-1.41249e-06,-5.38677e-05,-0.000219066,-0.000204957,21.7664,-2.49715,-0.424846,12.173,21.8048,-0.419156,-2.54124,23.3574,213,5.74318,0.075,0.175,7679
4.26926e-08,1.06136e-06,-1.39897e-06,-2.99246e-05,-0.000239091,-0.000190282,27.0209,-3.70042,3.46835,15.3872,27.0706,3.42198,-3.7038,27.9025,213,8.58864,0.075,0.175,7680
7.19126e-08,1.05495e-06,-1.40845e-06,-3.45979e-05,-0.000239545,-0.000187851,26.0824,-4.01923,3.5733,15.0717,26.12,3.53987,-4.02338,27.1633,213,7.66591,0.075,0.175,7681
-1.25518e-08,1.06776e-06,-1.39477e-06,-2.784e-05,-0.000244719,-0.00018738,27.267,-4.5871,3.83454,15.9474,27.3066,3.79604,-4.58817,28.6384,213,10.5114,0.075,0.175,7682
1.30362e-08,1.06609e-06,-1.39086e-06,-2.81936e-05,-0.000244442,-0.000190853,26.8834,-4.87809,2.99282,15.9105,26.9385,2.94199,-4.88239,28.7196,213,9.58864,0.075,0.175,7683
-7.13748e-08,1.05447e-06,-1.40074e-06,-3.49011e-05,-0.000238546,-0.000184495,26.4167,-3.49366,4.44512,14.9686,26.4374,4.43046,-3.49972,26.8647,213,12.4341,0.075,0.175,7684
-4.17344e-08,1.06251e-06,-1.39939e-06,-3.01805e-05,-0.000237158,-0.000190315,27.1369,-3.26289,3.61719,15.2707,27.277,3.47858,-3.2644,27.7904,213,11.5114,0.075,0.175,7685
-1.5617e-07,1.03367e-06,-1.40974e-06,-5.38443e-05,-0.000218234,-0.000207758,21.588,-2.55673,-1.01809,12.1102,21.6225,-1.01129,-2.598,23.4674,213,14.3568,0.075,0.175,7686
-1.11022e-07,1.04423e-06,-1.40692e-06,-4.38949e-05,-0.000220376,-0.000210034,23.5663,-2.3543,-0.835377,12.9682,23.5811,-0.849264,-2.35521,25.2171,213,13.4341,0.075,0.175,7687
-2.95513e-07,9.94243e-07,-1.39846e-06,-9.39492e-05,-0.000217997,-0.000176201,14.9208,-3.29873,2.84003,9.16462,15.0284,2.73449,-3.30081,16.1791,213,16.2795,0.075,0.175,7688
-2.19202e-07,1.02039e-06,-1.40672e-06,-7.24853e-05,-0.000240373,-0.000163587,19.167,-5.49154,5.78637,12.4266,19.349,5.6172,-5.50432,21.5631,213,15.3568,0.075,0.175,7689
-4.06612e-07,9.64244e-07,-1.40462e-06,-0.000128072,-0.000214148,-0.000152378,9.30602,-3.3363,5.73607,6.44653,9.48672,5.6254,-3.40633,11.4611,213,17.2795,0.075,0.175,7690
1.02038e-06,-3.02889e-07,-1.38066e-06,-0.000223999,-0.000102177,-0.000163861,-4.3568,13.5358,4.47598,9.01161,13.6281,4.42197,-4.39511,15.6098,213,-0.025,16.515,0.175,7691
1.05069e-06,-2.19787e-07,-1.3917e-06,-0.000223176,-7.16703e-05,-0.00018273,-3.07143,19.181,2.86903,11.1376,19.2015,2.85093,-3.0738,19.9829,213,-0.025,15.555,0.175,7692
1.07166e-06,-1.55988e-07,-1.36632e-06,-0.000242627,-5.96796e-05,-0.000166079,-5.06921,21.8012,6.17373,13.4973,21.8984,6.10334,-5.09607,23.4906,213,-0.025,14.58,0.175,7693
1.08258e-06,-6.73377e-08,-1.35611e-06,-0.00023543,-3.25748e-05,-0.000198125,-3.80129,25.9931,1.67789,14.9239,26.0231,1.6713,-3.82465,27.5145,213,-0.025,12.645,0.175,7694
1.08239e-06,-1.04614e-07,-1.35094e-06,-0.000230112,-4.53349e-05,-0.000192606,-3.19996,23.9392,2.30873,13.6068,23.9801,2.30127,-3.23341,24.9116,213,-0.025,13.62,0.175,7695
1.11249e-06,1.24197e-09,-1.31578e-06,-0.000218621,-2.96842e-05,-0.000198451,0.478111,28.2283,3.44059,13.9026,28.2816,3.38914,0.476302,26.4693,213,-0.0625,10.2338,0.175,7696
1.10872e-06,-2.74812e-08,-1.32714e-06,-0.000218374,-2.90834e-05,-0.000197608,0.672618,28.4746,3.72252,13.9181,28.5083,3.6893,0.67212,26.457,213,-0.0625,11.2087,0.175,7697
1.09654e-06,-4.09852e-08,-1.35952e-06,-0.000234459,-2.57379e-05,-0.000198988,-3.00954,27.6464,2.20032,15.3555,27.679,2.19029,-3.03206,28.4615,213,-0.025,11.685,0.175,7698
1.0909e-06,-2.67377e-08,-1.36659e-06,-0.000276478,-2.95012e-05,-0.000190884,-12.7028,23.5719,-0.131095,18.2014,23.6927,-0.24455,-12.7102,32.0433,213,0.0125,11.1938,0.175,7699
1.09984e-06,5.97308e-08,-1.3324e-06,-0.000214338,-3.16441e-05,-0.000198976,1.27538,28.1085,3.53163,13.4425,28.1354,3.52976,1.25037,25.8209,213,-0.0625,8.29125,0.175,7700
1.10924e-06,2.95305e-08,-1.31847e-06,-0.000214075,-3.00239e-05,-0.000199425,1.44808,28.4806,3.59983,13.5273,28.4956,3.592,1.44092,26.0458,213,-0.0625,9.26625,0.175,7701
1.09456e-06,1.45198e-09,-1.35567e-06,-0.000276863,-2.88255e-05,-0.000188891,-12.5458,23.8847,0.375074,18.3024,24.0557,0.207356,-12.5491,32.1821,213,0.0125,10.2338,0.175,7702
1.10397e-06,1.53925e-08,-1.33772e-06,-0.000233766,-2.8542e-05,-0.000199179,-3.12314,27.0192,1.95683,15.0844,27.0448,1.93212,-3.12401,27.9854,213,-0.025,9.75,0.175,7703
1.09162e-06,2.89041e-08,-1.35815e-06,-0.00026938,-2.90144e-05,-0.000192167,-11.0711,24.2325,0.26949,17.7315,24.39,0.113747,-11.0729,31.4014,213,0.0125,9.26625,0.175,7704
1.06626e-06,1.56773e-07,-1.40288e-06,-0.000227418,-5.2429e-05,-0.000191818,-3.14197,22.5596,2.08692,12.9088,22.6199,2.08233,-3.19769,23.6244,213,-0.025,5.88,0.175,7705
1.0723e-06,1.10975e-07,-1.36845e-06,-0.000231908,-4.26551e-05,-0.000195317,-3.63447,24.162,1.73985,13.9397,24.2133,1.7202,-3.66607,25.6145,213,-0.025,6.855,0.175,7706
1.08573e-06,7.46848e-08,-1.36411e-06,-0.000228286,-3.28666e-05,-0.000200651,-2.3477,26.3545,1.71111,14.3936,26.407,1.6912,-2.38028,26.9829,213,-0.025,7.815,0.175,7707
1.08265e-06,5.86129e-08,-1.37162e-06,-0.000263245,-3.25217e-05,-0.000195923,-10.2757,23.6118,-0.387806,16.9887,23.695,-0.464325,-10.2824,30.2863,213,0.0125,8.30625,0.175,7708
1.05119e-06,2.17571e-07,-1.38301e-06,-0.000241371,-7.40881e-05,-0.000162433,-5.77331,18.7964,5.82082,12.3278,18.8746,5.75036,-5.78103,21.3672,213,-0.025,4.92,0.175,7709
1.02856e-06,3.01052e-07,-1.36363e-06,-0.000217904,-9.3493e-05,-0.000175199,-3.14001,15.1328,3.13227,9.14514,15.1469,3.1216,-3.14341,16.0996,213,-0.025,3.945,0.175,7710
9.95524e-07,4.05468e-07,-1.3582e-06,-0.000214118,-0.000127673,-0.000157718,-3.79097,8.90568,4.49274,6.44304,9.02385,4.44584,-3.86224,11.3144,213,-0.025,2.985,0.175,7711
-9.94634e-07,4.05439e-07,-1.35228e-06,-0.000213751,-0.000128324,-0.000162203,-4.18279,8.36429,3.38838,6.4291,8.60036,3.22737,-4.25785,11.1855,213,20.125,2.985,0.175,7712
-1.02853e-06,3.00698e-07,-1.36454e-06,-0.000218584,-9.3123e-05,-0.000175427,-3.29019,15.1369,3.04845,9.22516,15.1556,3.03419,-3.29468,16.2388,213,20.125,3.945,0.175,7713
-1.05174e-06,2.17612e-07,-1.38739e-06,-0.0002415,-7.42952e-05,-0.000163212,-5.89647,18.6618,5.60208,12.3126,18.7217,5.5492,-5.90354,21.3434,213,20.125,4.92,0.175,7714
-1.0675e-06,1.56544e-07,-1.40942e-06,-0.000228927,-5.36124e-05,-0.000190882,-3.52777,22.2216,2.06013,12.9086,22.2578,2.05548,-3.55937,23.518,213,20.125,5.88,0.175,7715
-1.0718e-06,1.09924e-07,-1.39365e-06,-0.000234893,-4.20768e-05,-0.000193141,-4.09466,24.2253,2.03774,14.1828,24.2507,2.03257,-4.11488,25.8461,213,20.125,6.855,0.175,7716
-1.11248e-06,2.92572e-08,-1.35242e-06,-0.000214772,-3.12182e-05,-0.000199685,1.14458,28.1041,3.36056,13.4877,28.1175,3.34963,1.14214,25.9421,213,20.1625,9.26625,0.175,7717
-1.10139e-06,6.01788e-08,-1.3672e-06,-0.000215567,-3.19933e-05,-0.000198333,1.00754,27.9699,3.53882,13.5001,27.9915,3.5334,0.991348,25.8231,213,20.1625,8.29125,0.175,7718
-1.08558e-06,7.51802e-08,-1.39659e-06,-0.000230477,-3.16328e-05,-0.000200435,-2.7387,26.4665,1.67369,14.6427,26.5142,1.65858,-2.7713,27.341,213,20.125,7.815,0.175,7719
-1.08411e-06,5.8971e-08,-1.40077e-06,-0.000264993,-3.28567e-05,-0.000194773,-10.6195,23.4755,-0.30597,17.0919,23.557,-0.380199,-10.6268,30.3851,213,20.0875,8.30625,0.175,7720
-1.10945e-06,-2.77804e-08,-1.37497e-06,-0.000219887,-2.82663e-05,-0.000197467,0.398553,28.5428,3.69139,14.0864,28.5704,3.66478,0.397591,26.6896,213,20.1625,11.2087,0.175,7721
-1.11482e-06,4.13855e-10,-1.35445e-06,-0.000219978,-2.93447e-05,-0.000197842,0.240755,28.24,3.49206,14.0246,28.2862,3.44969,0.236961,26.5888,213,20.1625,10.2338,0.175,7722
-1.09466e-06,2.86371e-08,-1.38621e-06,-0.000273213,-3.0003e-05,-0.000189418,-11.828,23.8935,0.47937,17.9503,24.0712,0.3031,-11.8294,31.6305,213,20.0875,9.26625,0.175,7723
-1.1071e-06,1.44598e-08,-1.36827e-06,-0.00023774,-2.9064e-05,-0.000196597,-3.88561,26.7637,2.15736,15.3302,26.7746,2.14673,-3.88584,28.1334,213,20.125,9.75,0.175,7724
-1.09666e-06,7.76716e-10,-1.388e-06,-0.00028168,-2.8343e-05,-0.000186641,-13.4482,23.7607,0.510689,18.7017,23.9528,0.321005,-13.4506,32.7654,213,20.0875,10.2338,0.175,7725
-1.08167e-06,-6.52088e-08,-1.38875e-06,-0.000238083,-3.21927e-05,-0.000196504,-4.25169,25.9884,1.85529,15.133,25.9993,1.85938,-4.26671,27.7155,213,20.125,12.645,0.175,7726
-1.08404e-06,-1.03906e-07,-1.35984e-06,-0.000231247,-4.66608e-05,-0.000192073,-3.54674,23.5643,2.20693,13.5706,23.5803,2.20508,-3.56086,24.7668,213,20.125,13.62,0.175,7727
-1.09649e-06,-4.08134e-08,-1.40772e-06,-0.000236902,-2.36392e-05,-0.000199316,-3.43124,27.8918,2.0893,15.6985,27.9315,2.08376,-3.46541,29.023,213,20.125,11.685,0.175,7728
-1.09147e-06,-2.69732e-08,-1.40753e-06,-0.000279433,-2.8998e-05,-0.000189655,-13.2511,23.5316,-0.0648765,18.4575,23.6545,-0.178356,-13.2606,32.4182,213,20.0875,11.1938,0.175,7729
-1.0717e-06,-1.55282e-07,-1.36398e-06,-0.000242337,-6.02517e-05,-0.000168496,-5.27895,21.4649,5.56649,13.4224,21.5455,5.50607,-5.29917,23.395,213,20.125,14.58,0.175,7730
-1.05074e-06,-2.19636e-07,-1.38653e-06,-0.000222567,-7.16309e-05,-0.000182295,-2.88075,19.2881,3.03433,11.0945,19.3057,3.01913,-2.8832,19.9053,213,20.125,15.555,0.175,7731
-1.02066e-06,-3.02442e-07,-1.36984e-06,-0.000222116,-0.000102687,-0.000169342,-4.46426,13.077,3.287,8.8448,13.1918,3.20569,-4.49778,15.3621,213,20.125,16.515,0.175,7732
-3.25963e-07,-6.65256e-07,-1.59982e-06,-0.00011334,-0.000227569,-0.000154925,11.3544,-5.42311,5.24647,8.40343,11.3658,5.25299,-5.44104,14.7343,213,17.2795,19.425,0.175,7733
-2.29609e-07,-6.78214e-07,-1.60097e-06,-8.05604e-05,-0.000238167,-0.00017397,16.462,-6.68647,2.74246,11.5782,16.4654,2.74352,-6.69093,20.1682,213,16.2795,19.425,0.175,7734
-1.64569e-07,-6.94328e-07,-1.60808e-06,-5.98481e-05,-0.000240462,-0.000173608,21.2593,-5.26848,4.55074,13.3219,21.3043,4.57673,-5.33948,23.3242,213,15.3568,19.425,0.175,7735
-1.14458e-07,-7.07072e-07,-1.60865e-06,-3.98757e-05,-0.00025444,-0.000191255,23.1037,-8.41051,0.8699,15.7631,23.1152,0.85886,-8.411,28.064,213,14.3568,19.425,0.175,7736
-8.18203e-08,-7.24736e-07,-1.60726e-06,-3.17432e-05,-0.000251896,-0.000182039,26.1574,-6.17752,4.08278,16.1955,26.1764,4.10098,-6.2147,28.6611,213,13.4341,19.425,0.175,7737
-5.25208e-08,-7.32739e-07,-1.60533e-06,-2.67662e-05,-0.000257431,-0.000186929,26.3792,-7.49978,2.85531,16.9462,26.3856,2.85588,-7.50677,30.081,213,12.4341,19.425,0.175,7738
-3.02192e-08,-7.36418e-07,-1.6071e-06,-2.21125e-05,-0.000253284,-0.000189453,27.6493,-6.30409,3.07111,16.9829,27.6602,3.06173,-6.30559,30.3851,213,11.5114,19.425,0.175,7739
-9.12457e-09,-7.37744e-07,-1.60699e-06,-1.99583e-05,-0.000256522,-0.000187219,28.0732,-6.67214,3.50679,17.3781,28.0785,3.50697,-6.67766,30.9474,213,10.5114,19.425,0.175,7740
9.18187e-09,-7.36828e-07,-1.60843e-06,-2.01788e-05,-0.000256419,-0.000189925,27.777,-6.92075,2.84556,17.3534,27.7802,2.84814,-6.92653,30.9977,213,9.58864,19.425,0.175,7741
3.02241e-08,-7.33014e-07,-1.61229e-06,-2.15494e-05,-0.000253995,-0.00018916,27.7457,-6.39474,3.12787,17.0766,27.7517,3.12866,-6.40153,30.5251,213,8.58864,19.425,0.175,7742
5.19069e-08,-7.30137e-07,-1.61046e-06,-2.65503e-05,-0.000257405,-0.000189475,26.1955,-7.71134,2.26585,16.9671,26.208,2.26826,-7.72625,30.2038,213,7.66591,19.425,0.175,7743
8.15793e-08,-7.24262e-07,-1.60908e-06,-3.24592e-05,-0.000246826,-0.000184827,26.1986,-5.28659,3.81948,15.7553,26.2078,3.82645,-5.30278,28.0819,213,6.66591,19.425,0.175,7744
1.1436e-07,-7.07941e-07,-1.60972e-06,-4.03295e-05,-0.000256483,-0.000190177,22.9043,-8.84323,0.895419,15.8868,22.9285,0.873179,-8.84514,28.1997,213,5.74318,19.425,0.175,7745
1.64913e-07,-6.96187e-07,-1.60754e-06,-5.99311e-05,-0.000238148,-0.000175943,21.2374,-4.93818,4.19823,13.1465,21.2789,4.23268,-5.01411,23.1019,213,4.74318,19.425,0.175,7746
2.29755e-07,-6.79198e-07,-1.59938e-06,-8.02289e-05,-0.00023851,-0.000174184,16.4896,-6.75795,2.69003,11.6253,16.4915,2.68937,-6.75914,20.2529,213,3.82045,19.425,0.175,7747
3.2585e-07,-6.66044e-07,-1.59647e-06,-0.000112945,-0.000227509,-0.000154277,11.5154,-5.31121,5.44472,8.43638,11.5359,5.4499,-5.33687,14.8001,213,2.82045,19.425,0.175,7748
-9.57626e-07,-5.86438e-07,-1.41124e-06,-0.000220504,-0.000176163,-0.000142355,-8.42195,-1.90947,3.05613,7.22983,5.96165,-4.73892,-8.49802,12.9945,213,20.2,18.525,0.25,7749
-1.14219e-06,-6.86692e-08,-1.36653e-06,-0.000270145,-3.42309e-05,-0.000195493,-12.0535,22.5964,-1.08899,18.0949,24.1144,-2.58517,-12.0753,32.501,213,20.2,12.675,0.25,7750
-1.15747e-06,4.36913e-08,-1.35865e-06,-0.00026555,-3.12835e-05,-0.00020708,-11.7567,22.6512,-3.16898,18.2438,24.7082,-5.20329,-11.7794,33.6844,213,20.2,8.775,0.25,7751
-1.10944e-06,2.24702e-07,-1.36782e-06,-0.000267867,-7.65817e-05,-0.000190302,-14.9793,13.1158,-3.58692,15.8063,16.6081,-7.05387,-15.0046,28.4821,213,20.2,4.875,0.25,7752
-9.74358e-07,7.48982e-07,-1.3434e-06,-0.00020883,-0.000215958,-0.000129655,-8.14876,-9.19561,3.48014,8.01641,5.10427,-8.03995,-10.9286,14.8015,213,20.2,0.975,0.25,7753
-1.05382e-06,4.15365e-07,-1.32802e-06,-0.000248942,-0.000127843,-0.000166963,-13.0404,4.74592,-0.99974,11.3043,9.53153,-5.74877,-13.077,19.9792,213,20.2,2.925,0.25,7754
-1.16348e-06,-1.23389e-08,-1.36375e-06,-0.000273306,-2.82051e-05,-0.000211195,-13.7176,22.2815,-4.59517,19.3827,25.0403,-7.34651,-13.7251,36.0025,213,20.2,10.725,0.25,7755
-1.13016e-06,1.11557e-07,-1.3739e-06,-0.000265622,-4.32135e-05,-0.000190597,-11.3485,21.3178,-0.329252,17.2663,23.1815,-2.19048,-11.351,30.9851,213,20.2,6.825,0.25,7756
-1.13382e-06,-1.58339e-07,-1.34241e-06,-0.000273567,-6.02747e-05,-0.000193307,-15.1059,16.2214,-3.31772,17.2728,19.4323,-6.52131,-15.1132,31.1513,213,20.2,14.625,0.25,7757
-1.07753e-06,-3.12311e-07,-1.34753e-06,-0.000253205,-0.000104243,-0.000176612,-12.7612,9.11764,-1.51159,12.4323,11.9608,-4.21228,-12.9037,21.8558,213,20.2,16.575,0.25,7758
-9.41146e-07,8.47214e-07,-1.24633e-06,-0.000167427,-0.000215415,-0.000152582,-0.289935,-7.33815,1.89033,5.46622,3.45126,-1.70783,-7.48119,9.47276,213,20.2,0.4875,0.2125,7759
-9.86658e-07,8.70842e-07,-1.25634e-06,-0.000236648,-0.000249674,-9.28862e-05,-14.5493,-16.4624,6.56578,13.8157,9.23484,-15.2842,-18.3966,26.2142,213,20.2,0.4875,0.2875,7760
-1.01711e-06,6.50502e-07,-1.38776e-06,-0.000245001,-0.000200804,-0.000135103,-15.9348,-9.44351,0.206432,10.665,5.31612,-14.4741,-16.0139,20.6033,213,20.2,1.4625,0.2875,7761
-9.31907e-07,-6.81864e-07,-1.40327e-06,-0.000251937,-0.00020357,-0.000103947,-14.9485,-7.8445,6.78752,13.8808,10.4218,-9.08759,-17.3397,24.6923,213,20.2,19.0125,0.2875,7762
-8.91629e-07,-6.71679e-07,-1.39213e-06,-0.000179409,-0.000177203,-0.000166128,-0.864384,-0.540365,1.08623,3.17812,3.58672,-1.13572,-2.76952,5.71719,213,20.2,19.0125,0.2125,7763
-1.02283e-06,-5.03366e-07,-1.40571e-06,-0.000257874,-0.000161465,-0.000142689,-16.0611,-1.90104,0.85679,12.0952,8.10548,-9.12583,-16.085,21.57,213,20.2,18.0375,0.2875,7764
-9.67877e-07,6.47729e-07,-1.3746e-06,-0.00016378,-0.000190639,-0.000179949,0.344343,-3.60058,-2.0304,3.48032,1.79608,-1.91816,-5.16456,6.03264,213,20.2,1.4625,0.2125,7765
-9.76846e-07,-5.05615e-07,-1.39178e-06,-0.000169175,-0.000161786,-0.000191478,0.666767,1.75211,-2.60895,3.21899,2.8077,0.632504,-3.63028,5.67232,213,20.2,18.0375,0.2125,7766
-1.06099e-06,4.81336e-07,-1.34793e-06,-0.000262452,-0.000145711,-0.000148285,-16.2117,0.934582,0.556524,12.7407,9.0438,-7.32682,-16.4376,22.3641,213,20.2,2.4375,0.2875,7767
-1.0939e-06,3.58095e-07,-1.33338e-06,-0.000274706,-0.00010678,-0.00016633,-17.2047,7.45936,-1.28702,15.193,13.1696,-6.98554,-17.2165,26.7789,213,20.2,3.4125,0.2875,7768
-1.01617e-06,5.59048e-07,-1.367e-06,-0.000163049,-0.000171016,-0.000190195,1.39651,0.226244,-2.59065,3.62362,3.02056,0.238221,-4.22667,6.33242,213,20.2,1.95,0.25,7769
-1.01135e-06,4.83343e-07,-1.33347e-06,-0.000183266,-0.000148691,-0.000187633,-1.13648,3.94169,-1.7779,3.60235,4.59629,-0.960572,-2.60841,6.53842,213,20.2,2.4375,0.2125,7770
-1.1214e-06,2.65815e-07,-1.36124e-06,-0.000287534,-8.7135e-05,-0.000166271,-18.4464,10.9873,-0.635862,17.2271,15.9721,-5.58508,-18.482,30.1507,213,20.2,4.3875,0.2875,7771
-1.13874e-06,1.90508e-07,-1.38597e-06,-0.000292429,-6.72247e-05,-0.000172679,-18.3607,14.7161,-0.772444,18.8187,19.2697,-5.31907,-18.3677,33.1018,213,20.2,5.3625,0.2875,7772
-1.08438e-06,3.09441e-07,-1.33655e-06,-0.000176789,-9.33865e-05,-0.000218293,2.72362,14.9734,-3.37222,9.58015,15.3772,2.73074,-3.78312,16.8742,213,20.2,3.9,0.25,7773
-1.07542e-06,2.63343e-07,-1.34482e-06,-0.000195435,-8.68884e-05,-0.000213531,-0.705181,15.2375,-3.36312,9.61872,15.5551,-0.703636,-3.68231,17.9346,213,20.2,4.3875,0.2125,7774
-1.0459e-06,3.57447e-07,-1.3182e-06,-0.000192736,-0.000110349,-0.000210881,-2.00169,10.0989,-4.66676,7.87715,10.5927,-2.0007,-5.16158,14.4358,213,20.2,3.4125,0.2125,7775
-1.14809e-06,1.34338e-07,-1.38649e-06,-0.000284333,-5.01712e-05,-0.000181135,-15.6113,18.7811,-0.454185,18.7882,21.7595,-3.22705,-15.8169,33.1272,213,20.2,6.3375,0.2875,7776
-1.15773e-06,9.16273e-08,-1.37999e-06,-0.000285115,-3.66084e-05,-0.000194681,-15.7978,20.7016,-2.51524,19.6811,23.4079,-5.065,-15.9544,35.2042,213,20.2,7.3125,0.2875,7777
-1.09476e-06,1.8915e-07,-1.36976e-06,-0.000204003,-6.54773e-05,-0.000229309,-2.23789,18.108,-5.95475,12.6782,18.7554,-2.239,-6.60107,23.4813,213,20.2,5.3625,0.2125,7778
-1.12174e-06,1.59684e-07,-1.38668e-06,-0.000189918,-5.61633e-05,-0.000220783,2.81465,22.4599,-1.71867,12.3948,22.6888,2.96789,-2.1008,22.684,213,20.2,5.85,0.25,7779
-1.10389e-06,1.33988e-07,-1.37003e-06,-0.000205365,-4.85373e-05,-0.000210702,0.757105,23.7911,-0.0268664,12.1794,23.8738,1.13261,-0.485074,23.5917,213,20.2,6.3375,0.2125,7780
-1.17223e-06,5.888e-08,-1.37398e-06,-0.000296235,-3.35242e-05,-0.000182532,-17.0465,21.5391,-0.346461,20.7943,24.5363,-3.33793,-17.0523,36.706,213,20.2,8.2875,0.2875,7781
-1.18405e-06,2.8506e-08,-1.35981e-06,-0.000294291,-2.89011e-05,-0.000194461,-17.2621,21.717,-2.59963,20.9777,24.6777,-5.54471,-17.2777,37.4921,213,20.2,9.2625,0.2875,7782
-1.14126e-06,7.59938e-08,-1.37378e-06,-0.000194621,-3.21183e-05,-0.000237407,2.37795,26.2455,-3.90634,15.2527,26.4207,2.38107,-4.08469,27.8415,213,20.2,7.8,0.25,7783
-1.12853e-06,6.00645e-08,-1.35658e-06,-0.000211768,-3.20328e-05,-0.000228027,-0.85845,25.5401,-3.2466,14.4666,25.613,-0.857594,-3.32031,27.7839,213,20.2,8.2875,0.2125,7784
-1.11328e-06,9.2566e-08,-1.36336e-06,-0.000211872,-3.70082e-05,-0.000226714,-1.22574,24.4573,-3.40563,14.2758,24.667,-0.956462,-3.88463,27.206,213,20.2,7.3125,0.2125,7785
-1.18719e-06,1.69337e-09,-1.36204e-06,-0.000305103,-2.67923e-05,-0.000192643,-19.4938,21.3831,-2.97628,21.968,24.4368,-6.02473,-19.4991,38.9861,213,20.2,10.2375,0.2875,7786
-1.18045e-06,-2.54354e-08,-1.38263e-06,-0.000304121,-2.90594e-05,-0.000186967,-18.939,21.4606,-1.73201,21.7356,24.526,-4.79118,-18.9452,38.403,213,20.2,11.2125,0.2875,7787
-1.13991e-06,2.93305e-08,-1.34162e-06,-0.000209803,-3.08372e-05,-0.000231787,-0.625817,25.6597,-3.8547,14.8188,25.7222,-0.627703,-3.91535,28.1382,213,20.2,9.2625,0.2125,7788
-1.1643e-06,1.4714e-08,-1.34479e-06,-0.000191009,-2.81565e-05,-0.000249809,2.45722,26.3762,-6.17898,16.3944,26.4928,2.45774,-6.29605,29.4059,213,20.2,9.75,0.25,7789
-1.14245e-06,6.7515e-10,-1.34366e-06,-0.000211064,-2.88674e-05,-0.000234702,-1.0173,25.7428,-4.48919,15.2502,25.8739,-1.01106,-4.62649,28.863,213,20.2,10.2375,0.2125,7790
-1.16783e-06,-5.34137e-08,-1.38654e-06,-0.000289564,-3.13021e-05,-0.000200126,-16.88,21.0522,-3.74389,20.2706,23.4885,-6.00753,-17.0526,36.3015,213,20.2,12.1875,0.2875,7791
-1.16664e-06,-8.78482e-08,-1.35822e-06,-0.00028907,-3.85931e-05,-0.000183254,-15.8659,20.923,-0.324028,19.9125,23.9198,-3.2816,-15.9051,35.2512,213,20.2,13.1625,0.2875,7792
-1.15161e-06,-4.06514e-08,-1.38627e-06,-0.000192439,-2.64069e-05,-0.000242496,2.96044,27.3465,-4.39159,16.1245,27.5453,3.07376,-4.70368,29.1491,213,20.2,11.7,0.25,7793
-1.12303e-06,-5.31345e-08,-1.36948e-06,-0.000214631,-2.63968e-05,-0.000232157,-1.4059,26.241,-3.97994,15.3003,26.3979,-1.33996,-4.20276,29.2744,213,20.2,12.1875,0.2125,7794
-1.13661e-06,-2.72007e-08,-1.36475e-06,-0.000211173,-2.81954e-05,-0.000231278,-0.66071,26.2141,-3.61366,15.1081,26.4079,-0.659825,-3.8083,28.7714,213,20.2,11.2125,0.2125,7795
-1.16585e-06,-1.30983e-07,-1.3428e-06,-0.000301114,-5.0551e-05,-0.000173232,-18.9415,17.86,-0.15867,20.4355,21.92,-4.2093,-18.9509,35.8503,213,20.2,14.1375,0.2875,7796
-1.14591e-06,-1.89566e-07,-1.35846e-06,-0.00029508,-6.99235e-05,-0.000169649,-18.967,14.1029,-0.544258,18.5249,18.0196,-4.39783,-19.0302,32.3213,213,20.2,15.1125,0.2875,7797
-1.11836e-06,-8.51831e-08,-1.34156e-06,-0.000207864,-4.0347e-05,-0.000213204,0.68819,25.2922,-0.0961875,12.8522,25.4027,0.783202,-0.301689,25.1795,213,20.2,13.1625,0.2125,7798
-1.14507e-06,-1.07073e-07,-1.33044e-06,-0.000193741,-4.52186e-05,-0.000221323,2.86812,24.6824,-1.183,13.2124,24.9552,2.88183,-1.46955,24.5402,213,20.2,13.65,0.25,7799
-1.11631e-06,-1.30972e-07,-1.32648e-06,-0.000207308,-5.45617e-05,-0.000231895,-2.25371,20.1808,-5.86494,13.5845,20.7378,-2.24455,-6.43111,25.3364,213,20.2,14.1375,0.2125,7800
-1.11662e-06,-2.65342e-07,-1.35792e-06,-0.000277602,-8.95764e-05,-0.000172787,-16.8965,10.7198,-1.50168,16.2009,15.4622,-6.20096,-16.9396,28.5875,213,20.2,16.0875,0.2875,7801
-1.0823e-06,-3.66472e-07,-1.35832e-06,-0.000264359,-0.000117313,-0.000161048,-15.2088,6.38863,-0.0349723,13.7322,12.0843,-5.55948,-15.38,24.1043,213,20.2,17.0625,0.2875,7802
-1.09813e-06,-1.90287e-07,-1.34185e-06,-0.000201329,-6.71355e-05,-0.000217476,-0.644342,19.0653,-3.01589,11.2875,19.2898,-0.599513,-3.28521,21.3592,213,20.2,15.1125,0.2125,7803
-1.10658e-06,-2.25413e-07,-1.3607e-06,-0.000183004,-7.52529e-05,-0.000221625,2.61332,18.4393,-3.05907,11.069,18.7613,2.60896,-3.37675,19.8346,213,20.2,15.6,0.25,7804
-1.07044e-06,-2.6487e-07,-1.34229e-06,-0.00019844,-8.8191e-05,-0.000218402,-2.00455,14.1883,-4.93637,9.8554,14.4788,-1.99937,-5.23202,18.3098,213,20.2,16.0875,0.2125,7805
-1.03646e-06,-4.29506e-07,-1.36319e-06,-0.00017038,-0.00014185,-0.000195628,1.8528,6.04302,-1.85554,5.09136,7.08501,2.05298,-3.09771,8.81869,213,20.2,17.55,0.25,7806
-1.0354e-06,-3.6714e-07,-1.34332e-06,-0.000189803,-0.000122912,-0.000192576,-0.760133,9.06449,-1.16742,5.67739,9.55836,-0.625003,-1.79642,10.8167,213,20.2,17.0625,0.2125,7807
6.50125e-07,-7.08824e-07,-1.54412e-06,-0.000216264,-0.000202232,-0.000149088,-10.4688,-8.40783,-0.602239,9.60628,4.08262,-8.43155,-15.1299,16.8908,213,0.822727,19.5,0.25,7808
-9.18714e-08,-7.60135e-07,-1.60868e-06,-3.39142e-05,-0.000249238,-0.000206391,23.608,-8.01769,-1.7246,17.6566,27.168,-5.15698,-8.14527,33.918,213,13.7409,19.5,0.25,7809
3.89564e-08,-7.70229e-07,-1.61634e-06,-2.40442e-05,-0.000256958,-0.000210924,24.8348,-9.3744,-2.6132,19.2794,29.1718,-6.93755,-9.38706,37.3943,213,8.20455,19.5,0.25,7810
9.19078e-08,-7.59596e-07,-1.61163e-06,-3.45897e-05,-0.000252102,-0.00021039,22.8041,-9.14292,-3.0166,18.2793,27.2161,-7.22896,-9.34253,35.549,213,6.35909,19.5,0.25,7811
1.79126e-07,-7.2918e-07,-1.60924e-06,-6.47575e-05,-0.000234496,-0.000204583,17.7418,-7.18855,-2.79509,14.7556,21.8359,-6.40254,-7.67523,28.8958,213,4.51364,19.5,0.25,7812
-6.46635e-07,-7.04442e-07,-1.56223e-06,-0.000219208,-0.0001938,-0.000137741,-9.3278,-5.596,2.63773,10.8329,7.48802,-5.59623,-14.1779,18.8978,213,19.2773,19.5,0.25,7813
-3.42295e-07,-7.02497e-07,-1.59999e-06,-0.000116701,-0.000221252,-0.000192353,7.63862,-7.71728,-3.47266,11.767,13.6387,-7.29475,-9.89527,22.3475,213,17.4318,19.5,0.25,7814
-1.78589e-07,-7.283e-07,-1.60956e-06,-6.47789e-05,-0.000235526,-0.000202489,17.8362,-7.24236,-2.39007,14.9831,22.1912,-6.21244,-7.77504,29.2163,213,15.5864,19.5,0.25,7815
-3.93599e-08,-7.75573e-07,-1.60902e-06,-2.42074e-05,-0.00025944,-0.000215513,24.1348,-10.4151,-3.96318,19.4385,28.4443,-8.25519,-10.4326,37.8352,213,11.8955,19.5,0.25,7816
-1.64181e-10,-7.76042e-07,-1.61208e-06,-2.00017e-05,-0.000255033,-0.000223398,24.8205,-9.6998,-5.05329,19.3321,28.9512,-9.17079,-9.71299,38.3959,213,10.05,19.5,0.25,7817
3.42438e-07,-7.03734e-07,-1.59596e-06,-0.000116799,-0.000222232,-0.000192761,7.48545,-8.00009,-3.6715,11.7027,13.37,-7.52067,-10.0354,22.2548,213,2.66818,19.5,0.25,7818
7.42168e-07,-7.24981e-07,-1.44595e-06,-0.000212825,-0.000163219,-0.000156779,-6.71481,0.571125,1.517,5.49308,3.88076,-1.40205,-7.1054,9.51661,213,0.361364,19.5,0.2125,7819
7.66957e-07,-7.54673e-07,-1.45619e-06,-0.000248817,-0.000224363,-9.76253e-05,-15.551,-11.9593,6.65523,14.2308,10.9422,-14.2778,-17.5194,26.9872,213,0.361364,19.5,0.2875,7820
5.57613e-07,-7.05441e-07,-1.6039e-06,-0.0002016,-0.000218671,-0.000173743,-10.7854,-13.2927,-6.69388,10.4938,1.41362,-12.6115,-19.5741,18.5157,213,1.28409,19.5,0.2875,7821
-7.41808e-07,-7.18405e-07,-1.47338e-06,-0.000220462,-0.000158152,-0.000158717,-8.25781,0.894016,0.811059,6.05295,3.56809,-1.58301,-8.53781,10.5227,213,19.7386,19.5,0.2125,7822
-7.63865e-07,-7.45145e-07,-1.48449e-06,-0.0002516,-0.000216901,-0.0001032,-16.0436,-10.9472,5.75257,14.4876,10.4792,-13.2215,-18.4959,26.7311,213,19.7386,19.5,0.2875,7823
-5.53897e-07,-7.01866e-07,-1.61497e-06,-0.000200399,-0.000211295,-0.000159011,-8.43032,-10.0307,-2.35147,10.9897,5.36526,-9.5636,-16.6142,19.4381,213,18.8159,19.5,0.2875,7824
5.53459e-07,-6.75431e-07,-1.58927e-06,-0.000192806,-0.000150392,-0.000183125,-3.167,3.06267,-1.74503,6.50708,5.65165,-0.138491,-7.36252,11.2934,213,1.28409,19.5,0.2125,7825
-5.49721e-07,-6.73833e-07,-1.60073e-06,-0.00019115,-0.000149412,-0.000185976,-2.94385,3.18649,-2.18383,6.31917,5.58438,-0.47162,-7.05395,10.9483,213,18.8159,19.5,0.2125,7826
-2.92675e-07,-7.23362e-07,-1.60199e-06,-9.84684e-05,-0.000237551,-0.000180878,11.5699,-8.85777,-0.533926,13.2463,17.5004,-6.32999,-8.99223,25.2669,213,16.9705,19.5,0.2875,7827
-4.00054e-07,-7.06766e-07,-1.61535e-06,-0.000134791,-0.000233714,-0.000170419,4.17626,-10.3531,-1.05668,11.4436,12.2072,-8.76075,-10.68,21.9905,213,17.8932,19.5,0.2875,7828
-4.68082e-07,-6.81318e-07,-1.61812e-06,-0.000161859,-0.000156784,-0.000209262,1.2306,1.97591,-5.73168,4.5923,3.02146,0.616506,-6.16314,8.24937,213,18.3545,19.5,0.25,7829
-4.02042e-07,-6.7915e-07,-1.59919e-06,-0.00013451,-0.000187149,-0.000208458,5.04057,-2.69081,-5.82052,5.72875,5.34097,-2.6952,-6.11653,10.1872,213,17.8932,19.5,0.2125,7830
-1.51512e-07,-7.4882e-07,-1.61595e-06,-5.4037e-05,-0.000242763,-0.000188786,21.0223,-6.69686,1.23103,16.204,25.5971,-3.22968,-6.81096,30.7741,213,15.125,19.5,0.2875,7831
-2.12659e-07,-7.34599e-07,-1.61112e-06,-7.80165e-05,-0.000246578,-0.000175716,16.1241,-8.63336,1.77442,15.6716,22.5812,-4.55393,-8.76208,29.4654,213,16.0477,19.5,0.2875,7832
-2.93201e-07,-6.95853e-07,-1.58613e-06,-0.000101633,-0.000180084,-0.000225239,12.0343,0.511812,-6.12032,9.69311,12.6075,0.596994,-6.77872,16.9481,213,16.9705,19.5,0.2125,7833
-2.50766e-07,-7.14079e-07,-1.59178e-06,-8.56234e-05,-0.000177859,-0.000214709,17.0742,3.52705,-1.88532,10.1856,17.7801,3.52708,-2.59121,18.1048,213,16.5091,19.5,0.25,7834
-2.12356e-07,-7.08156e-07,-1.59433e-06,-7.68684e-05,-0.000204774,-0.000220351,16.1355,-2.65066,-4.93848,11.2869,16.5816,-2.04298,-5.99222,20.8812,213,16.0477,19.5,0.2125,7835
-7.71303e-08,-7.80838e-07,-1.61401e-06,-2.98302e-05,-0.000264143,-0.000195237,24.2389,-10.1759,-0.0552312,18.9782,27.7557,-3.54737,-10.2006,35.1058,213,13.2795,19.5,0.2875,7836
-1.09054e-07,-7.64561e-07,-1.61598e-06,-3.99333e-05,-0.000264138,-0.000188087,22.4795,-10.4505,0.719391,19.1043,27.6946,-4.43216,-10.514,35.5599,213,14.2023,19.5,0.2875,7837
-1.0962e-07,-7.37451e-07,-1.59843e-06,-3.89412e-05,-0.00021171,-0.000229119,23.7831,-1.59234,-4.14928,14.5486,24.1879,-1.23714,-4.90927,27.446,213,14.2023,19.5,0.2125,7838
-1.2882e-07,-7.41149e-07,-1.60417e-06,-4.47377e-05,-0.000196804,-0.000222772,24.3764,2.04172,-1.77237,13.2993,24.5982,2.04798,-2.0004,24.8232,213,14.6636,19.5,0.25,7839
-1.51802e-07,-7.23331e-07,-1.59972e-06,-5.47519e-05,-0.000191932,-0.000232939,21.4746,1.32637,-4.69662,13.6095,21.9795,1.36427,-5.23941,24.5913,213,15.125,19.5,0.2125,7840
-2.87764e-08,-7.89158e-07,-1.61689e-06,-2.22983e-05,-0.000269978,-0.0001983,25.2175,-11.1605,-0.632872,20.5644,29.9584,-5.36404,-11.1703,38.5549,213,11.4341,19.5,0.2875,7841
-5.13344e-08,-7.87619e-07,-1.61439e-06,-2.65002e-05,-0.000269536,-0.000198034,24.2737,-11.4222,-0.920382,20.3411,29.2579,-5.9025,-11.4243,38.2216,213,12.3568,19.5,0.2875,7842
-7.75002e-08,-7.54247e-07,-1.59664e-06,-3.1031e-05,-0.000195702,-0.000245839,25.6177,1.43174,-5.93215,16.0861,25.9263,1.43682,-6.24584,29.1016,213,13.2795,19.5,0.2125,7843
-6.38159e-08,-7.70509e-07,-1.60077e-06,-2.82954e-05,-0.000200312,-0.000229655,27.357,2.09209,-2.21769,15.1807,27.7467,2.09947,-2.61475,28.3004,213,12.8182,19.5,0.25,7844
-5.09312e-08,-7.60592e-07,-1.59656e-06,-2.65809e-05,-0.000212291,-0.000230094,26.6083,-0.667839,-3.28272,15.9081,27.545,-0.616065,-4.27117,30.1552,213,12.3568,19.5,0.2125,7845
9.11102e-09,-7.86952e-07,-1.6202e-06,-2.03249e-05,-0.000258379,-0.000208624,25.811,-9.15322,-1.84548,19.6686,30.1798,-6.21006,-9.15743,37.9495,213,9.58864,19.5,0.2875,7846
-9.56349e-09,-7.89231e-07,-1.61838e-06,-2.02404e-05,-0.000261099,-0.000208498,25.5888,-9.78734,-2.06162,19.9805,30.1723,-6.64364,-9.7888,38.485,213,10.5114,19.5,0.2875,7847
-2.86797e-08,-7.63401e-07,-1.59819e-06,-2.20367e-05,-0.000209284,-0.000249325,26.1841,-1.31782,-7.19879,17.2431,26.717,-1.28037,-7.76917,31.7432,213,11.4341,19.5,0.2125,7848
-1.88596e-08,-7.74785e-07,-1.60457e-06,-2.06263e-05,-0.000198144,-0.000251775,27.3352,1.26234,-6.61475,17.5821,27.9419,1.26317,-7.22231,31.7827,213,10.9727,19.5,0.25,7849
-9.29069e-09,-7.64331e-07,-1.59956e-06,-2.01977e-05,-0.000212923,-0.000244566,26.7307,-1.57584,-6.22329,17.1281,27.3639,-1.5401,-6.89228,31.9185,213,10.5114,19.5,0.2125,7850
5.09243e-08,-7.82781e-07,-1.62146e-06,-2.66224e-05,-0.000260915,-0.000200397,24.8293,-9.58236,-0.693874,19.6332,29.683,-5.54659,-9.58337,37.4117,213,7.74318,19.5,0.2875,7851
2.83309e-08,-7.83455e-07,-1.62303e-06,-2.21975e-05,-0.000262064,-0.000199959,25.8263,-9.404,-0.282446,19.9347,30.4542,-4.89918,-9.41515,37.8141,213,8.66591,19.5,0.2875,7852
2.85907e-08,-7.59472e-07,-1.60473e-06,-2.14769e-05,-0.000208691,-0.000240735,27.1769,-0.320179,-5.02669,16.8069,27.857,-0.270095,-5.75688,31.234,213,8.66591,19.5,0.2125,7853
1.87997e-08,-7.71668e-07,-1.60844e-06,-2.05846e-05,-0.000196284,-0.000251852,27.5119,1.70594,-6.45558,17.4939,28.0221,1.70575,-6.96564,31.5586,213,9.12727,19.5,0.25,7854
9.30832e-09,-7.62993e-07,-1.60153e-06,-2.04848e-05,-0.000212415,-0.000245445,26.6271,-1.56262,-6.41389,17.1118,27.1882,-1.5021,-7.03548,31.8199,213,9.58864,19.5,0.2125,7855
1.09239e-07,-7.64427e-07,-1.61807e-06,-4.00237e-05,-0.00026317,-0.00019042,22.3302,-10.4444,0.240777,19.1581,27.8256,-5.20846,-10.4906,35.9672,213,5.89773,19.5,0.2875,7856
7.70051e-08,-7.79103e-07,-1.61814e-06,-3.02074e-05,-0.000269069,-0.00019687,23.5352,-11.5476,-0.943467,19.6942,27.8158,-5.19894,-11.5727,36.62,213,6.82045,19.5,0.2875,7857
5.04046e-08,-7.57043e-07,-1.60292e-06,-2.63933e-05,-0.000209886,-0.000240251,25.9288,-1.02178,-5.48164,16.3732,26.5663,-0.960928,-6.18,30.4738,213,7.74318,19.5,0.2125,7858
6.34964e-08,-7.67984e-07,-1.60505e-06,-2.86053e-05,-0.000196596,-0.000251199,25.6161,0.942483,-7.0773,17.028,26.296,0.94535,-7.76008,30.6452,213,7.28182,19.5,0.25,7859
7.72405e-08,-7.53057e-07,-1.59962e-06,-3.1535e-05,-0.000196663,-0.000244703,25.5128,1.25964,-5.79624,16.7881,26.6476,1.25732,-6.9287,30.3236,213,6.82045,19.5,0.2125,7860
2.13247e-07,-7.36114e-07,-1.60982e-06,-7.78562e-05,-0.000247639,-0.000175898,16.0463,-8.89054,1.64641,15.8893,22.7945,-5.00815,-8.98418,29.989,213,4.05227,19.5,0.2875,7861
1.52012e-07,-7.49624e-07,-1.61663e-06,-5.44873e-05,-0.000240975,-0.00019283,20.7032,-6.68715,0.384079,15.9997,25.1987,-3.99788,-6.80074,30.6942,213,4.975,19.5,0.2875,7862
1.09585e-07,-7.37836e-07,-1.60063e-06,-3.90656e-05,-0.000212846,-0.000225976,23.9407,-1.5833,-3.51183,14.4534,24.466,-1.17948,-4.44091,27.422,213,5.89773,19.5,0.2125,7863
1.28976e-07,-7.41978e-07,-1.60532e-06,-4.52338e-05,-0.000195728,-0.000224526,24.1938,2.08992,-2.13972,13.4223,24.4468,2.09501,-2.39777,24.904,213,5.43636,19.5,0.25,7864
1.52161e-07,-7.24814e-07,-1.6001e-06,-5.50937e-05,-0.000191033,-0.000233308,21.442,1.47592,-4.73324,13.5595,21.9023,1.49913,-5.21677,24.4626,213,4.975,19.5,0.2125,7865
4.00797e-07,-7.08572e-07,-1.60996e-06,-0.000136677,-0.000234483,-0.000170457,3.64763,-10.7176,-1.31385,11.4812,11.9712,-9.36389,-10.9912,22.1936,213,2.20682,19.5,0.2875,7866
2.92896e-07,-7.24737e-07,-1.59897e-06,-9.80668e-05,-0.000238902,-0.000180574,11.5686,-9.11655,-0.5496,13.3819,17.52,-6.37369,-9.24383,25.4504,213,3.12955,19.5,0.2875,7867
2.12731e-07,-7.0934e-07,-1.59309e-06,-7.65972e-05,-0.000206361,-0.00021979,16.1046,-2.95449,-4.92688,11.2436,16.4946,-2.27874,-5.99263,20.8795,213,4.05227,19.5,0.2125,7868
2.51078e-07,-7.15313e-07,-1.58954e-06,-8.51056e-05,-0.000178685,-0.000214496,17.1414,3.39695,-1.86288,10.2423,17.8822,3.39573,-2.60245,18.2408,213,3.59091,19.5,0.25,7869
2.93268e-07,-6.96803e-07,-1.5831e-06,-0.000101337,-0.000179756,-0.000226195,12.0468,0.529033,-6.2917,9.7487,12.591,0.599486,-6.90637,17.0335,213,3.12955,19.5,0.2125,7870
4.70047e-07,-6.82855e-07,-1.61081e-06,-0.000166863,-0.000154985,-0.000209513,0.172653,1.91722,-6.09157,4.61406,2.5492,0.128019,-6.67892,8.28718,213,1.74545,19.5,0.25,7871
4.02461e-07,-6.80179e-07,-1.59371e-06,-0.000136182,-0.000187935,-0.000208836,4.53005,-3.0711,-6.14093,5.53512,4.72343,-3.05861,-6.3468,9.84689,213,2.20682,19.5,0.2125,7872
-9.31895e-09,1.50175e-08,-1.67286e-06,-2.7281e-05,-2.46423e-05,-0.00142041,34.7215,34.9879,-0.0164492,17.5023,34.9881,34.7213,-0.0165211,34.872,213,10.39,9.77922,0.175,7873
1.47939e-07,1.47752e-07,-1.67098e-06,-5.44945e-05,-5.35525e-05,-0.00182164,29.2048,29.2904,-0.0337007,14.7853,29.5168,28.9987,-0.0539198,29.3151,213,5.88357,5.92373,0.175,7874
1.46572e-07,-9.08475e-08,-1.67174e-06,-5.44693e-05,-3.72028e-05,-0.00249832,28.7185,29.6847,-0.0189378,14.8707,29.7094,28.7067,-0.0318881,29.2529,213,5.96166,13.5953,0.175,7875
-1.58899e-07,-9.8637e-08,-1.67192e-06,-5.7952e-05,-3.93701e-05,-0.00209814,28.9007,30.2411,-0.0706489,15.1793,30.2728,28.884,-0.0856938,29.6885,213,14.3722,13.7906,0.175,7876
-1.58997e-07,1.55785e-07,-1.67055e-06,-5.81493e-05,-5.56968e-05,-0.0016211,28.9266,29.1649,-0.0251907,14.7095,29.3713,28.7426,-0.0476497,29.1097,213,14.4218,5.76773,0.175,7877
1.38278e-09,-1.67992e-07,-1.66831e-06,-2.466e-05,-6.00146e-05,-0.00197328,32.0397,29.2959,-0.0768028,16.0683,32.0498,29.2959,-0.0868934,30.8521,213,9.99692,15.0579,0.175,7878
-1.29925e-09,2.57165e-07,-1.66512e-06,-2.46963e-05,-8.59378e-05,-0.00219531,30.7081,26.5773,0.058661,15.3434,30.7268,26.5773,0.0399316,28.8369,213,10.097,4.485,0.175,7879
-2.7735e-07,1.37411e-08,-1.66146e-06,-9.17096e-05,-2.2928e-05,-0.00133641,25.8819,32.9593,0.324876,16.3571,32.9996,25.881,0.285448,29.7995,213,15.8271,9.75,0.175,7880
2.96436e-07,1.56984e-08,-1.66002e-06,-9.86399e-05,-2.29156e-05,-0.0016679,25.2047,31.9095,0.376361,15.8095,31.9527,25.2042,0.333684,28.8431,213,4.07365,9.67275,0.175,7881
3.37565e-07,3.2976e-07,-1.66018e-06,-0.000110245,-0.000109064,-0.00176914,20.859,20.977,-0.291156,11.0785,21.7664,20.1689,-0.390519,21.403,213,3.38709,3.46936,0.175,7882
3.43757e-07,-2.15977e-07,-1.6591e-06,-0.000114389,-7.12483e-05,-0.00180142,21.569,25.1365,-0.349609,12.8779,25.3291,21.4535,-0.4267,24.0533,213,3.38709,16.0306,0.175,7883
-3.44026e-07,3.37458e-07,-1.65872e-06,-0.00011248,-0.000111653,-0.00202709,21.3651,21.4568,-0.174748,11.2345,22.1928,20.7305,-0.276141,21.7746,213,16.7797,3.39273,0.175,7884
-3.50649e-07,-2.21111e-07,-1.65936e-06,-0.000117325,-7.31987e-05,-0.00193777,21.5779,25.0163,-0.261465,12.7813,25.216,21.4633,-0.346627,23.9082,213,16.7797,16.1073,0.175,7885
9.12538e-08,3.30665e-08,-1.67279e-06,-4.03003e-05,-2.56217e-05,-0.00182693,31.7813,33.0213,-0.0455266,16.5381,33.0271,31.7791,-0.049125,32.4702,213,7.18303,9.04673,0.175,7886
4.18942e-07,9.61941e-08,-1.67584e-06,-0.000136808,-3.82875e-05,-0.00228756,21.4877,27.7071,-0.578922,14.2292,27.7966,21.4811,-0.66188,25.8852,213,2.96683,6.87,0.175,7887
4.16295e-07,-6.11623e-08,-1.67209e-06,-0.000136678,-2.91899e-05,-0.00182887,20.4172,29.2598,-0.352792,14.864,29.3178,20.4167,-0.410232,26.4267,213,3.02685,12.7856,0.175,7888
7.74801e-08,-2.56666e-07,-1.6724e-06,-3.43389e-05,-8.76846e-05,-0.0019629,30.1155,26.0389,-0.105015,15.151,30.1659,26.0197,-0.136192,28.4564,213,7.26015,16.3211,0.175,7889
7.91393e-08,3.93444e-07,-1.67255e-06,-3.47547e-05,-0.000128605,-0.00233312,28.3784,22.7207,-0.0478013,14.2736,28.4401,22.7183,-0.107078,26.1599,213,7.26006,3.17871,0.175,7890
-8.05446e-08,4.03146e-07,-1.6693e-06,-3.5381e-05,-0.000131088,-0.0018086,28.7627,20.9475,-0.373322,14.6189,28.8168,20.941,-0.420908,26.2031,213,12.8764,3.10822,0.175,7891
-7.37475e-08,-2.63258e-07,-1.67095e-06,-3.38932e-05,-8.9326e-05,-0.00220294,29.6321,25.9512,-0.203768,14.9528,29.6743,25.9366,-0.231342,28.223,213,12.7497,16.3862,0.175,7892
-4.10841e-07,1.01001e-07,-1.6791e-06,-0.000133082,-3.93215e-05,-0.00146436,19.3304,28.3921,-0.82667,14.6763,28.4614,19.3256,-0.891146,26.0168,213,17.0908,6.75044,0.175,7893
-4.34531e-07,-5.67577e-08,-1.67965e-06,-0.000141452,-2.82062e-05,-0.00166596,19.3424,29.4201,-0.389819,14.9797,29.4946,19.3428,-0.464763,26.391,213,17.2098,12.63,0.175,7894
3.77723e-08,-5.1255e-08,-1.67299e-06,-2.9723e-05,-2.91867e-05,-0.0021537,31.926,31.9665,-0.0313141,16.0097,31.9865,31.9076,-0.0328741,31.98,213,8.7033,12.3379,0.175,7895
-1.02746e-07,-1.46719e-08,-1.67149e-06,-4.32735e-05,-2.38133e-05,-0.00197879,31.1658,32.6668,-0.0182244,16.3469,32.6714,31.1654,-0.0223551,31.9673,213,13.1726,10.9987,0.175,7896
-4.8143e-08,9.7567e-08,-1.67291e-06,-3.10141e-05,-3.94282e-05,-0.00212126,31.5789,30.987,-0.0709738,15.833,31.5905,30.9801,-0.0756128,31.3653,213,11.7573,7.08467,0.175,7897
2.64293e-08,9.77896e-08,-1.67244e-06,-2.7848e-05,-4.01727e-05,-0.00197954,32.3157,31.3656,-0.0253846,16.1754,32.3215,31.3638,-0.0293411,31.8828,213,9.08488,7.0887,0.175,7898
-3.72291e-08,-5.67841e-08,-1.67303e-06,-2.92703e-05,-3.06933e-05,-0.00215326,31.9265,31.8266,-0.0300965,15.9862,31.9405,31.8144,-0.0319608,31.9096,213,11.3783,12.5247,0.175,7899
-1.39086e-07,5.71239e-08,-1.67017e-06,-5.30137e-05,-2.92045e-05,-0.00210236,29.7219,31.4262,-0.0125637,15.7316,31.441,29.7168,-0.0222803,30.6376,213,13.9526,8.17238,0.175,7900
1.38489e-07,-1.70058e-08,-1.67144e-06,-5.24805e-05,-2.32742e-05,-0.00197654,30.1575,32.429,-0.0478681,16.2471,32.4378,30.1571,-0.0563484,31.416,213,6.18808,11.0826,0.175,7901
1.52192e-08,-3.47048e-07,-1.68178e-06,-2.25603e-05,-0.0001131,-0.00226028,29.6858,23.9511,-1.06774,15.3794,29.6892,23.9496,-1.06965,28.3286,213,9.38374,17.1329,0.175,7902
1.78019e-08,5.25448e-07,-1.68271e-06,-2.39827e-05,-0.000170385,-0.00187266,28.1276,16.2626,-1.78682,15.121,28.2916,16.2621,-1.95033,26.3721,213,9.35422,2.36281,0.175,7903
-5.57075e-07,3.22944e-08,-1.70364e-06,-0.000182939,-2.35623e-05,-0.00216655,16.8381,27.7812,-0.87435,14.5019,27.9567,16.8354,-1.0471,25.3445,213,17.9385,8.99183,0.175,7904
5.72111e-07,3.57803e-08,-1.70725e-06,-0.000187007,-2.39026e-05,-0.00195829,15.0868,27.7238,-1.21344,14.6969,27.9533,15.0844,-1.44049,25.5213,213,2.09057,8.83361,0.175,7905
1.61782e-07,-3.55335e-07,-1.68965e-06,-5.90142e-05,-0.000115661,-0.00204823,26.2317,22.3361,-1.26887,13.8323,26.3833,22.1968,-1.28121,25.827,213,5.26668,17.3827,0.175,7906
1.7156e-07,5.47429e-07,-1.69874e-06,-5.83816e-05,-0.000176647,-0.00178597,23.5025,13.428,-2.63885,13.2941,23.7314,13.4169,-2.85668,23.2179,213,5.26667,2.11727,0.175,7907
-1.74136e-07,5.41595e-07,-1.69864e-06,-5.90908e-05,-0.000175938,-0.00197713,23.856,14.9282,-2.22131,13.2648,24.0877,14.9171,-2.44184,23.3372,213,14.8803,2.14462,0.175,7908
-1.55933e-07,-3.33676e-07,-1.67996e-06,-5.73297e-05,-0.000114752,-0.0019984,26.5446,22.4767,-0.842405,13.7757,26.6992,22.3318,-0.852106,25.648,213,14.701,17.1977,0.175,7909
5.78334e-07,1.88912e-07,-1.70476e-06,-0.000191753,-6.20487e-05,-0.00192555,13.7248,23.7557,-0.420149,12.4048,24.0696,13.7307,-0.739931,21.5848,213,1.93343,5.0641,0.175,7910
5.93954e-07,-1.24744e-07,-1.70528e-06,-0.000195339,-4.32222e-05,-0.0022857,14.982,25.0233,-1.90022,13.7629,25.3216,14.9876,-2.20417,24.0834,213,1.91436,14.4084,0.175,7911
-6.02392e-07,-1.26499e-07,-1.70203e-06,-0.000197506,-4.39642e-05,-0.00237933,16.7199,25.7151,-0.486839,13.432,26.0406,16.7311,-0.823491,23.6274,213,18.2312,14.4365,0.175,7912
-5.87685e-07,1.89519e-07,-1.70311e-06,-0.000194532,-6.24752e-05,-0.00222071,15.7618,24.2446,-0.12064,12.5211,24.5805,15.767,-0.461724,22.0018,213,18.219,5.05128,0.175,7913
5.54862e-08,-1.11429e-07,-1.67116e-06,-3.11756e-05,-4.37016e-05,-0.00146662,33.2744,32.0403,-0.0198983,16.6603,33.295,32.0253,-0.0255123,32.7042,213,8.08321,14.0125,0.175,7914
5.08023e-08,1.79603e-07,-1.67028e-06,-2.98892e-05,-6.32806e-05,-0.00224898,30.678,28.4776,-0.0268291,15.3687,30.696,28.4743,-0.0415001,29.689,213,8.21483,5.49134,0.175,7915
-2.11768e-07,-3.69994e-08,-1.66788e-06,-7.22951e-05,-2.51732e-05,-0.00206182,27.9491,31.3969,0.0263832,15.7056,31.4187,27.9461,0.00760274,29.8268,213,15.09,11.8805,0.175,7916
1.8357e-07,5.97676e-08,-1.66946e-06,-6.49653e-05,-2.9878e-05,-0.00208659,28.5067,31.0416,-0.0142303,15.5446,31.0603,28.5028,-0.0289822,29.8927,213,5.40514,8.05162,0.175,7917
-5.85622e-08,-1.27504e-07,-1.6709e-06,-3.15954e-05,-4.78004e-05,-0.00197306,31.6978,30.4449,-0.00112208,15.8625,31.7157,30.4351,-0.00927021,31.1045,213,12.1285,14.3577,0.175,7918
-6.61276e-08,2.03435e-07,-1.66988e-06,-3.26294e-05,-6.98463e-05,-0.00217519,30.4393,27.8916,0.0304029,15.2253,30.4625,27.8869,0.0119003,29.248,213,12.385,5.11765,0.175,7919
5.75633e-07,-1.41393e-08,-1.70269e-06,-0.000183517,-2.24626e-05,-0.00227021,17.5025,27.8155,-0.803858,14.5633,28.0693,17.5021,-1.05725,25.5389,213,2.08465,10.966,0.175,7920
5.16157e-07,5.06852e-07,-1.70705e-06,-0.000169953,-0.00016288,-0.00171015,12.2977,12.9124,0.238682,7.95928,15.0738,11.2198,-0.84477,14.3841,213,2.01718,2.10758,0.175,7921
5.17502e-07,-3.42686e-07,-1.71809e-06,-0.000178975,-0.00010664,-0.00171377,13.1582,19.2059,0.334846,10.0742,19.916,13.0154,-0.232454,17.7353,213,2.01718,17.3924,0.175,7922
-6.6087e-07,-1.80098e-08,-1.71506e-06,-0.000214093,-2.31245e-05,-0.00233044,15.0533,26.7497,-1.22447,14.3727,27.1354,15.0531,-1.60996,24.9993,213,18.4502,11.1247,0.175,7923
-7.01586e-08,3.58356e-08,-1.67233e-06,-3.51547e-05,-2.59074e-05,-0.00232188,31.0088,31.6031,-0.0154003,15.8128,31.6075,31.0071,-0.0180739,31.3297,213,12.3642,8.95394,0.175,7924
1.70562e-07,-1.8026e-07,-1.66352e-06,-6.25009e-05,-6.24715e-05,-0.00166908,28.1139,28.108,-0.0512787,14.3448,28.6136,27.633,-0.0759804,28.2121,213,5.41406,15.4175,0.175,7925
1.697e-07,2.79906e-07,-1.66451e-06,-6.04505e-05,-9.43949e-05,-0.00180522,27.1486,24.3585,-0.191049,13.7446,27.2579,24.2895,-0.231279,26.1317,213,5.40069,4.08489,0.175,7926
-5.24392e-07,-3.46888e-07,-1.72e-06,-0.00018439,-0.000108215,-0.00210712,13.4414,19.0721,-1.56003,10.7231,19.5974,13.2049,-1.84887,19.0712,213,18.1358,17.4377,0.175,7927
-5.21918e-07,5.10297e-07,-1.72026e-06,-0.000175721,-0.00016657,-0.00207088,12.7306,13.4399,-1.35767,8.77836,15.2882,11.7931,-2.26848,16.0963,213,18.1358,2.06232,0.175,7928
-2.94249e-07,1.80244e-07,-1.66238e-06,-9.87879e-05,-6.21735e-05,-0.00193866,24.0469,26.8515,0.000636489,13.5002,26.9523,23.9949,-0.0481841,25.65,213,16.1743,5.25143,0.175,7929
-2.93513e-07,-1.06134e-07,-1.66662e-06,-0.000100246,-4.0102e-05,-0.00233579,24.9686,28.6444,-0.00216355,14.3661,28.6897,24.9636,-0.0424535,27.0622,213,16.0973,14.0529,0.175,7930
-3.10746e-08,-4.17228e-07,-1.69939e-06,-2.32199e-05,-0.000134758,-0.00198294,29.3984,20.9776,-1.35347,15.4125,29.4356,20.9762,-1.38927,27.5858,213,11.4303,17.7037,0.175,7931
-3.47845e-08,6.31298e-07,-1.71464e-06,-2.62482e-05,-0.000203478,-0.00183626,26.7671,11.9659,-1.72849,14.5725,27.0918,11.9658,-2.05317,25.2464,213,11.4465,1.79471,0.175,7932
4.80985e-08,-7.18629e-09,-1.67304e-06,-3.08458e-05,-2.38449e-05,-0.00198562,32.4978,33.04,-0.0235563,16.5328,33.0411,32.4977,-0.0245499,32.7973,213,8.39503,10.6751,0.175,7933
2.68453e-07,-2.35797e-08,-1.66492e-06,-9.04382e-05,-2.35123e-05,-0.00195128,26.1865,31.3702,0.23228,15.5945,31.396,26.186,0.206939,28.938,213,4.35613,11.3584,0.175,7934
-2.66112e-07,5.76352e-08,-1.6645e-06,-8.90885e-05,-2.9679e-05,-0.0019526,26.1428,30.7171,0.169431,15.3067,30.7537,26.1355,0.140216,28.5855,213,15.7574,8.08211,0.175,7935
2.97441e-07,1.75657e-07,-1.66133e-06,-9.9214e-05,-6.07612e-05,-0.00174895,23.763,27.0428,0.0553987,13.5704,27.1481,23.7058,0.00734705,25.5938,213,3.90127,5.32067,0.175,7936
2.88199e-07,-1.1231e-07,-1.66592e-06,-9.78203e-05,-4.25568e-05,-0.00179311,24.5517,29.1705,-0.0146021,14.6348,29.2204,24.5364,-0.0491828,27.2314,213,4.05164,14.1985,0.175,7937
-1.6264e-07,2.76774e-07,-1.66453e-06,-5.80097e-05,-9.33177e-05,-0.00126445,27.6631,23.9387,-0.307497,14.0676,27.783,23.8634,-0.352132,26.3945,213,14.5862,4.1304,0.175,7938
-1.99493e-07,-1.69105e-07,-1.66356e-06,-7.23066e-05,-5.94203e-05,-0.00180455,27.0479,28.1321,0.222934,14.0551,28.3015,26.9102,0.191286,27.441,213,15.0966,15.2601,0.175,7939
8.00965e-08,8.78145e-08,-1.67269e-06,-3.6691e-05,-3.71565e-05,-0.00163834,32.3208,32.2716,-0.0342405,16.2266,32.4131,32.185,-0.040003,32.3397,213,7.43649,7.31541,0.175,7940
-9.38908e-08,-5.87214e-08,-1.6726e-06,-4.05071e-05,-3.0367e-05,-0.00197913,31.2439,32.0353,-0.0375649,16.0463,32.05,31.2343,-0.0426227,31.6926,213,13.0083,12.6146,0.175,7941
8.01155e-08,6.68923e-07,-1.71127e-06,-3.41321e-05,-0.000214383,-0.00223133,25.5381,13.5129,-1.80817,14.1305,25.9962,13.5115,-2.26483,24.53,213,7.19619,1.59176,0.175,7942
7.08025e-08,-4.4092e-07,-1.7001e-06,-3.10856e-05,-0.000141604,-0.00191185,27.4839,18.4805,-3.7417,15.6435,27.5274,18.4549,-3.75954,27.8806,213,7.20211,17.9073,0.175,7943
3.1827e-08,4.36039e-08,-1.67297e-06,-2.91751e-05,-2.78406e-05,-0.00211537,32.1382,32.2427,-0.0220207,16.1358,32.2483,32.1339,-0.0233205,32.2146,213,8.9253,8.68955,0.175,7944
2.99387e-07,5.9508e-07,-1.71382e-06,-9.63623e-05,-0.000199158,-0.00212649,19.8619,12.5754,-1.5771,11.2375,20.4184,12.4984,-2.05656,19.7446,213,3.59953,1.73614,0.175,7945
2.86355e-07,-3.90887e-07,-1.69605e-06,-9.8969e-05,-0.000128216,-0.00197074,21.449,19.1606,-1.17306,11.7603,22.23,18.4972,-1.29065,21.8942,213,3.59953,17.7639,0.175,7946
-2.98582e-07,5.91927e-07,-1.70988e-06,-9.55957e-05,-0.000195624,-0.00242608,21.2584,15.5208,-1.27122,11.8919,21.9138,15.4643,-1.87009,21.3043,213,16.4954,1.75782,0.175,7947
-2.86327e-07,-3.86984e-07,-1.69445e-06,-9.93913e-05,-0.00012471,-0.00218671,22.0719,20.4274,-1.1496,12.0748,22.8626,19.7742,-1.28707,22.7631,213,16.4954,17.7422,0.175,7948
7.10902e-07,9.72257e-08,-1.69453e-06,-0.000232748,-3.87136e-05,-0.00190715,10.2312,25.2861,0.19978,13.1735,25.9134,10.2372,-0.433568,22.954,213,1.38499,6.88609,0.175,7949
7.15181e-07,-6.13033e-08,-1.71087e-06,-0.000230775,-3.11991e-05,-0.00195075,10.0154,25.6464,-0.939753,13.9454,26.2983,10.0161,-1.59242,24.2669,213,1.40382,12.6686,0.175,7950
-8.6147e-08,6.94911e-07,-1.70979e-06,-3.61857e-05,-0.00021981,-0.00228593,25.056,13.207,-2.18465,14.1875,25.6221,13.2093,-2.75299,24.6375,213,13.0606,1.46951,0.175,7951
-7.30506e-08,-4.54e-07,-1.70122e-06,-3.22885e-05,-0.000141733,-0.00191948,27.2596,18.4273,-3.99037,15.6713,27.3176,18.404,-4.02508,27.9721,213,12.9962,17.9975,0.175,7952
-1.35561e-10,-2.85955e-08,-1.67304e-06,-2.76018e-05,-2.54364e-05,-0.00183213,33.287,33.4766,-0.0407977,16.7591,33.477,33.2869,-0.0411327,33.4235,213,10.0527,11.5232,0.175,7953
-1.54695e-07,1.3804e-08,-1.66662e-06,-5.71716e-05,-2.34677e-05,-0.00185569,29.9124,32.675,0.109037,16.2927,32.685,29.9118,0.0996711,31.291,213,14.1917,9.79064,0.175,7954
-7.35464e-07,-6.1957e-08,-1.69855e-06,-0.000236987,-3.22797e-05,-0.00190198,9.87009,25.8079,-0.026678,13.551,26.4376,9.87819,-0.664428,23.663,213,18.7965,12.673,0.175,7955
-7.07269e-07,9.68428e-08,-1.68981e-06,-0.000231779,-3.87327e-05,-0.00228688,13.5318,25.5168,0.129833,13.2942,26.1167,13.5335,-0.471704,23.0372,213,18.7047,6.89622,0.175,7956
3.19947e-07,5.46354e-08,-1.66367e-06,-0.000107352,-2.87851e-05,-0.00211151,24.4478,29.9701,0.275983,14.8969,30.0224,24.4428,0.228642,27.4329,213,3.82305,8.15919,0.175,7957
8.38077e-08,-5.10747e-08,-1.67298e-06,-3.82277e-05,-2.89451e-05,-0.00273507,29.5779,30.0052,-0.0344505,15.0256,30.0124,29.575,-0.0387867,29.8349,213,7.35995,12.358,0.175,7958
-1.07381e-08,1.41304e-07,-1.67213e-06,-2.60035e-05,-5.19935e-05,-0.00163596,33.145,30.7826,-0.0471457,16.604,33.153,30.7825,-0.0550011,32.0885,213,10.4584,6.15821,0.175,7959
-3.96142e-07,-1.24487e-08,-1.67611e-06,-0.000130256,-2.24268e-05,-0.00158242,20.7266,30.7211,-0.357141,15.5994,30.7815,20.7264,-0.417321,27.5819,213,16.9031,10.8754,0.175,7960
-2.79026e-08,-2.40164e-07,-1.66989e-06,-2.55646e-05,-8.19828e-05,-0.00158562,32.2874,27.0582,0.12077,16.1127,32.3195,27.0527,0.094171,29.9414,213,11.1837,16.0858,0.175,7961
-2.96993e-08,3.73697e-07,-1.66542e-06,-2.55186e-05,-0.000123985,-0.0017722,30.4537,22.1812,0.308268,15.1392,30.5206,22.1804,0.242182,27.089,213,11.2318,3.37368,0.175,7962
2.4534e-07,1.04549e-07,-1.66555e-06,-8.45024e-05,-4.18893e-05,-0.00195073,26.2296,29.5174,0.125312,14.7309,29.5586,26.2169,0.0968313,27.9412,213,4.52797,6.75511,0.175,7963
1.64636e-07,1.85766e-08,-1.66847e-06,-6.00752e-05,-2.38403e-05,-0.00166082,29.8193,33.0846,0.0330247,16.5372,33.0962,29.8188,0.0218637,31.5635,213,5.72964,9.58439,0.175,7964
-1.42771e-08,6.11119e-08,-1.6728e-06,-2.73095e-05,-3.09461e-05,-0.00198434,32.6503,32.3699,-0.0241749,16.339,32.6522,32.3695,-0.0256773,32.5375,213,10.5772,8.1177,0.175,7965
3.4035e-09,-8.4737e-08,-1.67237e-06,-2.62156e-05,-3.6823e-05,-0.00213536,32.1232,31.3727,-0.00361429,16.0662,32.126,31.3727,-0.00644311,31.7625,213,9.92303,13.3324,0.175,7966
3.60266e-08,-2.06636e-07,-1.6653e-06,-2.68745e-05,-7.29169e-05,-0.00195639,31.5154,27.9623,0.152314,15.7,31.5356,27.9588,0.135545,29.7733,213,8.64795,15.6519,0.175,7967
3.64896e-08,3.18679e-07,-1.65864e-06,-2.6719e-05,-0.000107805,-0.00157571,31.0456,23.5142,-0.285342,15.7066,31.087,23.5136,-0.326145,28.3943,213,8.65836,3.8501,0.175,7968
-4.39484e-08,-1.13318e-08,-1.67285e-06,-3.07285e-05,-2.42703e-05,-0.00198574,32.4948,32.999,-0.0246314,16.5128,33.0002,32.4944,-0.0254185,32.7756,213,11.5743,10.8414,0.175,7969
6.55683e-07,-2.14122e-07,-1.6989e-06,-0.000219238,-6.96701e-05,-0.00252192,14.1057,22.5026,-1.93729,12.634,22.9128,14.1133,-2.35514,22.2161,213,1.50802,15.9295,0.175,7970
6.40537e-07,3.08536e-07,-1.70852e-06,-0.000213658,-9.88676e-05,-0.00233158,13.6567,20.6623,-0.605865,11.1899,21.2293,13.6342,-1.15041,19.712,213,1.50802,3.57052,0.175,7971
-6.45992e-07,3.16295e-07,-1.70991e-06,-0.000214031,-0.000101197,-0.00223671,12.3613,19.8126,-0.975534,11.0002,20.4292,12.3404,-1.57124,19.2741,213,18.6175,3.49824,0.175,7972
-6.59741e-07,-2.1944e-07,-1.69969e-06,-0.00022175,-7.08849e-05,-0.00227173,12.3689,22.1674,-1.30292,12.1869,22.6199,12.3674,-1.75388,21.1968,213,18.6175,16.0018,0.175,7973
-9.74335e-08,1.03324e-07,-1.67205e-06,-4.09811e-05,-4.11918e-05,-0.0022551,30.2445,30.2376,-0.00752827,15.1897,30.3625,30.1289,-0.0168366,30.2632,213,13.12,6.9075,0.175,7974
-2.36862e-07,1.03124e-07,-1.66685e-06,-8.12637e-05,-4.12793e-05,-0.00174311,26.545,29.986,0.0413106,15.0079,30.0285,26.5312,0.0126512,28.429,213,15.4794,6.80482,0.175,7975
1.00556e-07,-1.59375e-07,-1.6697e-06,-4.20793e-05,-5.76865e-05,-0.0019625,30.28,29.0737,0.0379872,15.1561,30.3373,29.0293,0.0250809,29.6798,213,6.80278,14.9971,0.175,7976
9.94833e-08,2.49291e-07,-1.66678e-06,-4.14429e-05,-8.57728e-05,-0.00212062,29.2146,26.0964,0.000433264,14.642,29.2556,26.0842,-0.028405,27.8342,213,6.80389,4.50122,0.175,7977
2.36085e-07,-5.93934e-08,-1.66886e-06,-8.19308e-05,-2.98594e-05,-0.00226714,26.7825,30.143,-0.00786719,15.1014,30.1704,26.7797,-0.0324873,28.6584,213,4.68514,12.7039,0.175,7978
6.62813e-07,-4.81366e-07,-1.70595e-06,-0.000226571,-0.000131174,-0.00204919,5.86407,13.3566,-4.85116,10.2792,14.3243,6.2792,-6.23401,17.9437,213,1.04179,18.3806,0.175,7979
6.84842e-07,6.80741e-07,-1.72666e-06,-0.00021376,-0.000206554,-0.00194899,5.57959,6.08015,-3.02866,8.01913,9.44445,5.78044,-6.59381,14.5563,213,1.04179,1.1194,0.175,7980
-1.15676e-07,-1.75431e-07,-1.66832e-06,-4.68228e-05,-6.24433e-05,-0.00213033,29.3624,28.2734,0.0658401,14.695,29.4402,28.2114,0.0500964,28.7953,213,13.674,15.2776,0.175,7981
7.87562e-07,7.88861e-07,-1.56427e-06,-0.000212952,-0.000208405,-0.0021121,9.1537,9.58315,-0.885699,8.01239,12.177,9.52202,-3.84782,14.8761,213,0.545897,0.634698,0.175,7982
5.85631e-07,7.89986e-07,-1.66154e-06,-0.000182237,-0.000232766,-0.00188355,10.3684,6.40292,1.88892,8.08048,13.686,7.44916,-2.47494,14.1167,213,1.5459,0.634698,0.175,7983
8.07362e-07,5.96643e-07,-1.64506e-06,-0.000237839,-0.000181743,-0.00215219,6.98629,10.9727,-1.73123,8.45087,12.6033,7.92289,-4.29844,15.1152,213,0.545897,1.5947,0.175,7984
-5.04203e-07,6.92758e-07,-1.72129e-06,-0.00016344,-0.000214182,-0.00190943,12.0322,8.06668,-0.848935,8.26369,13.8915,7.99441,-2.63592,14.5075,213,18.0929,1.10616,0.175,7985
-6.92452e-07,6.83454e-07,-1.71188e-06,-0.000205217,-0.000199429,-0.00248927,12.8374,13.1468,-1.92609,9.01673,14.6024,12.8867,-3.43101,17.2397,213,19.0929,1.10616,0.175,7986
-7.12514e-07,5.06719e-07,-1.71158e-06,-0.000221657,-0.000162596,-0.00166954,5.10093,10.3641,-0.34005,7.4711,12.4185,5.23014,-2.52368,12.9434,213,19.0929,2.06616,0.175,7987
-7.2232e-07,-3.60943e-07,-1.69474e-06,-0.000231686,-0.000116797,-0.00167215,5.42334,15.5747,-0.516978,9.24697,16.7286,5.5179,-1.76538,16.1361,213,19.0929,17.4338,0.175,7988
-6.71597e-07,-4.84297e-07,-1.70681e-06,-0.000216586,-0.000139595,-0.00258777,12.4781,16.7043,-3.58552,11.0138,17.4415,12.7414,-4.58602,20.0941,213,19.0929,18.3938,0.175,7989
-4.74718e-07,-4.65482e-07,-1.72738e-06,-0.000168449,-0.000148131,-0.00196659,12.8916,14.4336,-2.21751,9.85079,16.5394,11.7305,-3.1622,17.7914,213,18.0929,18.3938,0.175,7990
5.30014e-07,-5.39718e-07,-1.70506e-06,-0.00018772,-0.00016355,-0.00195551,10.713,12.4616,-0.849911,10.0741,16.1281,10.2166,-4.02003,17.9384,213,1.5459,18.8653,0.175,7991
7.40389e-07,-5.80191e-07,-1.61482e-06,-0.00022759,-0.000161627,-0.00221174,8.11798,12.5168,-2.99813,10.5561,14.7032,9.34241,-6.40897,19.0075,213,0.545897,18.8653,0.175,7992
8.14007e-07,-4.4147e-07,-1.61649e-06,-0.000251672,-0.000134011,-0.00220015,6.68444,14.7936,-2.52593,9.77497,15.7278,7.04652,-3.82218,16.966,213,0.545897,17.9053,0.175,7993
3.87907e-07,7.49549e-07,-1.6652e-06,-0.000124525,-0.000231424,-0.00224015,17.4031,10.607,-1.11558,10.2103,18.3044,10.7062,-2.1161,17.8766,213,2.82476,0.943071,0.175,7994
2.80417e-07,7.72459e-07,-1.65787e-06,-9.1028e-05,-0.000239121,-0.00223646,20.3533,10.965,-0.777697,11.3845,21.1632,10.9833,-1.60586,19.7553,213,3.82476,0.943071,0.175,7995
5.00574e-07,6.86708e-07,-1.72051e-06,-0.000161263,-0.000213257,-0.00190131,12.3291,8.33857,-0.55533,8.21147,14.1372,8.26093,-2.28576,14.4131,213,2.03359,1.12879,0.175,7996
3.91568e-07,5.48199e-07,-1.70131e-06,-0.000133895,-0.000179531,-0.00155533,14.6164,10.4325,-0.610395,8.47039,15.6254,10.1284,-1.31535,14.9694,213,2.80835,1.92186,0.175,7997
5.93202e-07,5.86419e-07,-1.75447e-06,-0.000190415,-0.000182196,-0.00187066,10.1121,10.7463,-0.872147,7.76485,13.0155,9.485,-2.51423,14.1,213,1.52949,1.61349,0.175,7998
2.11184e-07,7.40658e-07,-1.6918e-06,-7.14145e-05,-0.000230998,-0.00193155,21.0675,8.77964,-1.65662,12.0578,21.7492,8.80771,-2.36642,20.9035,213,4.65833,1.13364,0.175,7999
1.49386e-07,7.53008e-07,-1.69244e-06,-5.27306e-05,-0.000235236,-0.00168941,22.749,6.85879,-1.34263,12.5145,23.2045,6.88504,-1.8244,22.0071,213,5.65833,1.13364,0.175,8000
2.27262e-07,5.71657e-07,-1.71286e-06,-7.7661e-05,-0.000189246,-0.00197128,21.6896,13.1619,-1.56915,12.0565,22.1426,13.1101,-1.97039,21.1003,213,4.4331,1.92671,0.175,8001
1.05236e-07,8.30949e-07,-1.65533e-06,-4.15529e-05,-0.000251036,-0.00189516,24.3182,8.17091,-0.185208,12.9562,25.0187,8.17891,-0.89375,22.7744,213,6.6231,0.870879,0.175,8002
6.84464e-08,8.37027e-07,-1.65541e-06,-3.25443e-05,-0.000252765,-0.00217795,24.9238,10.1445,-1.15719,13.7046,25.5846,10.1511,-1.82458,23.7999,213,7.6231,0.870879,0.175,8003
1.20181e-07,6.05577e-07,-1.70591e-06,-4.71827e-05,-0.000198773,-0.00197784,25.0734,13.3561,-0.437558,13.1181,25.4301,13.3681,-0.806166,22.7458,213,6.23143,1.85451,0.175,8004
3.44279e-08,7.48468e-07,-1.7056e-06,-2.73941e-05,-0.000233606,-0.00194469,26.0055,10.1224,-0.984607,13.9704,26.4809,10.1223,-1.4599,24.315,213,8.70211,1.2564,0.175,8005
8.61351e-09,7.49883e-07,-1.7049e-06,-2.49255e-05,-0.000235372,-0.00194615,26.004,9.77541,-1.54717,14.2676,26.496,9.77537,-2.03915,24.8336,213,9.70211,1.2564,0.175,8006
4.60808e-08,5.93097e-07,-1.71458e-06,-2.88751e-05,-0.000195078,-0.00191545,27.7021,14.8764,0.564889,13.9116,28.0452,14.8761,0.222089,24.107,213,8.27521,1.97728,0.175,8007
-1.80245e-08,8.176e-07,-1.668e-06,-2.58994e-05,-0.00025286,-0.00191515,25.8293,8.34447,-0.473768,13.7045,26.3802,8.34866,-1.02884,24.1281,213,10.7482,0.972354,0.175,8008
-4.54313e-08,8.16625e-07,-1.67184e-06,-2.88653e-05,-0.000248468,-0.00193303,25.6536,8.73343,-0.306006,13.5919,26.2651,8.73467,-0.91877,23.8691,213,11.7482,0.972354,0.175,8009
-8.04586e-09,5.7754e-07,-1.70664e-06,-2.50273e-05,-0.000187462,-0.00235377,27.0552,16.8064,-1.5469,14.5527,27.3068,16.8064,-1.79851,25.5296,213,10.4003,2.07876,0.175,8010
-7.13326e-08,8.52429e-07,-1.64428e-06,-3.37095e-05,-0.000255075,-0.0021717,24.8481,9.98663,-0.935402,13.5884,25.5376,10.0011,-1.63933,23.6164,213,12.5553,0.809755,0.175,8011
-1.08863e-07,8.45887e-07,-1.64836e-06,-4.23154e-05,-0.000254114,-0.00189958,24.0077,7.67283,-0.49874,12.9658,24.7142,7.68501,-1.21744,22.8221,213,13.5553,0.809755,0.175,8012
-5.83856e-08,6.63059e-07,-1.71005e-06,-3.14532e-05,-0.000213911,-0.00191293,26.4551,12.375,-0.435872,13.9982,27.008,12.3746,-0.988392,24.2539,213,12.2536,1.63211,0.175,8013
-1.50396e-07,7.49294e-07,-1.69936e-06,-5.27947e-05,-0.000234775,-0.00169243,22.6189,6.77209,-1.70794,12.628,23.0734,6.79208,-2.18247,22.1753,213,14.4651,1.14731,0.175,8014
-2.12691e-07,7.37331e-07,-1.69472e-06,-7.2154e-05,-0.000230315,-0.001937,21.0592,8.88678,-1.4977,11.996,21.7645,8.91126,-2.22745,20.7953,213,15.4651,1.14731,0.175,8015
-1.252e-07,6.14003e-07,-1.71292e-06,-4.81169e-05,-0.000200659,-0.00255187,24.9584,16.752,-1.28011,13.5365,25.3728,16.7576,-1.70014,23.9568,213,13.9705,1.80706,0.175,8016
-2.80171e-07,7.69777e-07,-1.66216e-06,-9.05886e-05,-0.000237769,-0.00248491,21.1058,13.1592,-1.01016,11.8299,21.8682,13.1782,-1.79161,20.7292,213,16.2727,0.95391,0.175,8017
-3.86908e-07,7.46237e-07,-1.67284e-06,-0.000124091,-0.000228288,-0.00226221,17.2828,10.6962,-1.63593,10.3886,18.1738,10.7727,-2.60346,18.24,213,17.2727,0.95391,0.175,8018
-2.28716e-07,5.67083e-07,-1.70876e-06,-7.81592e-05,-0.000187904,-0.00190265,22.1308,13.6619,-0.675458,11.8748,22.6265,13.614,-1.12322,20.766,213,15.6878,1.95122,0.175,8019
-3.93755e-07,5.49757e-07,-1.69879e-06,-0.000133722,-0.00018168,-0.00188969,16.2708,12.5699,-0.804122,9.38805,17.2702,12.2723,-1.5059,16.8428,213,17.3156,1.91007,0.175,8020
-7.89913e-07,4.07177e-07,-1.63817e-06,-0.000236868,-0.000130496,-0.00247481,12.1885,17.9384,-1.42501,10.5756,18.7515,12.35,-2.39966,18.787,213,19.3337,2.78412,0.175,8021
-8.13867e-07,2.9946e-07,-1.61966e-06,-0.000247664,-9.39726e-05,-0.00196749,5.63257,17.5286,-2.91973,11.0835,18.3427,5.72299,-3.82428,19.2586,213,19.3337,3.74412,0.175,8022
-5.8095e-07,4.01179e-07,-1.70984e-06,-0.000196682,-0.000132416,-0.00185956,11.3071,16.3207,0.0660276,9.01579,17.2802,11.1651,-0.751424,15.8829,213,18.3766,2.78028,0.175,8023
-7.78702e-07,2.30436e-07,-1.65798e-06,-0.000241276,-7.61116e-05,-0.0025605,12.6327,21.5353,-2.16633,12.5537,22.2195,12.6701,-2.88798,21.9503,213,19.1345,4.52064,0.175,8024
-7.94105e-07,1.67036e-07,-1.65762e-06,-0.000244918,-5.61322e-05,-0.00221258,10.0015,22.6623,-1.55746,12.8948,23.4449,10.0062,-2.34472,22.3411,213,19.1345,5.48064,0.175,8025
-6.17639e-07,2.4532e-07,-1.71046e-06,-0.000205403,-8.17836e-05,-0.00185968,12.0395,21.6476,0.362158,11.1022,22.1097,12.0343,-0.0947805,19.257,213,18.4183,4.27476,0.175,8026
-8.68567e-07,1.22208e-07,-1.62423e-06,-0.000258827,-4.5386e-05,-0.00228828,10.1067,23.657,-1.11338,13.2996,24.5639,10.1218,-2.03537,23.064,213,19.3773,6.40311,0.175,8027
-8.76808e-07,8.39189e-08,-1.6286e-06,-0.000261364,-3.50577e-05,-0.00214124,9.83344,25.0768,0.392472,13.3762,26.1079,9.83927,-0.64448,23.3481,213,19.3773,7.36311,0.175,8028
-6.46316e-07,1.37697e-07,-1.70337e-06,-0.000214466,-5.12149e-05,-0.00218455,15.0218,25.3397,1.01722,12.6009,25.7635,15.0536,0.56169,21.9071,213,18.4618,5.97375,0.175,8029
-7.85376e-07,4.8702e-08,-1.6758e-06,-0.000245012,-2.79712e-05,-0.00224323,12.8165,26.5435,1.1219,13.3032,27.1332,12.8218,0.526846,23.0639,213,18.9943,8.41091,0.175,8030
-7.89755e-07,2.25257e-08,-1.66953e-06,-0.000250315,-2.5166e-05,-0.00191774,9.17888,26.5766,1.09929,13.4565,27.2944,9.17893,0.38141,23.7685,213,18.9943,9.37091,0.175,8031
-6.27933e-07,5.94489e-08,-1.70912e-06,-0.000212239,-2.99827e-05,-0.00226406,14.9036,26.4756,-0.618267,13.9049,26.8343,14.9021,-0.975484,24.1646,213,18.3216,7.94402,0.175,8032
-8.53989e-07,-2.98416e-09,-1.6265e-06,-0.000262897,-2.4405e-05,-0.00248824,13.1136,25.9743,-0.00750109,13.5181,26.5018,13.113,-0.534333,23.4143,213,19.2501,10.4374,0.175,8033
-8.49815e-07,-2.784e-08,-1.64197e-06,-0.000261126,-2.55414e-05,-0.00217801,9.34765,25.1655,-1.6937,14.1264,25.8499,9.37238,-2.40282,24.5803,213,19.2501,11.3974,0.175,8034
-6.10634e-07,6.53632e-09,-1.71324e-06,-0.000199446,-2.3519e-05,-0.00223629,16.754,27.8938,0.499386,14.0221,28.2183,16.7547,0.174119,24.4214,213,18.1943,10.0583,0.175,8035
-8.95074e-07,-4.94732e-08,-1.62452e-06,-0.000265372,-2.72467e-05,-0.00227261,10.022,25.1253,-1.05454,13.9975,26.0303,10.0273,-1.96481,24.3273,213,19.4232,12.1715,0.175,8036
-8.9044e-07,-8.09246e-08,-1.61888e-06,-0.000263563,-3.73085e-05,-0.00193426,6.16993,23.7876,-1.65006,13.4446,24.509,6.17871,-2.38027,23.7938,213,19.4232,13.1315,0.175,8037
-6.9726e-07,-3.80446e-08,-1.70798e-06,-0.000227495,-2.78032e-05,-0.0019015,11.1448,26.6151,0.0614121,13.709,27.0466,11.1462,-0.371487,23.8457,213,18.6233,11.8989,0.175,8038
-8.10458e-07,-1.13314e-07,-1.66819e-06,-0.000249828,-4.25711e-05,-0.00251818,13.3164,24.5022,-0.876992,13.3986,25.2105,13.3178,-1.58669,23.2559,213,19.1406,14.0133,0.175,8039
-7.98249e-07,-1.6091e-07,-1.66202e-06,-0.000244691,-5.59702e-05,-0.00255717,12.8214,22.987,-2.1748,13.3199,23.7193,12.8348,-2.92048,23.1989,213,19.1406,14.9733,0.175,8040
-6.67893e-07,-9.14239e-08,-1.70372e-06,-0.000218138,-3.84393e-05,-0.00222571,14.5485,25.9165,0.0322784,13.5011,26.465,14.5694,-0.537111,23.4396,213,18.5138,13.5548,0.175,8041
-8.34944e-07,-2.13811e-07,-1.62569e-06,-0.000253781,-6.91652e-05,-0.00196003,6.10063,20.3402,-2.04692,12.1008,21.2282,6.13922,-2.97351,21.1712,213,19.3337,15.7559,0.175,8042
-8.09977e-07,-2.9424e-07,-1.63e-06,-0.000247885,-9.74082e-05,-0.0024911,12.0629,20.1985,-1.40287,11.6671,21.0079,12.1769,-2.32625,20.406,213,19.3337,16.7159,0.175,8043
-6.3311e-07,-1.66911e-07,-1.70784e-06,-0.000211254,-5.76913e-05,-0.00187402,12.1121,23.9916,0.16341,12.2615,24.3376,12.115,-0.185459,21.2376,213,18.4243,15.2191,0.175,8044
-5.92112e-07,-2.75571e-07,-1.70799e-06,-0.000202565,-9.07098e-05,-0.0018838,11.7992,20.4601,-0.378584,10.8867,20.9292,11.7958,-0.844271,18.9377,213,18.3766,16.7197,0.175,8045
-3.4881e-07,-4.93362e-07,-1.69942e-06,-0.000122405,-0.000162461,-0.00233532,18.691,16.2025,-2.44691,11.6021,20.0408,15.5691,-3.16331,21.3229,213,17.2727,18.5461,0.175,8046
-2.44878e-07,-5.03317e-07,-1.69152e-06,-8.70057e-05,-0.000166961,-0.00224037,21.6804,16.2933,-2.10018,12.5751,22.4943,16.0352,-2.65593,22.6231,213,16.2727,18.5461,0.175,8047
-3.8738e-07,-3.63584e-07,-1.70156e-06,-0.000139386,-0.000116048,-0.00189304,17.9217,19.7227,-0.249922,10.565,20.6175,17.2895,-0.512512,19.6782,213,17.3156,17.5899,0.175,8048
-1.82065e-07,-4.72171e-07,-1.70181e-06,-6.57645e-05,-0.000160415,-0.00235893,23.8946,17.9351,-2.154,13.3871,24.3211,17.8078,-2.4532,24.1846,213,15.3755,18.2739,0.175,8049
-1.25796e-07,-4.82077e-07,-1.70685e-06,-4.74842e-05,-0.000163086,-0.00200154,25.6175,16.7218,-1.7936,14.0496,25.9951,16.6547,-2.10415,24.7862,213,14.3755,18.2739,0.175,8050
-2.1284e-07,-3.61902e-07,-1.68673e-06,-7.84834e-05,-0.000116778,-0.00191911,24.5076,21.5524,-0.119484,12.6529,24.989,21.2684,-0.316845,23.6659,213,15.5982,17.47,0.175,8051
-8.64692e-08,-5.57516e-07,-1.69008e-06,-3.4476e-05,-0.000184533,-0.00200149,26.0458,14.537,-2.56176,15.2924,27.0537,14.4985,-3.53117,26.6283,213,13.5231,18.6738,0.175,8052
-5.56189e-08,-5.64249e-07,-1.68742e-06,-2.80159e-05,-0.000187576,-0.0020353,26.3475,13.9931,-3.16141,15.4601,27.055,13.9893,-3.86513,26.8845,213,12.5231,18.6738,0.175,8053
-1.08703e-07,-3.92013e-07,-1.69744e-06,-4.44616e-05,-0.00013236,-0.00203977,27.0523,20.5183,-1.48842,14.323,27.1447,20.4387,-1.50124,25.9511,213,13.8486,17.5976,0.175,8054
-1.41822e-08,-5.44208e-07,-1.69253e-06,-2.0976e-05,-0.000180395,-0.00227756,27.2671,16.5457,-2.62316,15.3257,27.6477,16.5456,-3.00375,26.8789,213,10.7401,18.5268,0.175,8055
-3.6287e-08,-5.42962e-07,-1.69335e-06,-2.32235e-05,-0.000180401,-0.0020236,27.3942,15.2748,-2.48319,15.4388,27.8973,15.2688,-2.9803,26.888,213,11.7401,18.5268,0.175,8056
-5.03726e-08,-4.36907e-07,-1.69891e-06,-2.7654e-05,-0.000137498,-0.00193359,29.3468,20.8703,-0.117174,14.9234,29.542,20.8627,-0.30477,26.5916,213,12.2132,17.8506,0.175,8057
6.96623e-09,-4.96334e-07,-1.70316e-06,-2.04932e-05,-0.000166028,-0.00201261,28.2508,17.0355,-2.28246,15.5015,28.4857,17.0355,-2.51737,27.1534,213,9.71687,18.2415,0.175,8058
2.8115e-08,-4.95138e-07,-1.70345e-06,-2.25802e-05,-0.000165486,-0.00198956,28.1867,17.2066,-2.02678,15.3349,28.4173,17.2016,-2.25246,26.8783,213,8.71687,18.2415,0.175,8059
-8.07826e-09,-3.81713e-07,-1.69262e-06,-2.28299e-05,-0.000122599,-0.00227933,29.7153,23.4662,0.019751,14.958,29.8255,23.4662,-0.0904899,27.2977,213,10.407,17.4183,0.175,8060
5.45117e-08,-5.5609e-07,-1.68828e-06,-2.75212e-05,-0.000184477,-0.0020241,26.5754,14.5266,-3.15827,15.5983,27.3083,14.5236,-3.88825,27.1632,213,7.62606,18.6287,0.175,8061
8.4989e-08,-5.50955e-07,-1.68906e-06,-3.42027e-05,-0.000182437,-0.00202261,26.0577,14.6532,-2.68561,15.0395,26.7459,14.6124,-3.33302,26.2107,213,6.62606,18.6287,0.175,8062
4.1065e-08,-3.91596e-07,-1.69667e-06,-2.68799e-05,-0.000130507,-0.00239062,28.401,22.1341,-1.53233,14.9706,28.4077,22.1286,-1.53358,27.3478,213,8.29293,17.5201,0.175,8063
1.27612e-07,-4.95925e-07,-1.70112e-06,-4.81248e-05,-0.000167138,-0.00201634,25.0447,15.8604,-2.76539,14.2758,25.4462,15.7989,-3.10534,25.1558,213,5.65834,18.3664,0.175,8064
1.8461e-07,-4.85809e-07,-1.69735e-06,-6.64434e-05,-0.0001646,-0.00225257,23.4988,16.9607,-2.47118,13.4638,24.047,16.8219,-2.88062,24.1401,213,4.65834,18.3664,0.175,8065
1.09426e-07,-3.97311e-07,-1.69737e-06,-4.43307e-05,-0.000129759,-0.00158609,28.1663,20.3531,0.286187,14.1119,28.3818,20.2658,0.157995,25.1672,213,6.2344,17.645,0.175,8066
2.44519e-07,-5.05981e-07,-1.69004e-06,-8.74164e-05,-0.0001681,-0.00233643,21.9176,16.7949,-1.95812,12.7336,22.8214,16.5787,-2.6457,22.9905,213,3.82476,18.5569,0.175,8067
3.483e-07,-4.95178e-07,-1.69908e-06,-0.000122321,-0.00016316,-0.00234005,18.6208,16.1003,-2.55789,11.6186,19.9755,15.4495,-3.26179,21.3374,213,2.82476,18.5569,0.175,8068
2.16512e-07,-3.74046e-07,-1.69127e-06,-7.92446e-05,-0.000121086,-0.00192036,24.2222,21.0546,-0.354884,12.5832,24.6608,20.7667,-0.505588,23.463,213,4.4331,17.5733,0.175,8069
3.84724e-07,-3.62913e-07,-1.70262e-06,-0.000139007,-0.000117341,-0.00189201,17.9784,19.6422,-0.129145,10.4778,20.5681,17.3108,-0.387445,19.5317,213,2.80835,17.5781,0.175,8070
4.71535e-07,-4.62591e-07,-1.72802e-06,-0.000165019,-0.000147371,-0.00196821,13.1773,14.5729,-2.29118,9.81939,16.5969,11.9039,-3.04185,17.7635,213,2.03359,18.3712,0.175,8071
5.88448e-07,-4.03383e-07,-1.74004e-06,-0.000202701,-0.000117345,-0.00185161,11.3561,17.943,0.445623,9.74656,18.8942,11.4494,-0.598904,17.0377,213,1.52949,17.8865,0.175,8072
8.07497e-07,-2.91165e-07,-1.63145e-06,-0.000248116,-9.65616e-05,-0.0025021,11.9617,20.1692,-1.58072,11.6979,20.9437,12.0587,-2.45213,20.4557,213,0.779009,16.6797,0.175,8073
8.3166e-07,-2.11324e-07,-1.62589e-06,-0.000253178,-6.90815e-05,-0.00194219,6.31561,20.5303,-1.77343,12.0869,21.44,6.36633,-2.73385,21.1471,213,0.779009,15.7197,0.175,8074
7.15397e-07,-3.5874e-07,-1.69144e-06,-0.000230908,-0.00011623,-0.0015657,4.76323,15.252,-0.0301978,8.95804,16.4224,5.05625,-1.49365,15.7016,213,1.03359,17.4112,0.175,8075
5.86277e-07,-2.70735e-07,-1.70739e-06,-0.000198975,-8.98376e-05,-0.00187726,12.3295,20.7766,-0.128259,10.9068,21.2276,12.3363,-0.586042,18.9984,213,1.7626,16.6609,0.175,8076
7.92582e-07,-1.59465e-07,-1.66558e-06,-0.00024419,-5.56344e-05,-0.00229466,11.1325,23.0397,-1.29252,12.9222,23.7937,11.1366,-2.05062,22.3834,213,0.982182,14.9592,0.175,8077
8.04573e-07,-1.12963e-07,-1.67618e-06,-0.000247686,-4.26807e-05,-0.00228691,11.4287,24.3954,-0.613817,13.2024,25.0926,11.4297,-1.31208,22.8718,213,0.982182,13.9992,0.175,8078
6.25539e-07,-1.6394e-07,-1.70535e-06,-0.000208653,-5.6938e-05,-0.00200152,11.2953,22.9921,-2.20646,12.8925,23.286,11.294,-2.49905,22.3486,213,1.71119,15.1689,0.175,8079
8.78101e-07,-8.02927e-08,-1.63474e-06,-0.000259956,-3.62747e-05,-0.00192889,6.46669,23.8642,-1.93727,13.6922,24.6553,6.46755,-2.72919,24.1379,213,0.72691,13.1293,0.175,8080
8.83182e-07,-4.9465e-08,-1.63643e-06,-0.000262286,-2.7943e-05,-0.00228541,10.2007,25.0698,-1.20329,13.9527,25.8844,10.2038,-2.021,24.2285,213,0.72691,12.1693,0.175,8081
6.52463e-07,-9.00127e-08,-1.70699e-06,-0.000214379,-3.81278e-05,-0.00232011,14.2965,25.4269,-1.11348,13.8158,25.9634,14.3147,-1.6682,24.0276,213,1.65909,13.5385,0.175,8082
7.94842e-07,-2.48463e-08,-1.68835e-06,-0.000247253,-2.51488e-05,-0.00219857,10.8447,25.7656,-1.10225,14.1947,26.5236,10.8502,-1.86572,24.6303,213,1.06733,11.318,0.175,8083
7.98324e-07,-7.36507e-10,-1.68112e-06,-0.000248773,-2.38497e-05,-0.00249074,13.8618,25.9933,-0.909261,14.0282,26.5704,13.8615,-1.48608,24.3334,213,1.06733,10.358,0.175,8084
6.41063e-07,-3.53743e-08,-1.71523e-06,-0.000209108,-2.70383e-05,-0.00156057,10.8893,27.496,0.213691,14.0686,27.9221,10.8919,-0.215027,24.5468,213,1.74424,11.8173,0.175,8085
7.97004e-07,2.44385e-08,-1.68187e-06,-0.000250052,-2.51274e-05,-0.00190642,9.43953,26.819,1.64106,13.3717,27.6018,9.43956,0.858268,23.6508,213,1.07029,9.29181,0.175,8086
7.94092e-07,5.08939e-08,-1.68462e-06,-0.00024453,-2.85559e-05,-0.00225507,12.9378,26.6054,1.46119,13.2312,27.2626,12.9417,0.800097,22.9431,213,1.07029,8.33181,0.175,8087
5.7605e-07,1.00226e-08,-1.70722e-06,-0.000184757,-2.34095e-05,-0.00227875,17.5866,27.831,-0.431843,14.4013,28.1007,17.5869,-0.701816,25.2448,213,2.08761,9.89979,0.175,8088
8.79136e-07,8.39184e-08,-1.63121e-06,-0.000261124,-3.54547e-05,-0.0021534,9.67905,24.8872,0.02097,13.4317,25.8843,9.68195,-0.979025,23.4287,213,0.717496,7.35805,0.175,8089
8.70327e-07,1.21951e-07,-1.62819e-06,-0.000259749,-4.50716e-05,-0.00219967,8.90755,23.3823,-1.33366,13.281,24.2975,8.9232,-2.26455,23.0985,213,0.717496,6.39805,0.175,8090
6.38459e-07,6.20016e-08,-1.71226e-06,-0.000213656,-3.07007e-05,-0.00158672,9.88784,26.5592,-0.472383,13.9303,26.972,9.89116,-0.888514,24.3328,213,1.73778,7.85985,0.175,8091
7.87557e-07,1.66591e-07,-1.66566e-06,-0.000242775,-5.60553e-05,-0.00233594,10.7694,22.5623,-2.3266,13.1227,23.236,10.7787,-3.00953,22.739,213,0.991717,5.48705,0.175,8092
7.72798e-07,2.30219e-07,-1.66325e-06,-0.000239168,-7.61297e-05,-0.00231771,10.9353,21.2384,-1.50015,12.1305,21.9788,10.9769,-2.28216,21.0409,213,0.991717,4.52705,0.175,8093
6.42197e-07,1.37799e-07,-1.70889e-06,-0.000213662,-5.12739e-05,-0.00151927,9.68867,24.5192,0.774435,12.3277,24.9443,9.74898,0.288987,21.5439,213,1.65921,5.97509,0.175,8094
8.12266e-07,2.96194e-07,-1.62254e-06,-0.000248374,-9.2947e-05,-0.00220931,8.15508,18.6287,-2.81176,11.5804,19.4556,8.22152,-3.70512,20.0608,213,0.779009,3.78026,0.175,8095
7.88551e-07,4.0311e-07,-1.63626e-06,-0.000240161,-0.000128906,-0.00246687,12.0631,18.0964,-1.19164,10.5328,18.9096,12.2142,-2.15592,18.6425,213,0.779009,2.82026,0.175,8096
6.10126e-07,2.41777e-07,-1.7115e-06,-0.000203429,-8.02734e-05,-0.00187151,12.1867,21.7559,0.115288,11.2452,22.1902,12.1679,-0.300257,19.5157,213,1.72073,4.31731,0.175,8097
5.74963e-07,3.94129e-07,-1.70302e-06,-0.000192751,-0.000132583,-0.00186372,11.7707,16.459,0.165502,8.9536,17.338,11.6264,-0.569183,15.8433,213,1.7626,2.83905,0.175,8098
7.04819e-07,5.03547e-07,-1.70683e-06,-0.000220768,-0.000160592,-0.00156163,4.66822,10.1859,0.575264,7.08304,12.3717,4.85216,-1.79443,12.2759,213,1.03359,2.08879,0.175,8099
-3.80368e-08,2.54978e-08,-1.67269e-06,-3.09689e-05,-2.53062e-05,-0.00198438,32.4468,32.8838,-0.0111664,16.4486,32.8851,32.4465,-0.0121609,32.6802,213,11.3771,9.36658,0.175,8100
-4.06235e-08,4.80245e-08,-1.67275e-06,-3.10858e-05,-2.88088e-05,-0.00232277,31.2982,31.4431,-0.0247986,15.7391,31.4517,31.2914,-0.0265645,31.3984,213,11.4707,8.53582,0.175,8101
-1.17789e-08,3.66531e-08,-1.67285e-06,-2.7191e-05,-2.77475e-05,-0.00164604,33.871,33.826,-0.0188181,16.9458,33.8723,33.8253,-0.0193408,33.8681,213,10.4836,8.94846,0.175,8102
-2.63199e-08,1.90413e-09,-1.67283e-06,-2.91024e-05,-2.47865e-05,-0.00164665,33.7222,34.1171,-0.0648252,17.0912,34.1174,33.7221,-0.0650416,33.9865,213,10.9822,10.3103,0.175,8103
-5.68567e-08,1.20702e-08,-1.67263e-06,-3.29154e-05,-2.50947e-05,-0.00232366,31.2249,31.7244,-0.019378,15.8733,31.7257,31.225,-0.0207739,31.4991,213,11.9693,9.89765,0.175,8104
1.07956e-08,2.88999e-08,-1.67289e-06,-2.81536e-05,-2.63085e-05,-0.00198537,32.7171,32.8595,-0.0159967,16.4381,32.8597,32.7172,-0.0163819,32.8051,213,9.65764,9.23439,0.175,8105
4.0073e-08,1.72854e-08,-1.67295e-06,-3.02064e-05,-2.55563e-05,-0.00198506,32.518,32.8802,-0.00543206,16.4437,32.8811,32.518,-0.00632675,32.7074,213,8.66016,9.68231,0.175,8106
1.8394e-08,3.81545e-09,-1.67295e-06,-2.88393e-05,-2.44172e-05,-0.00164649,33.7927,34.1927,-0.00918309,17.1011,34.1929,33.7927,-0.00934286,34.0039,213,9.3925,10.2271,0.175,8107
2.33616e-08,-1.77158e-08,-1.67302e-06,-2.91401e-05,-2.48999e-05,-0.00232556,31.5677,31.8364,-0.0294424,15.9333,31.8368,31.5678,-0.0298767,31.733,213,9.22386,11.0991,0.175,8108
-4.94287e-09,-6.61915e-09,-1.67291e-06,-2.74757e-05,-2.49941e-05,-0.00164709,33.9294,34.1588,-0.0378627,17.0984,34.1588,33.9295,-0.0379767,34.0827,213,10.2213,10.6512,0.175,8109
8.19404e-09,5.22676e-08,-1.67284e-06,-2.7939e-05,-2.96374e-05,-0.00222695,31.858,31.7425,-0.0392584,15.9502,31.8599,31.7418,-0.0404828,31.8415,213,9.75127,8.40363,0.175,8110
-2.15273e-08,-1.98557e-08,-1.67288e-06,-2.87097e-05,-2.48775e-05,-0.00232567,31.6046,31.8499,-0.0345809,15.9431,31.851,31.6042,-0.0352156,31.7635,213,10.8135,11.1823,0.175,8111
1.10805e-07,1.15132e-07,-1.67217e-06,-4.54837e-05,-4.51269e-05,-0.0019707,30.2586,30.2862,-0.0575582,15.2515,30.4335,30.1232,-0.069466,30.349,213,6.66003,6.61957,0.175,8112
6.4595e-08,1.2718e-07,-1.67246e-06,-3.35266e-05,-4.9756e-05,-0.00197382,31.3974,30.1499,-0.0574206,15.7409,31.4158,30.1401,-0.0660697,30.8638,213,7.82566,6.40337,0.175,8113
9.22915e-08,1.63437e-07,-1.67161e-06,-4.13292e-05,-5.90027e-05,-0.00162723,30.9117,29.2956,-0.148044,15.5575,30.9513,29.2718,-0.163797,30.3102,213,7.0492,5.70753,0.175,8114
7.32939e-08,2.11908e-07,-1.6694e-06,-3.57831e-05,-7.3948e-05,-0.0021992,29.9627,27.4029,0.00231416,15.0038,29.9896,27.3962,-0.0179399,28.7986,213,7.50936,4.99628,0.175,8115
1.22349e-07,1.93168e-07,-1.66984e-06,-4.80048e-05,-6.93367e-05,-0.00229444,28.8501,27.4972,0.130077,14.3954,28.8971,27.474,0.106332,28.1062,213,6.34373,5.21247,0.175,8116
1.65595e-07,9.74354e-08,-1.67064e-06,-6.0632e-05,-4.09886e-05,-0.001625,29.1975,30.9933,0.0963335,15.476,31.0323,29.1746,0.0802513,30.0663,213,5.64436,6.98767,0.175,8117
1.24143e-07,7.29016e-08,-1.67225e-06,-5.03734e-05,-3.36882e-05,-0.00197318,30.0742,31.3529,-0.0754756,15.7274,31.3712,30.0641,-0.0836552,30.8221,213,6.42082,7.68352,0.175,8118
1.91854e-07,1.25167e-07,-1.6693e-06,-6.9428e-05,-4.76839e-05,-0.00195696,27.6133,29.2917,-0.0434317,14.71,29.3508,27.5798,-0.0690972,28.5756,213,5.20577,6.33942,0.175,8119
2.12807e-07,8.03973e-08,-1.66791e-06,-7.4367e-05,-3.57179e-05,-0.00229669,27.3075,29.7445,-0.0453944,14.9201,29.7722,27.3024,-0.0679839,28.6851,213,4.96655,7.40337,0.175,8120
1.5906e-07,2.0503e-07,-1.66951e-06,-5.76113e-05,-7.30862e-05,-0.00195217,28.0592,26.8769,-0.116267,14.1561,28.1635,26.8051,-0.148744,27.6581,213,5.64213,5.00431,0.175,8121
2.25769e-07,2.22741e-07,-1.66699e-06,-8.04418e-05,-7.74875e-05,-0.0019368,25.5846,25.8144,0.107824,13.0743,26.207,25.2415,0.0583996,25.6794,213,4.65098,4.70278,0.175,8122
2.11602e-07,1.61869e-07,-1.66794e-06,-7.68448e-05,-5.72629e-05,-0.00194932,26.5448,28.0559,0.0174229,14.0801,28.1438,26.4908,-0.016451,27.3712,213,4.89242,5.6222,0.175,8123
1.31215e-07,2.64842e-07,-1.66608e-06,-5.10875e-05,-9.03285e-05,-0.00160273,28.7339,25.1367,0.303628,14.2782,28.8134,25.1037,0.257063,26.8941,213,6.10229,4.29306,0.175,8124
2.70546e-07,1.36952e-07,-1.66358e-06,-9.25477e-05,-5.1167e-05,-0.00160628,24.7413,28.5038,-0.0543381,14.3269,28.5637,24.7171,-0.0900559,26.9372,213,4.21462,6.03789,0.175,8125
1.12357e-07,-6.98618e-08,-1.67252e-06,-4.64598e-05,-3.31205e-05,-0.00254058,29.3529,30.0715,-0.0452353,15.0685,30.0844,29.3474,-0.0525693,29.7753,213,6.6608,12.9767,0.175,8126
1.08787e-07,-3.28934e-08,-1.67277e-06,-4.54256e-05,-2.61841e-05,-0.00231872,30.074,31.2958,-0.0655936,15.6867,31.3028,30.072,-0.0705795,30.7764,213,6.77401,11.7203,0.175,8127
1.4317e-07,-4.95536e-08,-1.67197e-06,-5.42869e-05,-2.94458e-05,-0.00163298,30.3784,32.6477,-0.000724636,16.3353,32.6607,30.3744,-0.00977588,31.5895,213,6.07487,12.3389,0.175,8128
1.82391e-07,-3.68684e-08,-1.67028e-06,-6.67029e-05,-2.62881e-05,-0.00196944,28.5385,31.6572,-0.0852487,15.8883,31.6748,28.5375,-0.101866,30.33,213,5.43661,11.8932,0.175,8129
1.87044e-07,-7.42543e-08,-1.67067e-06,-6.80621e-05,-3.34682e-05,-0.00220745,27.9729,30.298,-0.0804933,15.2106,30.3227,27.9662,-0.0985309,29.3141,213,5.3234,13.1496,0.175,8130
6.90907e-08,-7.80431e-08,-1.67253e-06,-3.48473e-05,-3.61231e-05,-0.0019788,31.6854,31.5869,-0.0426535,15.901,31.7553,31.5212,-0.0468371,31.6857,213,7.72158,13.1853,0.175,8131
9.47743e-08,-1.0096e-07,-1.67209e-06,-4.25472e-05,-4.07902e-05,-0.00163302,31.4621,31.6215,-0.0223963,15.8823,31.7337,31.3584,-0.0308505,31.5786,213,7.02243,13.8039,0.175,8132
1.22464e-07,-1.21548e-07,-1.67155e-06,-4.84516e-05,-4.77036e-05,-0.00252963,28.9231,28.9643,0.0354,14.5458,29.1133,28.7878,0.0217186,28.9302,213,6.38222,14.2962,0.175,8133
7.66064e-08,-1.33839e-07,-1.67054e-06,-3.69033e-05,-5.09076e-05,-0.00163006,31.8259,30.5483,-0.00283196,15.9349,31.8581,30.525,-0.0117449,31.2246,213,7.44299,14.5048,0.175,8134
2.06981e-07,-1.01317e-07,-1.66942e-06,-7.55519e-05,-3.99636e-05,-0.00196033,27.1748,29.9211,-0.0641708,15.0228,29.9586,27.1601,-0.0869991,28.7487,213,5.00665,13.8969,0.175,8135
2.23501e-07,-1.42917e-07,-1.66469e-06,-8.07646e-05,-5.27538e-05,-0.00160861,26.2141,28.7645,0.0404246,14.42,28.8515,26.1561,0.0114761,27.5912,213,4.73285,14.808,0.175,8136
1.58803e-07,-1.30043e-07,-1.66979e-06,-5.8414e-05,-4.99096e-05,-0.0023003,28.3655,28.9015,0.0101743,14.5052,29.0024,28.2828,-0.00801674,28.6574,213,5.68786,14.5064,0.175,8137
1.32149e-07,-1.70022e-07,-1.66796e-06,-5.2016e-05,-6.03002e-05,-0.00162079,29.5342,28.7782,-0.0919211,14.9124,29.7144,28.6163,-0.110299,29.2911,213,6.10842,15.2073,0.175,8138
2.61561e-07,-8.35309e-08,-1.66809e-06,-9.03815e-05,-3.59821e-05,-0.00195064,25.7546,29.9447,0.0277683,14.9919,29.9803,25.7501,-0.00337447,28.1084,213,4.36839,13.4512,0.175,8139
-2.16911e-07,-1.02302e-07,-1.66977e-06,-7.85667e-05,-3.95579e-05,-0.00229962,26.7778,29.2415,-0.13967,14.7201,29.2746,26.7706,-0.165641,28.2716,213,15.2347,13.9218,0.175,8140
-2.49527e-07,-6.76542e-08,-1.67005e-06,-8.67255e-05,-3.22437e-05,-0.00162009,26.1183,31.0839,-0.112715,15.6271,31.1141,26.1154,-0.140001,29.0788,213,15.5936,12.9667,0.175,8141
-1.84152e-07,-6.42847e-08,-1.67109e-06,-6.5306e-05,-3.19964e-05,-0.00196635,28.5322,31.107,-0.02741,15.5851,31.1284,28.5253,-0.0418923,29.9537,213,14.7311,12.8356,0.175,8142
-1.44342e-07,-4.71159e-08,-1.67119e-06,-5.59096e-05,-2.80254e-05,-0.00231168,29.131,30.8973,-0.00955075,15.4647,30.9101,29.1279,-0.0193015,30.078,213,14.0491,12.2476,0.175,8143
-1.23579e-07,-7.73844e-08,-1.67243e-06,-4.94038e-05,-3.51539e-05,-0.00197239,30.1504,31.2525,-0.0305785,15.6551,31.2717,30.1392,-0.0385456,30.7596,213,13.6902,13.2026,0.175,8144
-7.51934e-08,-8.91071e-08,-1.67256e-06,-3.61708e-05,-3.89484e-05,-0.00197698,31.459,31.2468,-0.0279563,15.7748,31.5154,31.1966,-0.0341502,31.3914,213,12.5684,13.4862,0.175,8145
-1.01142e-07,-1.12595e-07,-1.67184e-06,-4.41731e-05,-4.37589e-05,-0.00197111,30.4476,30.4796,-0.045711,15.3435,30.6293,30.3098,-0.0576775,30.5285,213,13.2504,14.0742,0.175,8146
-8.47296e-08,-1.49883e-07,-1.66976e-06,-3.89062e-05,-5.51451e-05,-0.00162551,31.5015,30.0174,0.205646,15.6776,31.5479,29.984,0.192673,30.6032,213,12.9013,14.8177,0.175,8147
-1.36747e-07,-1.32666e-07,-1.6708e-06,-5.23799e-05,-5.05593e-05,-0.00196411,29.4072,29.5585,0.126854,14.8304,29.7698,29.2137,0.109037,29.3867,213,14.0231,14.5341,0.175,8148
-1.78613e-07,-1.30321e-07,-1.66945e-06,-6.50116e-05,-4.93095e-05,-0.00195691,28.08,29.2953,0.0767332,14.6585,29.3732,28.0227,0.056116,28.6657,213,14.7344,14.5254,0.175,8149
-2.43258e-07,-1.34519e-07,-1.66576e-06,-8.67614e-05,-5.00931e-05,-0.00194566,25.7188,28.5524,0.0776672,14.2867,28.6176,25.6872,0.0441122,27.2268,213,15.5969,14.6565,0.175,8150
-1.53264e-07,-1.72322e-07,-1.66637e-06,-5.88438e-05,-6.0461e-05,-0.00229924,28.0702,27.9768,0.0457511,14.1636,28.3519,27.7161,0.0247071,28.0147,213,14.3853,15.2688,0.175,8151
-1.25395e-07,1.27832e-07,-1.67132e-06,-4.94228e-05,-4.84843e-05,-0.0019666,29.7391,29.8115,-0.0440169,15.0132,29.9691,29.5949,-0.0573905,29.8411,213,13.7709,6.33762,0.175,8152
-1.16781e-07,7.8029e-08,-1.67158e-06,-4.70539e-05,-3.54533e-05,-0.00231208,29.7168,30.4493,-0.0364764,15.2588,30.4731,29.701,-0.0444688,30.1389,213,13.5363,7.53994,0.175,8153
-1.49155e-07,9.87915e-08,-1.67068e-06,-5.64471e-05,-4.1358e-05,-0.00162617,29.723,31.1006,0.104815,15.5249,31.1411,29.6962,0.0911632,30.3533,213,14.1872,6.97006,0.175,8154
-1.95026e-07,1.27685e-07,-1.6693e-06,-6.98421e-05,-4.82762e-05,-0.00161912,27.6952,29.6592,-0.107803,14.9264,29.72,27.6595,-0.132907,28.8778,213,14.9506,6.28627,0.175,8155
-1.83243e-07,7.82444e-08,-1.66885e-06,-6.65834e-05,-3.50655e-05,-0.00230095,28.018,30.0072,-0.0121851,15.0311,30.0316,28.0119,-0.0304821,29.1048,213,14.716,7.4886,0.175,8156
-1.61298e-07,2.08881e-07,-1.66965e-06,-5.77312e-05,-7.43269e-05,-0.00161114,28.3588,26.8524,0.0613967,14.2183,28.4668,26.7756,0.0302137,27.6298,213,14.504,4.94906,0.175,8157
-1.07893e-07,2.38128e-07,-1.66837e-06,-4.53092e-05,-8.20933e-05,-0.00161106,29.7063,26.3432,0.168873,14.8122,29.7615,26.3199,0.136996,28.0624,213,13.4856,4.62403,0.175,8158
-1.06182e-07,1.79181e-07,-1.67086e-06,-4.49824e-05,-6.35356e-05,-0.00196225,29.7582,28.3226,-0.0361923,14.9281,29.8002,28.3005,-0.0560235,29.1353,213,13.4034,5.44269,0.175,8159
-8.08557e-08,1.46607e-07,-1.67181e-06,-3.70488e-05,-5.53343e-05,-0.0023084,30.0933,28.9403,-0.0405114,15.0837,30.1151,28.9303,-0.0523217,29.5928,213,12.7525,6.01258,0.175,8160
-2.17645e-07,1.68389e-07,-1.66753e-06,-7.84928e-05,-5.92421e-05,-0.00228851,26.328,27.5484,-0.0578786,13.8588,27.6245,26.2873,-0.0932257,27.0739,213,15.298,5.50958,0.175,8161
-2.19894e-07,2.24247e-07,-1.66617e-06,-7.89062e-05,-7.79764e-05,-0.00159959,25.5591,25.6412,0.0806739,13.0689,26.1689,25.081,0.0311022,25.6112,213,15.3803,4.69092,0.175,8162
-2.64287e-07,1.37889e-07,-1.66509e-06,-9.07677e-05,-5.13504e-05,-0.00195053,25.1627,28.2053,-0.116846,14.2063,28.2598,25.1441,-0.152786,26.99,213,15.8268,6.02813,0.175,8163
8.60578e-09,-2.42628e-07,-1.66655e-06,-2.41389e-05,-8.64809e-05,-0.00229027,30.5609,26.6169,0.175925,15.2156,30.5841,26.6166,0.152966,28.6542,213,9.69033,16.0954,0.175,8164
-5.55279e-09,-2.90111e-07,-1.67432e-06,-2.38717e-05,-9.9083e-05,-0.00195537,30.9227,25.1133,-0.100475,15.5458,30.9573,25.1126,-0.134307,28.6204,213,10.2837,16.6093,0.175,8165
-1.33934e-08,-2.01429e-07,-1.6679e-06,-2.51609e-05,-7.10933e-05,-0.00162858,32.5621,28.3764,-0.0655881,16.3285,32.5772,28.3755,-0.0797961,30.772,213,10.5903,15.5718,0.175,8166
1.85036e-08,-1.86384e-07,-1.66613e-06,-2.60489e-05,-6.60787e-05,-0.00196741,31.7328,28.6405,-0.0112449,15.8848,31.746,28.6398,-0.0237081,30.3361,213,9.32243,15.3549,0.175,8167
2.50957e-08,-2.68879e-07,-1.66774e-06,-2.50741e-05,-9.38149e-05,-0.00195546,31.0525,25.7426,0.169082,15.4762,31.0884,25.7398,0.136003,28.6549,213,9.01584,16.3924,0.175,8168
2.29078e-09,-1.21063e-07,-1.67073e-06,-2.524e-05,-4.82477e-05,-0.00197655,32.3704,30.5949,0.00484582,16.1891,32.3767,30.5949,-0.00142516,31.525,213,9.95998,14.1952,0.175,8169
2.85284e-08,-9.77786e-08,-1.67162e-06,-2.86415e-05,-4.03917e-05,-0.00163902,33.2496,32.1746,-0.00122728,16.6311,33.2568,32.1715,-0.00531309,32.733,213,9.00312,13.6725,0.175,8170
2.66609e-08,-1.37653e-07,-1.66939e-06,-2.78693e-05,-5.19849e-05,-0.00197359,31.9666,30.1057,-0.0134415,15.9986,31.9765,30.103,-0.0206991,31.1028,213,9.04006,14.5352,0.175,8171
4.55209e-08,-1.53017e-07,-1.66835e-06,-2.90438e-05,-5.76066e-05,-0.00196771,31.7081,29.504,0.0744527,15.8294,31.7238,29.4978,0.064956,30.6066,213,8.36558,14.8322,0.175,8172
-4.26048e-08,-1.76565e-07,-1.66906e-06,-2.88168e-05,-6.44828e-05,-0.00230622,30.6126,28.3578,-0.00104544,15.3238,30.6317,28.3535,-0.0158336,29.5743,213,11.6561,15.2218,0.175,8173
-2.64552e-08,-1.46819e-07,-1.66995e-06,-2.78667e-05,-5.44848e-05,-0.00197284,31.8912,29.8372,-0.00983429,15.9608,31.9027,29.8348,-0.0189759,30.9396,213,11.0627,14.7078,0.175,8174
-2.61035e-08,-1.05004e-07,-1.67186e-06,-2.84832e-05,-4.23243e-05,-0.00197801,32.1998,31.1317,0.00100623,16.1046,32.2058,31.1303,-0.00353107,31.6852,213,11.0258,13.8451,0.175,8175
-1.56305e-08,3.10032e-07,-1.66254e-06,-2.51454e-05,-0.000105204,-0.00194808,30.6463,24.4726,0.00540912,15.3496,30.6754,24.4729,-0.0239334,28.1159,213,10.6644,3.92934,0.175,8176
-6.14437e-09,4.4411e-07,-1.67321e-06,-2.49617e-05,-0.000148072,-0.00193422,29.3288,19.8532,-0.0554632,14.7725,29.4089,19.8537,-0.136064,26.1132,213,10.293,2.86824,0.175,8177
7.93087e-09,3.68068e-07,-1.65556e-06,-2.53378e-05,-0.00012649,-0.00193997,29.9365,22.1307,-0.102781,15.07,29.9867,22.1309,-0.153231,27.0806,213,9.72559,3.42391,0.175,8178
2.6712e-08,4.10609e-07,-1.65803e-06,-2.57349e-05,-0.000138303,-0.00160219,29.8415,19.577,-0.671562,15.3351,29.9189,19.5794,-0.751332,27.0269,213,9.00629,3.10645,0.175,8179
1.71594e-08,2.85574e-07,-1.65835e-06,-2.63657e-05,-9.6449e-05,-0.00194596,30.8933,25.4709,0.263152,15.3365,30.9147,25.471,0.241711,28.3459,213,9.37766,4.16755,0.175,8180
2.32812e-08,2.15648e-07,-1.66741e-06,-2.73306e-05,-7.47571e-05,-0.00220241,30.7207,27.5303,-0.0284086,15.3937,30.7404,27.5292,-0.0470496,29.3141,213,9.1559,4.98817,0.175,8181
1.88168e-08,1.59886e-07,-1.67073e-06,-2.76064e-05,-5.79004e-05,-0.00197224,31.8085,29.4708,-0.0230208,15.9273,31.8201,29.4706,-0.0344832,30.7473,213,9.33662,5.82477,0.175,8182
-5.80308e-09,1.91825e-07,-1.67041e-06,-2.50694e-05,-6.91791e-05,-0.00196476,31.7777,28.3747,0.0666112,15.8706,31.7928,28.3746,0.0515664,30.1777,213,10.2777,5.32161,0.175,8183
4.32715e-08,2.3964e-07,-1.66479e-06,-2.8299e-05,-8.43933e-05,-0.00195112,31.1163,26.7876,0.428161,15.37,31.1427,26.7866,0.402757,28.81,213,8.43659,4.67072,0.175,8184
-3.70684e-08,1.70666e-07,-1.67157e-06,-2.92019e-05,-6.11695e-05,-0.00196909,31.5419,29.0749,-0.0157244,15.793,31.5567,29.0736,-0.0292776,30.4206,213,11.4217,5.63793,0.175,8185
-3.1319e-08,2.2913e-07,-1.66822e-06,-2.82049e-05,-7.83533e-05,-0.00229777,30.3377,27.1687,0.0375382,15.1697,30.3581,27.1672,0.0186645,28.8765,213,11.241,4.80133,0.175,8186
-4.69663e-08,2.76994e-07,-1.66722e-06,-2.91927e-05,-9.67161e-05,-0.0019537,30.4636,25.2529,-0.000875198,15.2701,30.5024,25.251,-0.0377797,28.2825,213,11.8084,4.24567,0.175,8187
-3.937e-07,2.25862e-08,-1.6737e-06,-0.000133301,-2.3935e-05,-0.00194863,21.2067,29.6408,-0.650465,15.1945,29.6898,21.2066,-0.699318,27.16,213,16.8828,9.37091,0.175,8188
-3.86936e-07,4.36982e-08,-1.67554e-06,-0.000131317,-2.63273e-05,-0.00228966,22.2378,28.8755,-0.622954,14.8061,28.9335,22.2356,-0.678748,26.8962,213,16.848,8.53697,0.175,8189
-2.72149e-07,3.43512e-08,-1.66269e-06,-8.97724e-05,-2.62763e-05,-0.00161272,26.1058,31.902,0.294368,15.8463,31.9471,26.1005,0.254513,29.2115,213,15.7923,8.91606,0.175,8190
-3.31665e-07,5.03678e-10,-1.66568e-06,-0.000110548,-2.28121e-05,-0.00161341,23.4763,31.4668,-0.0193495,15.7867,31.5104,23.4763,-0.0629794,28.4212,213,16.3651,10.3127,0.175,8191
-4.7179e-07,9.13189e-09,-1.68581e-06,-0.000156222,-2.36628e-05,-0.00195659,18.7911,29.0509,-0.331797,14.7784,29.138,18.7911,-0.418895,25.9778,213,17.4208,9.93361,0.175,8192
-2.08576e-07,1.38511e-08,-1.66235e-06,-7.50206e-05,-2.30551e-05,-0.00171574,28.0489,32.5786,0.280376,16.1674,32.5972,28.0483,0.262341,30.3175,213,15.0094,9.77032,0.175,8193
-1.82418e-07,-1.11013e-08,-1.66562e-06,-6.54319e-05,-2.42043e-05,-0.00230342,28.4422,31.0421,0.0877035,15.4906,31.0555,28.4422,0.0743119,29.7607,213,14.6409,10.8355,0.175,8194
-2.43526e-07,-1.08303e-08,-1.66302e-06,-8.29796e-05,-2.39412e-05,-0.00161644,26.9985,32.3772,0.111178,16.1602,32.405,26.9974,0.0845295,29.9846,213,15.4585,10.8152,0.175,8195
-2.91497e-07,-2.43633e-08,-1.66716e-06,-0.000100298,-2.39065e-05,-0.00229345,25.3202,30.1474,0.00792754,15.1047,30.1829,25.3191,-0.0264728,28.095,213,15.9965,11.3779,0.175,8196
-2.0477e-07,3.45756e-08,-1.66363e-06,-7.32091e-05,-2.64961e-05,-0.00195657,27.9673,31.5721,0.217447,15.6947,31.5908,27.9646,0.201483,29.7425,213,14.9746,8.93637,0.175,8197
4.13124e-07,2.53172e-08,-1.67107e-06,-0.000140291,-2.38763e-05,-0.0016061,19.2172,29.8246,-1.13836,15.5429,29.8867,19.216,-1.19918,27.3585,213,3.08211,9.25318,0.175,8198
4.14657e-07,3.58359e-10,-1.66931e-06,-0.000140504,-2.26404e-05,-0.00159895,19.6729,30.4075,-0.0512132,15.301,30.4791,19.6729,-0.122826,26.8805,213,3.07915,10.3194,0.175,8199
3.0838e-07,3.39756e-08,-1.6615e-06,-0.000103203,-2.58771e-05,-0.00194608,24.7444,30.7029,0.167389,15.3126,30.7481,24.7436,0.122977,28.1081,213,3.94835,8.91597,0.175,8200
4.28399e-07,4.43518e-08,-1.676e-06,-0.000143737,-2.65007e-05,-0.00228337,21.1376,28.5501,-0.670539,14.6895,28.6303,21.1356,-0.748772,26.4408,213,2.95681,8.4964,0.175,8201
2.34213e-07,3.60701e-08,-1.66317e-06,-8.22088e-05,-2.64195e-05,-0.00195656,26.9286,31.2338,0.0496358,15.617,31.2601,26.9258,0.0261016,29.3082,213,4.73939,8.86219,0.175,8202
2.42715e-07,5.71714e-08,-1.66402e-06,-8.59899e-05,-2.93351e-05,-0.00195658,26.4154,30.7798,0.0286304,15.4038,30.8106,26.4102,0.00296572,28.8602,213,4.61409,8.1054,0.175,8203
2.22397e-07,1.71357e-08,-1.66376e-06,-7.95297e-05,-2.32979e-05,-0.00196195,27.3209,31.6587,0.0889594,15.8069,31.6812,27.32,0.067362,29.6746,213,4.90165,9.62857,0.175,8204
1.74168e-07,3.80445e-08,-1.66843e-06,-6.2552e-05,-2.70686e-05,-0.00196678,29.0165,31.7663,0.0795871,15.8561,31.7797,29.0153,0.0674002,30.4244,213,5.56739,8.81801,0.175,8205
3.95088e-07,-1.88183e-08,-1.66724e-06,-0.00013506,-2.3108e-05,-0.00228609,22.0248,29.1017,-0.576982,14.9115,29.1738,22.0249,-0.649175,26.9688,213,3.22039,11.1622,0.175,8206
2.82509e-07,-3.7974e-09,-1.66175e-06,-9.43168e-05,-2.33637e-05,-0.00195455,25.6423,31.1094,-0.166916,15.6703,31.1416,25.6423,-0.199078,28.985,213,4.21489,10.5156,0.175,8207
2.1168e-07,-2.46605e-09,-1.66559e-06,-7.57483e-05,-2.36041e-05,-0.00161989,27.9631,32.7163,0.21277,16.2661,32.7307,27.9631,0.198394,30.4299,213,5.04289,10.4714,0.175,8208
2.41167e-07,3.04e-07,-1.65959e-06,-8.57023e-05,-0.000102531,-0.00191979,24.0146,22.7326,-0.544771,12.4317,24.2612,22.5436,-0.602313,24.0507,213,4.39389,3.77713,0.175,8209
1.69325e-07,3.92532e-07,-1.6561e-06,-5.9953e-05,-0.000136543,-0.00158362,25.6559,18.6865,-0.439178,13.2018,25.8265,18.6538,-0.577116,23.6477,213,5.33368,3.10108,0.175,8210
2.40445e-07,4.25219e-07,-1.66511e-06,-8.42517e-05,-0.000144877,-0.00191367,22.8739,18.1955,-0.476347,11.9361,23.1707,18.1238,-0.701445,21.7915,213,4.32688,2.79332,0.175,8211
3.17428e-07,4.42308e-07,-1.66997e-06,-0.000104001,-0.000151469,-0.00189676,20.4719,16.8199,-0.668756,10.8277,20.8182,16.642,-0.837116,19.8986,213,3.49331,2.60275,0.175,8212
4.42734e-07,2.47844e-07,-1.67989e-06,-0.000151196,-8.54488e-05,-0.00157054,15.9833,21.9922,-0.162248,11.2903,22.2319,15.9299,-0.34861,20.1815,213,2.66026,4.26673,0.175,8213
4.1453e-07,1.80465e-07,-1.6699e-06,-0.000143878,-6.17483e-05,-0.00226899,20.3196,25.5074,-0.426093,13.0841,25.6232,20.3228,-0.545076,23.9618,213,2.91735,5.19239,0.175,8214
3.17599e-07,2.41785e-07,-1.66343e-06,-0.000105327,-8.50229e-05,-0.0015873,21.916,23.7757,0.0278714,12.0467,24.0415,21.7301,-0.051987,23.0249,213,3.64418,4.39502,0.175,8215
4.62608e-07,3.17894e-07,-1.68032e-06,-0.000160397,-0.000104207,-0.00191962,15.7049,20.041,-0.912914,10.7459,20.3746,15.5755,-1.11714,19.5393,213,2.44755,3.51994,0.175,8216
4.16933e-07,4.08767e-07,-1.66475e-06,-0.000141622,-0.000138231,-0.00222318,18.7883,18.9924,-0.0293131,10.021,19.7592,18.275,-0.282763,19.3426,213,2.70213,2.78847,0.175,8217
2.39025e-07,-2.76954e-07,-1.66543e-06,-8.72024e-05,-9.56705e-05,-0.00192881,24.2072,23.5537,-0.110742,12.4852,24.7658,23.0889,-0.204587,24.1756,213,4.32688,16.7067,0.175,8218
1.67622e-07,-2.54161e-07,-1.66536e-06,-6.07741e-05,-8.95578e-05,-0.00193493,27.3412,25.1284,0.146606,13.7328,27.5502,24.9813,0.0846895,26.2754,213,5.34037,16.4001,0.175,8219
2.4448e-07,-1.9705e-07,-1.65705e-06,-8.85086e-05,-6.74e-05,-0.00193991,24.9119,26.5346,-0.131191,13.4472,26.7179,24.7741,-0.176621,25.9772,213,4.40058,15.7241,0.175,8220
3.16879e-07,-2.89869e-07,-1.67108e-06,-0.000107011,-0.000100042,-0.00159085,20.9502,21.5827,-0.524532,11.6472,22.6589,19.9849,-0.635445,22.0791,213,3.49331,16.8972,0.175,8221
3.16346e-07,-1.57669e-07,-1.6608e-06,-0.000106552,-5.7271e-05,-0.00194254,23.3014,27.0935,-0.104535,13.664,27.1752,23.2678,-0.15269,25.5989,213,3.71936,15.1146,0.175,8222
4.15186e-07,-1.16514e-07,-1.67191e-06,-0.000143847,-4.34421e-05,-0.00192285,19.6832,27.4314,-0.179921,13.9009,27.5269,19.6826,-0.274807,24.8271,213,2.983,14.3034,0.175,8223
4.54577e-07,-1.63232e-07,-1.67961e-06,-0.00015438,-5.7522e-05,-0.00158331,16.6703,25.5026,0.0431644,12.9054,25.6907,16.6455,-0.120106,22.6837,213,2.65073,15.2195,0.175,8224
4.73801e-07,-2.12744e-07,-1.68871e-06,-0.000165084,-7.08718e-05,-0.00224706,18.3795,24.338,-0.0300631,12.4066,24.5685,18.3637,-0.244679,22.3658,213,2.44755,15.9801,0.175,8225
4.22577e-07,-2.71049e-07,-1.68396e-06,-0.000147762,-9.07856e-05,-0.00189544,17.9841,22.3809,0.231679,11.3245,22.6698,17.9061,0.0208015,20.6828,213,2.70213,16.7115,0.175,8226
-2.44765e-07,4.28078e-07,-1.66497e-06,-8.55469e-05,-0.000145104,-0.00190864,22.7993,18.2247,-0.328233,11.7735,23.0473,18.148,-0.499602,21.5197,213,15.83,2.76867,0.175,8227
-1.67224e-07,3.88046e-07,-1.65675e-06,-5.92499e-05,-0.000134606,-0.00158403,25.9443,19.0895,-0.102104,13.1455,26.0821,19.0584,-0.208801,23.5772,213,14.7333,3.13751,0.175,8228
-2.38822e-07,3.06072e-07,-1.65793e-06,-8.52474e-05,-0.00010268,-0.00158603,23.5592,21.9516,-0.710972,12.3335,23.8713,21.7241,-0.79563,23.6665,213,15.683,3.76156,0.175,8229
-3.19976e-07,4.46276e-07,-1.66805e-06,-0.000104964,-0.000153471,-0.00223011,21.6343,18.5616,-0.0259028,11.1051,21.9736,18.4329,-0.236529,20.6685,213,16.6376,2.57528,0.175,8230
-3.19102e-07,2.47845e-07,-1.66375e-06,-0.000105899,-8.67285e-05,-0.00192055,22.5655,24.0453,0.123691,12.1296,24.3007,22.3922,0.0415981,23.3634,213,16.477,4.32208,0.175,8231
-4.15797e-07,1.83127e-07,-1.67233e-06,-0.000144369,-6.26653e-05,-0.00158695,17.6582,25.1113,-0.241754,12.8022,25.2384,17.6554,-0.365962,22.7799,213,17.1967,5.15136,0.175,8232
-4.50978e-07,2.51598e-07,-1.68118e-06,-0.000153832,-8.63763e-05,-0.00224558,18.9715,23.2288,-0.130922,11.8843,23.4553,18.9274,-0.313323,21.8593,213,17.4994,4.22201,0.175,8233
-4.69052e-07,3.25189e-07,-1.68056e-06,-0.000163402,-0.000107053,-0.00191642,15.3243,19.6727,-0.837883,10.534,20.0163,15.1943,-1.05157,19.1186,213,17.6986,3.44549,0.175,8234
-4.24023e-07,4.16248e-07,-1.66786e-06,-0.000143404,-0.000139422,-0.00188297,16.6917,17.0615,-0.481675,9.32517,17.9418,16.0382,-0.708529,17.7752,213,17.4577,2.72753,0.175,8235
-2.66229e-07,-1.93634e-07,-1.65754e-06,-9.51053e-05,-6.71944e-05,-0.00170238,23.8419,26.2822,-0.332046,13.4159,26.4508,23.7222,-0.380912,25.5768,213,15.9382,15.6837,0.175,8236
-1.77518e-07,-2.38803e-07,-1.66184e-06,-6.45996e-05,-8.38825e-05,-0.0016013,27.1208,25.3702,-0.00805407,13.7091,27.3716,25.158,-0.0466065,26.3811,213,14.8988,16.2289,0.175,8237
-2.36669e-07,-2.72009e-07,-1.66326e-06,-8.71134e-05,-9.36616e-05,-0.00192233,24.348,23.8427,0.0330233,12.459,24.8836,23.3745,-0.0343836,24.1988,213,15.7404,16.6525,0.175,8238
-3.19735e-07,-2.92098e-07,-1.67019e-06,-0.000108138,-0.000100088,-0.00192491,21.7594,22.3817,-0.237232,11.8744,23.3598,20.9332,-0.389089,22.6333,213,16.6376,16.9247,0.175,8239
-4.62647e-07,-1.66517e-07,-1.68072e-06,-0.000157381,-5.79855e-05,-0.00158316,16.1915,25.2456,-0.177745,12.8996,25.443,16.1727,-0.356342,22.6357,213,17.5054,15.2719,0.175,8240
-4.22242e-07,-1.14085e-07,-1.67154e-06,-0.000146127,-4.26616e-05,-0.00248486,21.6263,27.2076,-0.0431082,13.7337,27.3147,21.6289,-0.152747,25.112,213,17.1642,14.2447,0.175,8241
-3.22653e-07,-1.55377e-07,-1.66186e-06,-0.000108976,-5.65872e-05,-0.00227758,23.6899,26.9944,-0.0963211,13.6123,27.0732,23.6661,-0.15136,25.691,213,16.4385,15.0801,0.175,8242
-4.79686e-07,-2.17697e-07,-1.6893e-06,-0.000167176,-7.231e-05,-0.00190889,16.2828,23.6035,-0.151383,12.1093,23.8494,16.2547,-0.369166,21.4543,213,17.6986,16.0545,0.175,8243
-4.29838e-07,-2.76406e-07,-1.68442e-06,-0.000150254,-9.25691e-05,-0.00189916,17.492,21.9782,-0.175484,11.314,22.2694,17.3839,-0.358586,20.6239,213,17.4577,16.7725,0.175,8244
1.13709e-07,7.42442e-09,-1.67202e-06,-4.67625e-05,-2.44974e-05,-0.00163894,31.5118,33.5459,0.00325839,16.7758,33.5505,31.5115,-0.00109625,32.58,213,6.68556,10.0647,0.175,8245
8.73566e-08,-1.2014e-08,-1.67298e-06,-4.10585e-05,-2.35531e-05,-0.0019809,31.4079,32.7601,-0.0248761,16.3955,32.7632,31.4077,-0.0277714,32.1347,213,7.29155,10.8788,0.175,8246
6.85333e-08,1.26394e-08,-1.67296e-06,-3.55154e-05,-2.48378e-05,-0.00198352,31.9382,32.7666,-0.079699,16.4248,32.7682,31.9382,-0.0813376,32.4425,213,7.78903,9.8609,0.175,8247
1.24537e-07,2.57269e-08,-1.67138e-06,-5.02383e-05,-2.49481e-05,-0.00163552,31.0694,33.3713,0.0148398,16.6872,33.3811,31.0677,0.00676225,32.2799,213,6.45634,9.31556,0.175,8248
1.51405e-07,8.39839e-10,-1.66982e-06,-5.64528e-05,-2.37673e-05,-0.00197295,29.7244,32.2519,-0.0692264,16.173,32.2643,29.7244,-0.0816394,31.1537,213,5.95886,10.3335,0.175,8249
8.55897e-08,5.76736e-08,-1.67301e-06,-3.81539e-05,-3.14879e-05,-0.00164015,32.3401,32.9541,-0.0267375,16.4991,32.9676,32.3305,-0.0305849,32.6843,213,7.30976,8.18107,0.175,8250
1.32133e-07,4.60586e-08,-1.67162e-06,-5.27489e-05,-2.79351e-05,-0.00231362,29.3977,30.9655,-0.042959,15.513,30.9752,29.3958,-0.0507406,30.2672,213,6.29409,8.54918,0.175,8251
5.91994e-08,3.83196e-08,-1.67296e-06,-3.40146e-05,-2.65849e-05,-0.00232295,31.0684,31.5387,-0.0924746,15.8185,31.5426,31.0664,-0.0943989,31.4016,213,8.05417,8.86814,0.175,8252
5.45514e-08,6.41135e-08,-1.67298e-06,-3.30189e-05,-3.2794e-05,-0.00164176,32.9419,32.9642,-0.0533225,16.5353,33.014,32.8955,-0.05666,33.0115,213,8.1809,8.00248,0.175,8253
5.45076e-07,9.53677e-08,-1.69564e-06,-0.000184507,-3.85974e-05,-0.00247573,18.8026,26.6673,-0.0331279,13.5612,26.8759,18.8073,-0.246404,24.1222,213,2.17591,6.87805,0.175,8254
4.89309e-07,6.212e-08,-1.68899e-06,-0.000161439,-3.02225e-05,-0.00194279,17.8191,27.967,-0.950172,14.5581,28.0674,17.8173,-1.04873,25.5806,213,2.5287,7.85181,0.175,8255
3.66118e-07,7.4111e-08,-1.66962e-06,-0.000121819,-3.32526e-05,-0.00194986,22.1485,28.9764,-0.690133,14.9053,29.0508,22.1438,-0.759836,27.0274,213,3.39494,7.51459,0.175,8256
3.53926e-07,1.31601e-07,-1.66243e-06,-0.000118343,-4.92149e-05,-0.00194861,22.1244,27.4589,-0.425719,14.0198,27.5489,22.0992,-0.490581,25.7509,213,3.43405,6.09534,0.175,8257
4.91885e-07,1.35888e-07,-1.68716e-06,-0.000164654,-5.1264e-05,-0.00192426,17.1148,25.8849,-0.232237,13.2538,26.0823,17.1103,-0.425196,23.3521,213,2.45013,5.96705,0.175,8258
3.22083e-07,1.00204e-07,-1.66428e-06,-0.00011086,-4.01484e-05,-0.00194671,23.3566,28.815,-0.0813505,14.5023,28.8744,23.3461,-0.13022,26.6736,213,3.7474,6.81256,0.175,8259
2.80183e-07,7.71861e-08,-1.66427e-06,-9.65763e-05,-3.47307e-05,-0.00194963,25.2587,30.0313,0.409878,14.8474,30.0732,25.2482,0.378461,27.6004,213,4.17551,7.45715,0.175,8260
4.98461e-07,-8.90416e-08,-1.68138e-06,-0.000164943,-3.72309e-05,-0.00194615,17.2596,27.1087,-0.941429,14.1286,27.2076,17.269,-1.04968,24.8276,213,2.47061,13.597,0.175,8261
3.47799e-07,-8.42543e-08,-1.66767e-06,-0.000117901,-3.57825e-05,-0.00194569,22.7558,29.0824,-0.0378587,14.608,29.1331,22.7501,-0.0828629,26.6051,213,3.53924,13.492,0.175,8262
5.44714e-07,-6.04855e-08,-1.68892e-06,-0.000183937,-2.97192e-05,-0.00159354,13.7058,27.7711,-0.476919,14.3076,27.9545,13.7062,-0.660657,24.7815,213,2.21533,12.7271,0.175,8263
3.34897e-07,-4.11079e-08,-1.66692e-06,-0.000113551,-2.60987e-05,-0.00160952,22.9192,30.89,-0.150582,15.5736,30.9429,22.9201,-0.2044,28.0113,213,3.69149,12.072,0.175,8264
4.91134e-07,-3.66549e-08,-1.68224e-06,-0.000160043,-2.59338e-05,-0.00219425,19.3158,28.3266,-0.525235,14.5401,28.4419,19.3136,-0.638269,25.759,213,2.55575,11.8758,0.175,8265
3.14915e-07,-5.99131e-08,-1.66778e-06,-0.000108813,-2.96263e-05,-0.00228718,24.4069,29.4164,-0.024164,14.7644,29.4609,24.4062,-0.0679284,27.354,213,3.85599,12.7447,0.175,8266
2.52164e-07,-4.03638e-08,-1.6677e-06,-8.65838e-05,-2.65154e-05,-0.00195739,26.4361,31.0823,0.0543215,15.5408,31.1106,26.4332,0.0289426,29.027,213,4.52064,12.0311,0.175,8267
7.47676e-08,-3.37075e-07,-1.68624e-06,-3.27972e-05,-0.000116313,-0.00159865,30.2915,22.6914,0.75976,14.8544,30.3926,22.6662,0.683838,26.6977,213,7.23113,17.1142,0.175,8268
4.28084e-08,-2.98991e-07,-1.67516e-06,-2.83164e-05,-0.000101486,-0.00197318,29.7727,24.1879,-1.63049,15.734,29.8096,24.1789,-1.65844,29.0647,213,8.32195,16.727,0.175,8269
5.56671e-08,-2.31072e-07,-1.6671e-06,-3.10024e-05,-8.06152e-05,-0.00195511,30.6429,26.8221,-0.333291,15.5134,30.673,26.8126,-0.35385,29.2881,213,7.95405,15.9865,0.175,8270
1.17156e-07,-2.16001e-07,-1.66672e-06,-4.78483e-05,-7.56776e-05,-0.0016203,29.4468,26.9114,-0.240287,14.9005,29.5389,26.8412,-0.262135,28.5479,213,6.33711,15.8693,0.175,8271
1.14263e-07,-3.03346e-07,-1.67803e-06,-4.63209e-05,-0.000103844,-0.00250898,27.7916,24.7,-0.173353,14.0642,27.8922,24.6623,-0.236204,26.6606,213,6.26341,16.8519,0.175,8272
8.85644e-08,-2.02731e-07,-1.66794e-06,-3.78773e-05,-7.23807e-05,-0.00230148,29.5719,27.393,-0.0913784,14.8649,29.6172,27.3689,-0.112573,28.6718,213,7.03146,15.6591,0.175,8273
6.45861e-08,-1.81964e-07,-1.66774e-06,-3.40693e-05,-6.52386e-05,-0.00196512,30.8936,28.4824,-0.00879146,15.4708,30.9203,28.4682,-0.0213411,29.7914,213,7.72536,15.3245,0.175,8274
4.51497e-08,4.55061e-07,-1.6798e-06,-2.90966e-05,-0.000148635,-0.00161629,27.5914,16.741,-4.44094,16.0634,27.6327,16.753,-4.4942,28.3015,213,8.30714,2.77076,0.175,8275
7.9478e-08,5.12124e-07,-1.69056e-06,-3.445e-05,-0.000173792,-0.00216133,27.6842,18.3145,0.711083,13.6311,27.8301,18.3118,0.567938,23.9652,213,7.22813,2.38524,0.175,8276
5.62741e-08,3.54221e-07,-1.66688e-06,-3.09851e-05,-0.000118591,-0.00194858,29.3553,22.605,-0.614888,15.0447,29.4162,22.6024,-0.673218,27.3273,213,7.95921,3.51441,0.175,8277
1.18198e-07,4.64749e-07,-1.67432e-06,-4.66689e-05,-0.000154492,-0.00192998,26.6211,18.3005,-0.470942,13.7085,26.7853,18.2969,-0.6316,24.3108,213,6.26336,2.64799,0.175,8278
1.17915e-07,3.33424e-07,-1.6636e-06,-4.69442e-05,-0.000112872,-0.00227226,27.8459,23.7076,0.0838666,13.9295,27.9043,23.6877,0.0453432,26.0083,213,6.33038,3.6318,0.175,8279
8.88405e-08,3.14314e-07,-1.66772e-06,-3.79687e-05,-0.000107621,-0.0025109,28.4143,24.6574,0.0414659,14.2422,28.4722,24.6531,-0.0121406,26.7798,213,7.03198,3.83997,0.175,8280
6.4125e-08,2.82573e-07,-1.66709e-06,-3.34768e-05,-9.66877e-05,-0.00162072,30.3935,24.6288,-0.551679,15.5092,30.4342,24.6206,-0.584205,28.5589,213,7.73113,4.17566,0.175,8281
-1.15931e-07,3.3535e-07,-1.66261e-06,-4.60433e-05,-0.000113421,-0.00193972,28.0733,22.8738,-0.17092,14.1874,28.1489,22.8531,-0.225838,26.1325,213,13.7313,3.61931,0.175,8282
-1.20203e-07,4.68124e-07,-1.67452e-06,-4.70425e-05,-0.000153945,-0.00193402,25.9837,17.7773,-2.1335,14.1446,26.0711,17.7745,-2.21808,25.1874,213,13.8783,2.62642,0.175,8283
-8.28511e-08,5.2866e-07,-1.68569e-06,-3.60073e-05,-0.000178731,-0.00192028,27.1992,16.1869,-0.0320094,13.8289,27.4135,16.1848,-0.244266,24.0931,213,12.9685,2.28886,0.175,8284
-7.29554e-08,2.87966e-07,-1.66744e-06,-3.40366e-05,-0.000100235,-0.00219143,29.4623,25.0201,0.139031,14.7013,29.504,25.016,0.101394,27.4353,213,12.6307,4.11294,0.175,8285
-5.30912e-08,3.88858e-07,-1.66885e-06,-3.1089e-05,-0.000127698,-0.00193985,29.325,21.9066,-0.00733855,14.7221,29.3814,21.9056,-0.0627424,26.509,213,12.0541,3.24095,0.175,8286
-5.56405e-08,5.05334e-07,-1.68363e-06,-3.11304e-05,-0.000168633,-0.00159656,27.8762,15.3458,-1.14715,14.6239,27.9904,15.3418,-1.25734,25.4062,213,12.1614,2.45146,0.175,8287
-3.23199e-08,4.86008e-07,-1.68341e-06,-2.57823e-05,-0.000163625,-0.00159641,29.1335,16.5734,-0.105344,14.7899,29.3053,16.5708,-0.274491,25.6992,213,11.3391,2.58419,0.175,8288
-7.39771e-08,-3.46425e-07,-1.68596e-06,-3.32347e-05,-0.000119074,-0.00194369,29.3584,22.7367,0.0572296,14.7355,29.4542,22.7149,-0.0167259,26.7458,213,12.8729,17.1919,0.175,8289
-1.09287e-07,-2.98429e-07,-1.6743e-06,-4.5111e-05,-0.000102183,-0.00227222,28.2749,24.7051,0.0379177,14.1973,28.3773,24.6579,-0.0172735,26.7297,213,13.7253,16.792,0.175,8290
-1.35918e-07,-2.4375e-07,-1.66523e-06,-5.25442e-05,-8.57492e-05,-0.00161137,28.4716,25.4494,-0.288207,14.474,28.6236,25.3336,-0.324406,27.4513,213,14.1875,16.2377,0.175,8291
-9.30429e-08,-2.15348e-07,-1.66756e-06,-4.01363e-05,-7.64085e-05,-0.00253078,28.8235,26.8677,-0.200887,14.543,28.8645,26.8473,-0.221455,28.1316,213,13.2118,15.8319,0.175,8292
-6.64698e-08,-1.85131e-07,-1.66904e-06,-3.29549e-05,-6.76981e-05,-0.00196828,30.8553,28.1792,-0.196039,15.5502,30.8867,28.1655,-0.213684,29.833,213,12.4391,15.372,0.175,8293
-4.92855e-08,-2.51761e-07,-1.67108e-06,-2.98427e-05,-8.49197e-05,-0.00162231,31.4834,26.465,-0.0372547,15.7929,31.5198,26.4573,-0.065948,29.3834,213,11.9667,16.236,0.175,8294
-5.01113e-08,-3.32201e-07,-1.68285e-06,-2.87711e-05,-0.00011466,-0.00194638,29.8727,23.2425,-0.240502,15.1213,29.9408,23.2356,-0.301724,27.5098,213,12.09,17.0449,0.175,8295
-2.97905e-08,-3.16934e-07,-1.68022e-06,-2.41948e-05,-0.000109918,-0.0016179,31.1874,23.3755,-0.313728,15.8152,31.2554,23.3686,-0.374879,28.5169,213,11.307,16.8947,0.175,8296
-3.31101e-07,7.80487e-08,-1.67042e-06,-0.000111863,-3.42749e-05,-0.00195241,23.2581,29.2383,-0.528399,14.9444,29.3014,23.2538,-0.587271,27.3707,213,16.4241,7.41628,0.175,8297
-4.77235e-07,6.17561e-08,-1.69374e-06,-0.000156725,-3.00912e-05,-0.0016244,15.9533,27.4773,-3.54228,15.5837,27.5501,15.9556,-3.61731,27.2849,213,17.5147,7.87113,0.175,8298
-5.37972e-07,9.73915e-08,-1.696e-06,-0.000183295,-3.87577e-05,-0.00157973,13.3523,26.5337,-0.841563,13.8027,26.6436,13.3627,-0.961882,23.9127,213,17.8977,6.82333,0.175,8299
-4.92027e-07,1.39044e-07,-1.68742e-06,-0.000164712,-5.21678e-05,-0.00167973,15.5832,25.3943,-1.11776,13.4013,25.5409,15.5806,-1.26178,23.4655,213,17.6549,5.90086,0.175,8300
-3.48575e-07,1.36503e-07,-1.66462e-06,-0.000117272,-5.06536e-05,-0.00228739,22.9533,27.1638,-0.435371,13.8721,27.2446,22.9366,-0.499471,25.8606,213,16.6326,6.00094,0.175,8301
-3.13214e-07,1.01948e-07,-1.66687e-06,-0.000108102,-4.04489e-05,-0.00160424,23.1271,29.2814,-0.0855442,14.735,29.3389,23.1153,-0.131198,26.9037,213,16.2851,6.77763,0.175,8302
-2.50992e-07,7.85278e-08,-1.66595e-06,-8.53396e-05,-3.52362e-05,-0.00195601,26.3547,30.2212,0.159986,15.0629,30.2594,26.3428,0.133665,28.3709,213,15.6184,7.44347,0.175,8303
-3.58713e-07,-7.92111e-08,-1.67013e-06,-0.000121882,-3.40634e-05,-0.00194453,22.3383,29.1196,-0.109518,14.6718,29.1781,22.3358,-0.165554,26.5912,213,16.6535,13.3415,0.175,8304
-5.13538e-07,-8.68021e-08,-1.68231e-06,-0.000169501,-3.69323e-05,-0.00158665,15.2727,27.3544,-0.526964,14.0693,27.4802,15.2784,-0.658455,24.4402,213,17.7205,13.5333,0.175,8305
-5.64714e-07,-5.82922e-08,-1.69137e-06,-0.000189673,-2.98272e-05,-0.0015806,13.1773,27.747,-0.00568889,14.137,28.0074,13.1777,-0.266523,24.4957,213,18.0032,12.6515,0.175,8306
-3.04622e-07,-4.64662e-08,-1.67133e-06,-0.000105943,-2.66812e-05,-0.00194996,24.3026,30.4185,-0.0883453,15.2958,30.4611,24.3021,-0.130482,28.0244,213,16.1499,12.2552,0.175,8307
-4.14631e-07,-3.33103e-08,-1.68136e-06,-0.000135403,-2.52372e-05,-0.00161642,20.0426,30.0922,-0.386438,15.3066,30.1593,20.0429,-0.453872,27.0151,213,17.0565,11.7527,0.175,8308
-5.35696e-07,-3.66024e-08,-1.69509e-06,-0.000178153,-2.57203e-05,-0.0022788,18.0539,27.6866,-0.787542,14.4104,27.8606,18.0525,-0.960154,25.3803,213,17.83,11.8774,0.175,8309
-5.12516e-07,-1.53087e-08,-1.69521e-06,-0.000171875,-2.27001e-05,-0.0015876,15.1218,28.7083,-1.5012,15.3539,28.9585,15.1198,-1.7494,26.6369,213,17.6766,11.0001,0.175,8310
5.93893e-08,-5.11892e-08,-1.67303e-06,-3.42803e-05,-2.8818e-05,-0.00254886,30.3647,30.6601,-0.0439302,15.3565,30.6664,30.3612,-0.0466668,30.5616,213,8.03162,12.348,0.175,8311
4.68619e-08,-7.82278e-08,-1.67247e-06,-3.07207e-05,-3.62512e-05,-0.00164091,33.1071,32.6058,-0.059586,16.5915,33.1207,32.595,-0.062312,32.9233,213,8.39325,13.1752,0.175,8312
2.00988e-08,-6.70646e-08,-1.67272e-06,-2.79875e-05,-3.32579e-05,-0.00254866,30.7511,30.4669,-0.031238,15.3936,30.7539,30.4662,-0.0333294,30.6444,213,9.31317,12.8352,0.175,8313
1.86507e-08,-3.95604e-08,-1.6731e-06,-2.83793e-05,-2.75812e-05,-0.00164536,33.7287,33.8002,-0.0318972,16.9184,33.804,33.7258,-0.0328182,33.7978,213,9.37799,11.9306,0.175,8314
4.3035e-08,-2.80581e-08,-1.67317e-06,-3.03863e-05,-2.64683e-05,-0.00198501,32.4441,32.7553,-0.0543451,16.407,32.7587,32.4416,-0.0552735,32.6566,213,8.54916,11.5065,0.175,8315
6.51683e-08,-2.81177e-08,-1.67326e-06,-3.45723e-05,-2.63779e-05,-0.0019837,32.0046,32.6369,-0.060196,16.3508,32.6393,32.0042,-0.0622444,32.3887,213,7.87749,11.5165,0.175,8316
1.64068e-09,-5.39888e-08,-1.67303e-06,-2.69993e-05,-3.10289e-05,-0.00164499,33.7676,33.4053,-0.0472186,16.9087,33.7688,33.4053,-0.0484648,33.637,213,9.98786,12.4278,0.175,8317
-9.84652e-08,-3.53555e-08,-1.67222e-06,-4.16595e-05,-2.72136e-05,-0.00197859,31.2428,32.3612,0.0150685,16.1796,32.3693,31.2395,0.0102131,31.8093,213,13.0904,11.8067,0.175,8318
-1.50502e-07,-2.56496e-08,-1.66947e-06,-5.7598e-05,-2.4758e-05,-0.00197206,29.5947,32.1259,-0.0122271,16.0786,32.1359,29.5938,-0.0212737,30.9645,213,14.1313,11.4396,0.175,8319
-1.27129e-07,-3.15497e-10,-1.6695e-06,-5.06273e-05,-2.36825e-05,-0.00173245,30.8827,33.2321,0.0438747,16.6004,33.2384,30.8827,0.0376301,32.0878,213,13.6822,10.3947,0.175,8320
-1.07541e-07,2.45553e-08,-1.67071e-06,-4.60139e-05,-2.48875e-05,-0.0019771,30.8491,32.4807,0.0120334,16.2396,32.4865,30.848,0.00726383,31.6918,213,13.278,9.37229,0.175,8321
-8.59651e-08,9.93423e-09,-1.67196e-06,-3.94532e-05,-2.46087e-05,-0.0019803,31.5637,32.7092,0.00949088,16.3532,32.7128,31.5633,0.00634031,32.1471,213,12.7684,9.97631,0.175,8322
-7.09878e-08,-1.30211e-08,-1.67253e-06,-3.68141e-05,-2.39243e-05,-0.0019822,31.8558,32.8496,-0.0218485,16.4381,32.8521,31.8554,-0.0240006,32.3893,213,12.3735,10.92,0.175,8323
-6.75624e-08,-3.35389e-08,-1.67285e-06,-3.58581e-05,-2.7019e-05,-0.00164277,32.8174,33.6218,0.01598,16.8074,33.6278,32.8143,0.0130887,33.2154,213,12.2913,11.728,0.175,8324
-5.72088e-08,1.42923e-07,-1.6723e-06,-3.20725e-05,-5.4364e-05,-0.00197306,31.4127,29.6899,-0.0829115,15.7602,31.4281,29.6839,-0.0922427,30.6854,213,12.0711,6.10116,0.175,8325
-2.86625e-08,1.18101e-07,-1.67277e-06,-2.84431e-05,-4.59618e-05,-0.00197842,32.0376,30.6875,-0.136488,16.0931,32.0446,30.6856,-0.141632,31.5287,213,11.1078,6.62144,0.175,8326
-7.10799e-08,1.00484e-07,-1.67267e-06,-3.63572e-05,-3.98811e-05,-0.00197663,31.4077,31.1358,-0.0430017,15.7463,31.4426,31.1078,-0.0499501,31.3265,213,12.4386,6.99609,0.175,8327
-3.09337e-08,7.82592e-08,-1.67288e-06,-2.9256e-05,-3.55093e-05,-0.00198207,32.2989,31.8149,-0.0501788,16.1785,32.3039,31.8128,-0.0531343,32.1143,213,11.1673,7.60119,0.175,8328
-5.90218e-08,6.35082e-08,-1.6728e-06,-3.31394e-05,-3.27636e-05,-0.00222384,31.2714,31.3006,-0.0625805,15.709,31.3522,31.2229,-0.0656965,31.3535,213,12.0608,8.01931,0.175,8329
-8.34437e-08,6.57201e-08,-1.6725e-06,-3.84213e-05,-3.34581e-05,-0.00197795,31.3832,31.7662,-0.0416146,15.9171,31.7876,31.3669,-0.0466722,31.626,213,12.7421,7.93072,0.175,8330
-1.24976e-08,9.60028e-08,-1.67272e-06,-2.68693e-05,-4.09107e-05,-0.00164106,33.4327,32.1575,-0.0409368,16.7407,33.4367,32.1573,-0.0447281,32.8604,213,10.5178,7.13796,0.175,8331
3.86238e-08,1.3393e-07,-1.67185e-06,-2.9014e-05,-5.18044e-05,-0.00221621,31.1746,29.6433,-0.00618196,15.5995,31.1845,29.6417,-0.0145053,30.4569,213,8.64985,6.29002,0.175,8332
5.1183e-08,9.27622e-08,-1.67277e-06,-3.24208e-05,-3.81852e-05,-0.00197854,31.8927,31.4479,-0.0214146,15.9668,31.9075,31.4379,-0.0261515,31.7014,213,8.26069,7.20205,0.175,8333
7.4371e-09,1.18415e-07,-1.67203e-06,-2.68816e-05,-4.62298e-05,-0.00163789,33.2398,31.4771,-0.0599731,16.6556,33.2457,31.4767,-0.0654679,32.4628,213,9.77165,6.62345,0.175,8334
2.92391e-08,6.82586e-08,-1.67288e-06,-2.84362e-05,-3.38095e-05,-0.00198227,32.4456,32.0395,-0.0147772,16.2338,32.4506,32.0368,-0.0170618,32.2627,213,9.00509,7.88913,0.175,8335
6.03036e-09,7.83111e-08,-1.67267e-06,-2.74001e-05,-3.56242e-05,-0.00232134,31.4566,30.9373,-0.0163159,15.739,31.4591,30.9373,-0.0188418,31.2203,213,9.83106,7.6032,0.175,8336
-4.7966e-08,-8.81874e-08,-1.67245e-06,-3.05904e-05,-3.89493e-05,-0.00197846,32.0707,31.4251,-0.00889051,16.0477,32.0822,31.4179,-0.013156,31.7684,213,11.7534,13.4412,0.175,8337
-6.32597e-08,-5.77603e-08,-1.673e-06,-3.48235e-05,-3.03766e-05,-0.00198191,31.851,32.1891,-0.0667734,16.1356,32.202,31.8407,-0.0693295,32.0922,213,12.1933,12.5697,0.175,8338
-1.62187e-08,-7.02845e-08,-1.67277e-06,-2.7634e-05,-3.40215e-05,-0.0023214,31.4783,31.0765,-0.01177,15.7482,31.4824,31.0748,-0.0141248,31.2947,213,10.6507,12.9286,0.175,8339
-4.06242e-08,-3.25871e-08,-1.67297e-06,-2.98694e-05,-2.69752e-05,-0.00198456,32.5033,32.7266,-0.0377156,16.3846,32.7307,32.5001,-0.0386003,32.6546,213,11.4763,11.683,0.175,8340
-1.85175e-08,-4.1991e-08,-1.67303e-06,-2.82953e-05,-2.81702e-05,-0.00198492,32.6291,32.6376,-0.0497915,16.3517,32.6527,32.6147,-0.0505735,32.6843,213,10.7155,12.024,0.175,8341
-1.01435e-07,4.61179e-08,-1.67166e-06,-4.41471e-05,-2.77153e-05,-0.00197752,30.9608,32.2304,0.00388468,16.1197,32.2383,30.9578,-0.00100968,31.6185,213,13.1584,8.56316,0.175,8342
-1.47045e-07,3.42018e-08,-1.66774e-06,-5.49287e-05,-2.66586e-05,-0.00197024,29.8524,32.0357,0.0495014,16.0043,32.0484,29.8493,0.0398282,30.9677,213,14.0722,8.98151,0.175,8343
-1.9446e-07,5.74587e-08,-1.66659e-06,-7.05182e-05,-2.95657e-05,-0.00196335,28.1176,31.2738,0.138031,15.5854,31.2942,28.1118,0.12338,29.7078,213,14.855,8.12725,0.175,8344
1.9442e-07,-2.02818e-08,-1.66834e-06,-7.10767e-05,-2.35067e-05,-0.00230197,27.9665,30.978,0.128103,15.4436,30.9967,27.9665,0.109407,29.4892,213,5.2721,11.2205,0.175,8345
-6.62838e-07,8.78252e-07,-1.41977e-06,-0.000185398,-0.000243481,-0.00333646,25.8538,25.4204,2.33842,13.2302,27.2305,25.6119,0.77015,25.6894,213,19.05,0.15,0.1625,8346
3.67722e-07,9.31926e-07,-1.39074e-06,-0.00011666,-0.000263661,-0.003183,27.9686,26.8716,5.08543,12.7841,29.2803,26.9332,3.71209,24.4792,213,3.05,0.15,0.1625,8347
1.9255e-07,9.80914e-07,-1.40224e-06,-6.56231e-05,-0.000281636,-0.00324176,28.1458,26.5337,4.44325,13.2637,29.5492,26.5518,3.0218,25.1629,213,5.05,0.15,0.1625,8348
9.22695e-08,1.00832e-06,-1.40686e-06,-3.96891e-05,-0.000288192,-0.00320889,28.7536,26.8991,5.1028,13.2064,30.1305,26.9074,3.71762,24.9579,213,7.05,0.15,0.1625,8349
2.76797e-08,1.02029e-06,-1.38845e-06,-2.88741e-05,-0.000289265,-0.00330149,28.1773,26.2341,3.75483,13.614,29.5798,26.2348,2.35169,25.7192,213,9.05,0.15,0.1625,8350
-2.71058e-08,1.02195e-06,-1.39374e-06,-2.84563e-05,-0.000292222,-0.0032304,28.724,26.7556,4.82887,13.4686,30.2444,26.7568,3.30725,25.3738,213,11.05,0.15,0.1625,8351
-9.22809e-08,1.00882e-06,-1.40332e-06,-3.96425e-05,-0.000289176,-0.00318311,28.9509,27.0887,5.49224,13.0744,30.2924,27.0957,4.14369,24.706,213,13.05,0.15,0.1625,8352
-1.92371e-07,9.81069e-07,-1.40013e-06,-6.62077e-05,-0.000280229,-0.00324006,28.1614,26.5642,4.47591,13.2334,29.5423,26.5837,3.0755,25.1185,213,15.05,0.15,0.1625,8353
-3.67699e-07,9.31004e-07,-1.39539e-06,-0.000116294,-0.000262846,-0.00312468,28.4432,27.3495,5.99251,12.6263,29.8138,27.4101,4.56129,24.1406,213,17.05,0.15,0.1625,8354
6.63889e-07,8.78731e-07,-1.42434e-06,-0.00018523,-0.000249154,-0.00313671,27.3953,26.9182,5.36927,12.481,28.7238,27.1972,3.7618,24.2348,213,1.05,0.15,0.1625,8355
7.52638e-07,8.68758e-07,-1.29025e-06,-0.000209707,-0.000239866,-0.00264781,30.9687,30.7436,12.7739,10.9215,32.7417,30.8457,10.8987,20.9594,213,0.55,0.15,0.15625,8356
7.71347e-07,8.84347e-07,-1.32228e-06,-0.000205263,-0.000229206,-0.00298333,28.4613,28.2826,7.72939,11.5279,29.5646,28.4,6.50876,22.4961,213,0.55,0.15,0.16875,8357
5.84653e-07,8.96153e-07,-1.48686e-06,-0.000168569,-0.000249846,-0.00323926,26.8331,26.2265,3.91743,12.8197,28.0612,26.4939,2.4219,24.8927,213,1.55,0.15,0.16875,8358
-7.71851e-07,8.87551e-07,-1.35269e-06,-0.000211692,-0.000237722,-0.00312459,27.1747,26.9804,5.43662,12.5742,28.8113,27.1176,3.66282,24.3458,213,19.55,0.15,0.16875,8359
-7.52112e-07,8.66968e-07,-1.31403e-06,-0.000207686,-0.00023363,-0.00326325,26.1694,25.9758,3.36673,13.2589,27.9888,26.0522,1.47093,25.6046,213,19.55,0.15,0.15625,8360
-5.8282e-07,8.95587e-07,-1.47282e-06,-0.0001654,-0.000252574,-0.00336603,25.8551,25.2046,1.96983,13.2334,27.0441,25.4081,0.57734,25.6879,213,18.55,0.15,0.16875,8361
5.68331e-07,8.75989e-07,-1.44751e-06,-0.000159003,-0.0002483,-0.0030785,28.2673,27.6009,6.48003,12.869,30.1274,27.8313,4.38951,24.6701,213,1.55,0.15,0.15625,8362
-5.67942e-07,8.7458e-07,-1.43247e-06,-0.000159672,-0.000242857,-0.00322097,27.1705,26.5497,4.32499,13.2418,28.8985,26.7317,2.41497,25.4694,213,18.55,0.15,0.15625,8363
4.34501e-07,9.28498e-07,-1.42627e-06,-0.000135622,-0.000262343,-0.00324347,27.2078,26.2621,4.01489,12.8507,28.4075,26.3712,2.70606,24.7462,213,2.55,0.15,0.16875,8364
3.16326e-07,9.57839e-07,-1.40654e-06,-0.000101203,-0.00027234,-0.00310804,28.7321,27.455,6.29302,12.4992,29.9881,27.5024,4.98965,23.8529,213,3.55,0.15,0.16875,8365
4.99695e-07,9.01381e-07,-1.4347e-06,-0.000145184,-0.000253421,-0.00320233,27.4576,26.6498,4.64306,13.3474,29.3273,26.7906,2.63258,25.5211,213,2.05,0.15,0.1625,8366
4.24979e-07,9.04642e-07,-1.38706e-06,-0.000129444,-0.000250909,-0.0031022,28.5137,27.6072,6.32892,13.0315,30.4088,27.6954,4.34571,24.8178,213,2.55,0.15,0.15625,8367
2.29739e-07,9.83607e-07,-1.41848e-06,-7.54517e-05,-0.000285944,-0.00313743,28.7876,27.2167,5.93703,12.9211,30.2695,27.2445,4.42737,24.4703,213,4.55,0.15,0.16875,8368
1.63517e-07,1.00125e-06,-1.42552e-06,-5.68316e-05,-0.000290489,-0.00313174,29.0832,27.3395,6.13615,12.9559,30.5567,27.3572,4.64491,24.4694,213,5.55,0.15,0.16875,8369
3.11026e-07,9.33023e-07,-1.36735e-06,-9.93365e-05,-0.00025867,-0.00325114,27.7346,26.5455,4.21367,13.2344,29.192,26.5787,2.72312,25.2638,213,3.55,0.15,0.15625,8370
2.67677e-07,9.59208e-07,-1.39524e-06,-8.41998e-05,-0.000273448,-0.00320351,28.228,26.8157,4.94956,13.2574,29.8328,26.8425,3.31796,25.1534,213,4.05,0.15,0.1625,8371
2.25752e-07,9.57635e-07,-1.37897e-06,-7.43283e-05,-0.000271137,-0.00329008,27.7119,26.2432,3.7138,13.4917,29.1962,26.2598,2.21287,25.6416,213,4.55,0.15,0.15625,8372
1.14269e-07,1.01472e-06,-1.42841e-06,-4.4328e-05,-0.000290975,-0.00313157,29.2732,27.4325,6.23406,12.8329,30.5818,27.442,4.91597,24.2489,213,6.55,0.15,0.16875,8373
7.43586e-08,1.02391e-06,-1.42386e-06,-3.54038e-05,-0.00029241,-0.00327824,28.2362,26.3182,4.03588,13.2139,29.3463,26.3255,2.91843,25.0545,213,7.55,0.15,0.16875,8374
1.60733e-07,9.75186e-07,-1.38613e-06,-5.56317e-05,-0.000274683,-0.00329063,27.9672,26.3325,3.82543,13.5399,29.4301,26.3449,2.35021,25.6766,213,5.55,0.15,0.15625,8375
1.36511e-07,9.94341e-07,-1.40944e-06,-4.74619e-05,-0.000284332,-0.00319277,28.7924,27.0247,5.31997,13.3201,30.3724,27.0324,3.73221,25.1372,213,6.05,0.15,0.1625,8376
1.12205e-07,9.89113e-07,-1.38897e-06,-4.41388e-05,-0.000278371,-0.00325346,28.4095,26.6615,4.45934,13.5117,29.9428,26.6682,2.91939,25.544,213,6.55,0.15,0.15625,8377
4.27486e-08,1.02973e-06,-1.41326e-06,-3.02089e-05,-0.000292527,-0.00333761,27.8444,25.8868,3.16231,13.5549,29.0578,25.8878,1.94793,25.6721,213,8.55,0.15,0.16875,8378
1.36931e-08,1.03411e-06,-1.40584e-06,-2.79439e-05,-0.000295819,-0.00317304,29.1581,27.159,5.6872,13.1648,30.5873,27.1594,4.25763,24.7941,213,9.55,0.15,0.16875,8379
7.29621e-08,9.98751e-07,-1.38415e-06,-3.43225e-05,-0.000277809,-0.00314457,29.4285,27.6115,6.21775,13.4209,31.2414,27.6166,4.39973,25.2254,213,7.55,0.15,0.15625,8380
5.74759e-08,1.01311e-06,-1.40007e-06,-3.02426e-05,-0.000283126,-0.00323686,28.7174,26.8302,4.78739,13.3843,30.1349,26.8337,3.3664,25.2801,213,8.05,0.15,0.1625,8381
4.18827e-08,1.00447e-06,-1.37306e-06,-2.95947e-05,-0.000280566,-0.00319062,29.1142,27.2413,5.52446,13.5511,30.8697,27.2428,3.76745,25.4831,213,8.55,0.15,0.15625,8382
-1.32811e-08,1.03554e-06,-1.41021e-06,-2.74419e-05,-0.000301036,-0.00313815,29.4012,27.3594,6.18696,13.0518,30.8457,27.3598,4.74207,24.547,213,10.55,0.15,0.16875,8383
-4.20784e-08,1.03104e-06,-1.41502e-06,-2.98401e-05,-0.000292835,-0.00326007,28.4625,26.4999,4.35636,13.2967,29.7057,26.5009,3.11221,25.1447,213,11.55,0.15,0.16875,8384
1.34528e-08,1.00802e-06,-1.36608e-06,-2.74464e-05,-0.000283307,-0.00333233,28.002,26.0926,3.33873,13.8098,29.4801,26.0928,1.86044,26.0914,213,9.55,0.15,0.15625,8385
1.86203e-11,1.02099e-06,-1.38566e-06,-2.58431e-05,-0.000293159,-0.00319259,29.0566,27.0617,5.42417,13.3918,30.6322,27.0617,3.84858,25.1889,213,10.05,0.15,0.1625,8386
-1.30378e-08,1.00899e-06,-1.37069e-06,-2.66198e-05,-0.000286379,-0.0032818,28.391,26.4525,4.09854,13.7267,29.9711,26.4534,2.5176,25.8746,213,10.55,0.15,0.15625,8387
-7.41481e-08,1.02408e-06,-1.41924e-06,-3.58771e-05,-0.000293159,-0.00323096,28.5978,26.6778,4.7539,13.0061,29.6789,26.6838,3.66671,24.6515,213,12.55,0.15,0.16875,8388
-1.14235e-07,1.01508e-06,-1.42574e-06,-4.42557e-05,-0.000291454,-0.00310877,29.4512,27.6065,6.5817,12.6816,30.693,27.6165,5.32989,23.9734,213,13.55,0.15,0.16875,8389
-4.15102e-08,1.0052e-06,-1.37616e-06,-3.00541e-05,-0.000278665,-0.00309238,29.9012,28.0459,7.04799,13.3889,31.8632,28.0464,5.08548,25.088,213,11.55,0.15,0.15625,8390
-5.71987e-08,1.01299e-06,-1.39595e-06,-3.09235e-05,-0.000280894,-0.0031168,29.6765,27.8111,6.64758,12.9868,31.1483,27.8122,5.17475,24.4766,213,12.05,0.15,0.1625,8391
-7.30357e-08,9.98956e-07,-1.38066e-06,-3.44816e-05,-0.00027809,-0.00306321,30.0689,28.251,7.4665,13.1715,31.9373,28.2548,5.59428,24.7084,213,12.55,0.15,0.15625,8392
-1.63315e-07,1.00143e-06,-1.42329e-06,-5.68103e-05,-0.000290581,-0.00312942,29.1012,27.3566,6.17122,12.9327,30.5596,27.3751,4.69428,24.4293,213,14.55,0.15,0.16875,8393
-2.29764e-07,9.835e-07,-1.41774e-06,-7.64089e-05,-0.000282415,-0.00329362,27.5623,26.025,3.55327,13.1846,28.7304,26.049,2.36115,25.1361,213,15.55,0.15,0.16875,8394
-1.12167e-07,9.89561e-07,-1.38653e-06,-4.36544e-05,-0.000278313,-0.00324285,28.5016,26.7504,4.62702,13.4477,30.0093,26.7559,3.11382,25.4254,213,13.55,0.15,0.15625,8395
-1.36311e-07,9.94448e-07,-1.40833e-06,-4.73231e-05,-0.000284416,-0.00318695,28.84,27.0706,5.40997,13.2795,30.4004,27.0789,3.8413,25.0639,213,14.05,0.15,0.1625,8396
-1.60478e-07,9.75304e-07,-1.38396e-06,-5.57263e-05,-0.000274587,-0.00328633,28.0005,26.3672,3.89153,13.4988,29.4385,26.3798,2.44095,25.6056,213,14.55,0.15,0.15625,8397
-3.16449e-07,9.57363e-07,-1.41084e-06,-0.000100621,-0.00027068,-0.00322023,27.8646,26.5955,4.58397,12.7963,28.9987,26.6393,3.40609,24.4983,213,16.55,0.15,0.16875,8398
-4.34511e-07,9.26976e-07,-1.42829e-06,-0.000135485,-0.000262324,-0.00321839,27.4089,26.4623,4.40218,12.7218,28.5751,26.5668,3.13152,24.5012,213,17.55,0.15,0.16875,8399
-2.25614e-07,9.5792e-07,-1.37802e-06,-7.50709e-05,-0.000266935,-0.00314526,28.882,27.4502,5.97017,13.3896,30.8045,27.4726,4.02527,25.2785,213,15.55,0.15,0.15625,8400
-2.67816e-07,9.59144e-07,-1.39686e-06,-8.40356e-05,-0.000266116,-0.00322631,28.1079,26.7491,4.65805,13.2786,29.6471,26.778,3.08997,25.2451,213,16.05,0.15,0.1625,8401
-3.10968e-07,9.32564e-07,-1.37191e-06,-9.87227e-05,-0.000255712,-0.00306138,29.2721,28.1006,7.16276,12.9543,31.1547,28.1345,5.24622,24.5382,213,16.55,0.15,0.15625,8402
-4.99577e-07,8.99588e-07,-1.43195e-06,-0.00014494,-0.000251232,-0.00320896,27.426,26.6328,4.5602,13.1568,29.0786,26.7753,2.76503,25.2409,213,18.05,0.15,0.1625,8403
-4.24852e-07,9.03356e-07,-1.38955e-06,-0.000129621,-0.000249394,-0.0030538,28.9067,28.0129,7.08453,12.8647,30.8167,28.1001,5.08732,24.4844,213,17.55,0.15,0.15625,8404
8.84743e-07,-5.31706e-07,-1.41912e-06,-0.000259621,-0.000139961,-0.00318095,26.7653,27.6583,4.96428,12.168,28.2907,27.1424,3.95476,23.7826,213,0.05,18.39,0.1625,8405
1.03078e-06,-1.48275e-07,-1.36242e-06,-0.000292301,-5.72204e-05,-0.00319008,26.8459,28.6003,5.22072,12.8019,29.6978,26.8751,4.09403,24.3156,213,0.05,14.55,0.1625,8406
1.04572e-06,-6.55518e-08,-1.35713e-06,-0.000292014,-3.21705e-05,-0.00320463,26.9336,28.8727,5.19765,12.6016,29.6361,26.935,4.43287,23.9671,213,0.05,12.63,0.1625,8407
1.05897e-06,-1.19e-08,-1.33547e-06,-0.000303611,-2.81958e-05,-0.00329229,26.0916,28.1469,3.78803,13.3343,29.3015,26.0921,2.6329,25.2176,213,0.05,10.71,0.1625,8408
1.05479e-06,4.20542e-08,-1.33939e-06,-0.000298403,-2.98442e-05,-0.00329594,26.1298,28.1339,3.76011,13.3139,29.2606,26.1306,2.63269,25.209,213,0.05,8.79,0.1625,8409
9.60175e-07,3.90522e-07,-1.35455e-06,-0.000270822,-0.000121432,-0.00319021,26.6664,27.7812,4.87987,12.4908,28.7904,26.7284,3.80871,24.0172,213,0.05,3.03,0.1625,8410
8.91233e-07,6.87204e-07,-1.38454e-06,-0.000247887,-0.000185932,-0.00322715,26.215,26.6774,3.9817,12.1733,27.3133,26.5942,2.96661,23.9952,213,0.05,1.11,0.1625,8411
1.03651e-06,1.07475e-07,-1.36643e-06,-0.0002898,-4.0802e-05,-0.00321428,26.8227,28.6809,4.99825,12.6487,29.4858,26.8277,4.18841,24.0786,213,0.05,6.87,0.1625,8412
1.00897e-06,2.10461e-07,-1.37754e-06,-0.000284465,-7.32633e-05,-0.00317722,26.9413,28.5175,5.35364,12.8937,29.8212,26.9575,4.03373,24.4816,213,0.05,4.95,0.1625,8413
9.83112e-07,-2.91518e-07,-1.37557e-06,-0.000275027,-9.71301e-05,-0.00313899,27.2005,28.5281,5.82766,12.5684,29.734,27.2251,4.59714,23.9811,213,0.05,16.47,0.1625,8414
8.71698e-07,7.72232e-07,-1.26491e-06,-0.000237868,-0.000203404,-0.0027216,30.2393,30.4965,11.7039,10.5799,31.5794,30.4407,10.4197,20.614,213,0.05,0.63,0.15625,8415
8.85703e-07,7.88834e-07,-1.29762e-06,-0.000225327,-0.000201888,-0.00304001,27.9196,28.0945,6.91446,11.4253,28.843,28.0933,5.99231,22.4852,213,0.05,0.63,0.16875,8416
9.14866e-07,6.08735e-07,-1.44268e-06,-0.000245496,-0.000173773,-0.00328641,25.8784,26.4136,3.185,12.4914,27.1424,26.175,2.15959,24.5134,213,0.05,1.59,0.16875,8417
8.28309e-07,-5.81926e-07,-1.39516e-06,-0.000241372,-0.000118638,-0.00250775,32.5531,33.4691,15.6399,13.3447,37.6548,33.042,10.9653,24.7081,213,0.05,18.87,0.15625,8418
8.48305e-07,-6.1479e-07,-1.42434e-06,-0.000244977,-0.000161989,-0.00293661,28.7535,29.3728,8.66667,13.1571,31.9272,29.2528,5.61301,25.0841,213,0.05,18.87,0.16875,8419
9.29166e-07,-4.69859e-07,-1.43264e-06,-0.000258755,-0.00014055,-0.00326887,26.0768,26.959,3.61329,12.311,27.4951,26.281,2.87307,24.0379,213,0.05,17.91,0.16875,8420
8.97859e-07,5.94559e-07,-1.40296e-06,-0.000255056,-0.000166718,-0.00312842,27.0399,27.6992,5.59689,12.2317,28.7191,27.3612,4.25575,23.8134,213,0.05,1.59,0.15625,8421
9.11387e-07,-4.59464e-07,-1.39301e-06,-0.000262353,-0.000139788,-0.00307254,27.5842,28.4988,6.61261,11.9927,29.4512,27.7785,5.46587,23.1943,213,0.05,17.91,0.15625,8422
1.0088e-06,-2.49486e-07,-1.39678e-06,-0.000280754,-8.35492e-05,-0.00297782,28.498,29.9697,8.37066,11.9447,31.1061,28.5156,7.21665,22.7053,213,0.05,15.99,0.16875,8423
9.77368e-07,-3.44228e-07,-1.39915e-06,-0.000271958,-0.00011342,-0.00302882,27.9921,29.1752,7.41848,11.9503,30.2082,28.07,6.30765,22.9064,213,0.05,16.95,0.16875,8424
9.47596e-07,-3.97013e-07,-1.39093e-06,-0.000268739,-0.000130018,-0.00316976,26.7925,27.8278,5.14314,12.856,29.2607,26.9539,3.54881,24.6396,213,0.05,17.43,0.1625,8425
9.54665e-07,-3.38209e-07,-1.36064e-06,-0.00026627,-0.000106185,-0.0032164,26.6497,27.8444,4.63384,13.0197,29.2291,26.7092,3.18969,24.8753,213,0.05,16.95,0.15625,8426
1.04827e-06,-1.23966e-07,-1.37451e-06,-0.000296499,-5.13914e-05,-0.00308343,27.6732,29.5023,6.87516,12.329,30.5044,27.6998,5.84645,23.3821,213,0.05,14.07,0.16875,8427
1.03304e-06,-1.79582e-07,-1.39213e-06,-0.000293942,-6.42449e-05,-0.00301352,28.165,29.8791,7.8696,12.1863,31.0352,28.216,6.66255,23.0925,213,0.05,15.03,0.16875,8428
1.00899e-06,-1.7563e-07,-1.35427e-06,-0.000284822,-6.45605e-05,-0.00324346,26.4796,28.1234,4.40029,13.2185,29.4701,26.5001,3.03305,25.0843,213,0.05,15.03,0.15625,8429
1.00928e-06,-2.10613e-07,-1.38725e-06,-0.000282367,-7.05379e-05,-0.00306275,27.9029,29.4837,7.15371,12.7967,31.1019,27.9299,5.50847,24.1641,213,0.05,15.51,0.1625,8430
9.84739e-07,-2.46404e-07,-1.35932e-06,-0.000269647,-8.4903e-05,-0.00322144,26.7265,28.1052,4.69818,13.1777,29.5706,26.7441,3.2152,25.062,213,0.05,15.99,0.15625,8431
1.06e-06,-5.18105e-08,-1.37781e-06,-0.000292163,-2.69996e-05,-0.00330028,26.2139,28.1928,3.76533,12.9344,28.9128,26.2151,3.04411,24.6309,213,0.05,12.15,0.16875,8432
1.05314e-06,-8.25728e-08,-1.37419e-06,-0.000289427,-3.70033e-05,-0.00308479,27.8853,29.7691,7.02437,12.0612,30.4567,27.8879,6.33424,22.9461,213,0.05,13.11,0.16875,8433
1.02488e-06,-1.21388e-07,-1.33542e-06,-0.000287413,-4.83151e-05,-0.00326752,26.3778,28.1621,4.1382,13.2312,29.3754,26.3898,2.91292,25.1032,213,0.05,14.07,0.15625,8434
1.04032e-06,-1.00842e-07,-1.35076e-06,-0.000289972,-4.12054e-05,-0.00320548,26.8867,28.7431,5.12911,13.0324,29.9674,26.8889,3.9026,24.67,213,0.05,13.59,0.1625,8435
1.03098e-06,-8.16479e-08,-1.33518e-06,-0.00028494,-3.65278e-05,-0.00328276,26.3884,28.2422,4.0166,13.1381,29.2669,26.3896,2.99073,24.9622,213,0.05,13.11,0.15625,8436
1.07213e-06,1.54892e-09,-1.35323e-06,-0.00030726,-2.8158e-05,-0.00331199,25.8795,27.9624,3.45617,13.269,28.9783,25.8795,2.44023,25.1324,213,0.05,10.23,0.16875,8437
1.06857e-06,-2.59292e-08,-1.36379e-06,-0.000306987,-2.90835e-05,-0.00333583,25.6873,27.7612,3.08401,13.3469,28.768,25.6902,2.07427,25.2957,213,0.05,11.19,0.16875,8438
1.0379e-06,-5.07274e-08,-1.33855e-06,-0.000286606,-2.75797e-05,-0.0030908,27.9559,29.8889,7.02907,12.6456,31.1037,27.9577,5.81251,23.8741,213,0.05,12.15,0.15625,8439
1.05407e-06,-3.93617e-08,-1.35776e-06,-0.00029438,-2.62418e-05,-0.00324164,26.6507,28.6518,4.65626,13.2652,29.9163,26.6566,3.38581,25.0602,213,0.05,11.67,0.1625,8440
1.04418e-06,-2.51327e-08,-1.32359e-06,-0.000295508,-2.8158e-05,-0.00320146,26.9368,28.932,5.25065,13.3456,30.4355,26.9396,3.74432,25.1263,213,0.05,11.19,0.15625,8441
1.06152e-06,5.73571e-08,-1.36854e-06,-0.000298554,-3.21354e-05,-0.00334551,25.7162,27.7044,2.97775,13.347,28.686,25.7205,1.99188,25.3418,213,0.05,8.31,0.16875,8442
1.06999e-06,2.83418e-08,-1.35569e-06,-0.000303785,-2.82412e-05,-0.0033129,25.9251,27.9814,3.46907,13.2674,28.9926,25.9252,2.45783,25.1418,213,0.05,9.27,0.16875,8443
1.04797e-06,1.48832e-09,-1.31309e-06,-0.000296951,-2.72757e-05,-0.003189,27.0204,29.0329,5.438,13.2757,30.5111,27.0204,3.95972,24.9896,213,0.05,10.23,0.15625,8444
1.06123e-06,1.47073e-08,-1.33672e-06,-0.000301198,-2.65078e-05,-0.00321622,26.7453,28.7952,4.99145,13.167,30.06,26.746,3.72599,24.8433,213,0.05,9.75,0.1625,8445
1.04609e-06,2.77621e-08,-1.31553e-06,-0.000294363,-2.85249e-05,-0.0031981,26.9782,28.9621,5.30854,13.2568,30.392,26.9785,3.87837,24.9824,213,0.05,9.27,0.15625,8446
1.05133e-06,8.9599e-08,-1.38088e-06,-0.000288742,-3.63507e-05,-0.00329975,26.1967,28.0802,3.72648,12.9042,28.8047,26.2025,2.99627,24.6107,213,0.05,7.35,0.16875,8447
1.0412e-06,1.28977e-07,-1.39802e-06,-0.000286396,-4.57277e-05,-0.00328024,26.3131,28.1091,3.97092,12.9009,28.9352,26.3245,3.13347,24.6005,213,0.05,6.39,0.16875,8448
1.03823e-06,5.60029e-08,-1.32762e-06,-0.000289725,-3.02691e-05,-0.0032502,26.6226,28.5589,4.52957,13.3807,29.9224,26.6276,3.1611,25.2755,213,0.05,8.31,0.15625,8449
1.04506e-06,7.19167e-08,-1.36163e-06,-0.000288582,-3.27782e-05,-0.00332082,26.0604,27.9693,3.43172,13.3779,29.0715,26.0742,2.31575,25.3901,213,0.05,7.83,0.1625,8450
1.03016e-06,8.80121e-08,-1.34062e-06,-0.000286272,-3.77536e-05,-0.00316134,27.321,29.1756,5.86521,12.752,30.2694,27.3271,4.76538,24.1675,213,0.05,7.35,0.15625,8451
1.01119e-06,2.4977e-07,-1.38796e-06,-0.000287174,-8.3907e-05,-0.00324874,26.2482,27.7651,4.14699,12.9013,28.8451,26.2727,3.04255,24.6173,213,0.05,4.47,0.16875,8452
1.02891e-06,1.79261e-07,-1.40615e-06,-0.000290195,-6.27136e-05,-0.00326455,26.2444,27.942,4.04772,13.11,29.0981,26.258,2.87807,24.9216,213,0.05,5.43,0.16875,8453
1.01887e-06,1.26753e-07,-1.35946e-06,-0.000281453,-4.30062e-05,-0.00306201,28.1411,29.9206,7.3907,12.5888,31.2392,28.1516,6.06161,23.7846,213,0.05,6.39,0.15625,8454
1.0237e-06,1.49875e-07,-1.39761e-06,-0.00028058,-4.98471e-05,-0.00311955,27.6441,29.366,6.45779,13.0309,30.9343,27.6611,4.87251,24.5891,213,0.05,5.91,0.1625,8455
1.00409e-06,1.762e-07,-1.36805e-06,-0.000276433,-6.32687e-05,-0.00300735,28.4911,30.0819,8.11121,12.8461,31.9363,28.5038,6.24407,24.1596,213,0.05,5.43,0.15625,8456
9.54586e-07,4.57128e-07,-1.3887e-06,-0.000265856,-0.000141741,-0.00305507,27.6533,28.5796,6.8383,11.9074,29.5434,27.7991,5.72869,22.9922,213,0.05,2.55,0.16875,8457
9.85781e-07,3.38589e-07,-1.37088e-06,-0.000276872,-0.000104643,-0.00328142,25.9832,27.2685,3.56122,12.7683,28.1632,26.0232,2.62656,24.5367,213,0.05,3.51,0.16875,8458
9.63516e-07,3.33934e-07,-1.33295e-06,-0.000267861,-0.000103941,-0.00301515,28.2387,29.462,7.73654,12.3423,30.9234,28.2749,6.23885,23.4727,213,0.05,3.51,0.15625,8459
9.89237e-07,2.90337e-07,-1.3613e-06,-0.000276339,-8.96923e-05,-0.00309688,27.5731,28.966,6.52432,12.6098,30.3386,27.6058,5.11898,23.9704,213,0.05,3.99,0.1625,8460
9.87269e-07,2.46249e-07,-1.34996e-06,-0.000274664,-8.25658e-05,-0.00299626,28.4533,29.8868,8.14282,12.6246,31.6285,28.4752,6.37924,23.8296,213,0.05,4.47,0.15625,8461
9.32504e-07,4.48881e-07,-1.34985e-06,-0.000260874,-0.000135088,-0.00324425,26.2827,27.2214,4.01872,12.9073,28.4803,26.3768,2.66575,24.8297,213,0.05,2.55,0.15625,8462
9.26816e-07,5.23696e-07,-1.39602e-06,-0.000258883,-0.000153106,-0.00316135,26.8279,27.6172,5.16769,12.8673,29.1701,27.0072,3.43547,24.7242,213,0.05,2.07,0.1625,8463
-9.10872e-09,1.46286e-08,-1.58077e-06,-2.66133e-05,-2.39687e-05,-0.00232691,31.8091,31.9811,-0.0209121,16.0011,31.9812,31.8091,-0.0210336,31.9165,213,10.39,9.77922,0.15,8464
1.44367e-07,1.44204e-07,-1.57952e-06,-5.29937e-05,-5.21385e-05,-0.00207115,29.075,29.139,-0.0738312,14.7135,29.3341,28.899,-0.0929515,29.2119,213,5.88357,5.92373,0.15,8465
1.43107e-07,-8.85673e-08,-1.58019e-06,-5.31346e-05,-3.64405e-05,-0.00135274,30.7134,32.4248,-0.0455688,16.2598,32.4627,30.6867,-0.0568673,31.669,213,5.96166,13.5953,0.15,8466
-1.5521e-07,-9.6164e-08,-1.58038e-06,-5.62711e-05,-3.82498e-05,-0.00181561,29.5103,31.0268,-0.0365835,15.5555,31.0608,29.4899,-0.0502488,30.3561,213,14.3722,13.7906,0.15,8467
-1.55049e-07,1.52024e-07,-1.57916e-06,-5.66668e-05,-5.40575e-05,-0.00220474,28.4903,28.6668,-0.0799471,14.4606,28.8186,28.3613,-0.102715,28.6954,213,14.4218,5.76773,0.15,8468
1.25898e-09,-1.63946e-07,-1.57652e-06,-2.39655e-05,-5.88755e-05,-0.00197185,32.2111,29.4881,0.0938015,16.0668,32.2193,29.4881,0.0856395,30.8588,213,9.99692,15.0579,0.15,8469
-1.38114e-09,2.50959e-07,-1.57379e-06,-2.39733e-05,-8.48267e-05,-0.00162189,32.3436,26.7964,0.229338,16.0799,32.3664,26.7964,0.206558,29.7683,213,10.097,4.485,0.15,8470
-2.70075e-07,1.34008e-08,-1.57055e-06,-8.96841e-05,-2.23842e-05,-0.0022542,26.3817,30.7302,0.23816,15.2801,30.7647,26.3809,0.204522,28.6212,213,15.8271,9.75,0.15,8471
2.89131e-07,1.52563e-08,-1.56912e-06,-9.70238e-05,-2.20775e-05,-0.00207645,25.5112,30.9412,0.0965307,15.4522,30.9713,25.5108,0.0668727,28.5683,213,4.07365,9.67275,0.15,8472
3.29555e-07,3.22286e-07,-1.57016e-06,-0.000108014,-0.00010775,-0.00193222,21.3689,21.4625,-0.305074,11.3002,22.2096,20.7076,-0.390853,21.8881,213,3.38709,3.46936,0.15,8473
3.36685e-07,-2.1113e-07,-1.56774e-06,-0.00011122,-6.92743e-05,-0.00230992,22.4808,25.111,-1.70266,13.5059,25.2527,22.3955,-1.75915,25.7027,213,3.38709,16.0306,0.15,8474
-3.36075e-07,3.30277e-07,-1.5686e-06,-0.000110364,-0.000110289,-0.00153169,19.9486,20.0305,-0.239197,10.6527,20.9716,19.1022,-0.333869,20.435,213,16.7797,3.39273,0.15,8475
-3.43157e-07,-2.16144e-07,-1.56831e-06,-0.00011294,-7.13492e-05,-0.00220669,22.009,24.8434,-1.6416,13.3555,25.0065,21.9089,-1.70456,25.3048,213,16.7797,16.1073,0.15,8476
8.91369e-08,3.22171e-08,-1.5808e-06,-3.91883e-05,-2.50554e-05,-0.00186905,31.8541,33.0068,-0.0444326,16.5302,33.0125,31.852,-0.0480002,32.4958,213,7.18303,9.04673,0.15,8477
4.07969e-07,9.44104e-08,-1.58489e-06,-0.000133673,-3.79739e-05,-0.00137617,19.1453,28.7757,-0.381649,14.6784,28.8853,19.1256,-0.4715,25.8952,213,2.96683,6.87,0.15,8478
4.06778e-07,-5.99488e-08,-1.58097e-06,-0.000134332,-2.85946e-05,-0.00209542,21.452,28.9595,-0.43007,14.7518,29.0169,21.4512,-0.48666,26.5421,213,3.02685,12.7856,0.15,8479
7.68619e-08,3.83929e-07,-1.58153e-06,-3.39249e-05,-0.000128734,-0.00147597,29.5975,20.3972,0.0972821,14.7984,29.6489,20.3909,0.052145,26.2235,213,7.26006,3.17871,0.15,8480
7.53361e-08,-2.50668e-07,-1.58036e-06,-3.34981e-05,-8.53244e-05,-0.00214093,29.7109,26.0254,-0.703054,15.2451,29.7571,26.0092,-0.733029,28.7997,213,7.26015,16.3211,0.15,8481
-7.83806e-08,3.93493e-07,-1.57856e-06,-3.42878e-05,-0.000130302,-0.00159774,29.396,20.5759,0.310078,14.5915,29.4474,20.5703,0.264317,25.9112,213,12.8764,3.10822,0.15,8482
-7.17795e-08,-2.57039e-07,-1.5794e-06,-3.30859e-05,-8.7749e-05,-0.00149844,31.0992,25.8282,-0.310537,15.7456,31.1485,25.8109,-0.342603,29.1907,213,12.7497,16.3862,0.15,8483
-4.0028e-07,9.91202e-08,-1.58757e-06,-0.00013065,-3.88987e-05,-0.00209153,21.2691,27.8919,-0.698765,14.3717,27.9734,21.2587,-0.7699,26.0435,213,17.0908,6.75044,0.15,8484
-4.25053e-07,-5.57018e-08,-1.58798e-06,-0.00013738,-2.76332e-05,-0.00209486,20.6307,28.5854,-1.28447,14.9811,28.6312,20.6313,-1.33089,26.8707,213,17.2098,12.63,0.15,8485
3.69179e-08,-4.9924e-08,-1.58097e-06,-2.92143e-05,-2.84992e-05,-0.00198488,32.5188,32.5744,-0.0367776,16.3149,32.5915,32.5033,-0.0383752,32.5859,213,8.7033,12.3379,0.15,8486
-1.00239e-07,-1.44371e-08,-1.5796e-06,-4.22433e-05,-2.3269e-05,-0.00180991,31.7129,33.3111,0.012657,16.6541,33.3163,31.7122,0.0081365,32.5358,213,13.1726,10.9987,0.15,8487
-4.69725e-08,9.50668e-08,-1.58104e-06,-3.03736e-05,-3.85227e-05,-0.00147063,33.5663,32.7707,-0.0483845,16.8167,33.5805,32.761,-0.0529543,33.2313,213,11.7573,7.08467,0.15,8488
2.57837e-08,9.54255e-08,-1.58051e-06,-2.71354e-05,-3.92617e-05,-0.00198075,32.4091,31.4695,-0.0520396,16.2354,32.4147,31.4679,-0.0560615,32.0079,213,9.08488,7.0887,0.15,8489
-3.63143e-08,-5.54321e-08,-1.58097e-06,-2.87158e-05,-2.97023e-05,-0.00198425,32.5274,32.4504,-0.0555794,16.3013,32.5455,32.4338,-0.057115,32.5469,213,11.3783,12.5247,0.15,8490
-1.35633e-07,5.57705e-08,-1.57855e-06,-5.14452e-05,-2.87038e-05,-0.00168982,30.6787,32.7022,0.0216783,16.3515,32.7164,30.6727,0.0134769,31.7305,213,13.9526,8.17238,0.15,8491
1.34941e-07,-1.66181e-08,-1.5796e-06,-5.09408e-05,-2.2553e-05,-0.00197801,30.3685,32.5544,-0.00938428,16.2884,32.561,30.3684,-0.0158588,31.5378,213,6.18808,11.0826,0.15,8492
1.72301e-08,5.10213e-07,-1.59218e-06,-2.33931e-05,-0.000163548,-0.00224003,28.1779,18.8494,-0.993047,14.7839,28.3764,18.8492,-1.19132,26.1404,213,9.35422,2.36281,0.15,8493
1.48316e-08,-3.36518e-07,-1.59171e-06,-2.19779e-05,-0.000115314,-0.00189494,30.2383,22.3265,-1.22572,15.7435,30.2505,22.325,-1.23644,28.3671,213,9.38374,17.1329,0.15,8494
-5.41576e-07,3.15189e-08,-1.6127e-06,-0.000175648,-2.285e-05,-0.00208269,16.9539,28.0729,-1.11405,14.7994,28.2802,16.9512,-1.31861,25.8672,213,17.9385,8.99183,0.15,8495
5.555e-07,3.4801e-08,-1.61583e-06,-0.000176612,-2.34369e-05,-0.00220223,16.9514,27.5104,-1.92086,14.9853,27.781,16.9496,-2.18967,26.2857,213,2.09057,8.83361,0.15,8496
1.66694e-07,5.27343e-07,-1.60794e-06,-5.73314e-05,-0.000172321,-0.00203833,24.3144,15.7829,-1.95695,13.463,24.6476,15.7713,-2.2785,23.7655,213,5.26667,2.11727,0.15,8497
1.5782e-07,-3.44744e-07,-1.59956e-06,-5.78998e-05,-0.00012317,-0.00194164,25.4192,19.8529,-2.18031,13.8465,25.5086,19.7677,-2.1845,25.3156,213,5.26668,17.3827,0.15,8498
-1.69665e-07,5.21704e-07,-1.60746e-06,-5.79302e-05,-0.000170825,-0.00198395,23.9047,15.0898,-2.5446,13.5426,24.2296,15.076,-2.85563,23.8635,213,14.8803,2.14462,0.15,8499
-1.51911e-07,-3.23214e-07,-1.59049e-06,-5.58721e-05,-0.00011569,-0.00225313,26.3767,22.123,-0.879687,13.6889,26.4655,22.0667,-0.9122,25.4649,213,14.701,17.1977,0.15,8500
5.74861e-07,-1.20387e-07,-1.61608e-06,-0.000184519,-4.29737e-05,-0.00215384,16.6789,26.2725,-0.00773932,13.4817,26.6076,16.6917,-0.355677,23.6216,213,1.91436,14.4084,0.15,8501
5.59307e-07,1.84926e-07,-1.6164e-06,-0.000182498,-5.99156e-05,-0.00219351,14.6792,23.2349,-3.43562,13.6636,23.5648,14.6761,-3.76244,24.143,213,1.93343,5.0641,0.15,8502
-5.83308e-07,-1.22678e-07,-1.61213e-06,-0.00018703,-4.27508e-05,-0.00190517,13.3645,25.2045,-1.856,13.8678,25.5374,13.3738,-2.19818,24.0801,213,18.2312,14.4365,0.15,8503
-5.68774e-07,1.85451e-07,-1.61416e-06,-0.00018501,-5.99098e-05,-0.00191579,11.9726,22.3321,-4.38182,13.6875,22.665,11.9679,-4.71005,23.8954,213,18.219,5.05128,0.15,8504
5.41898e-08,-1.08576e-07,-1.5794e-06,-3.04682e-05,-4.27517e-05,-0.00237458,30.8517,30.098,0.0331399,15.4195,30.8658,30.0902,0.0268344,30.4586,213,8.08321,14.0125,0.15,8505
4.95527e-08,1.75006e-07,-1.57875e-06,-2.91391e-05,-6.18995e-05,-0.00145949,32.8693,29.6495,0.0392694,16.4314,32.8874,29.6462,0.0244884,31.3681,213,8.21483,5.49134,0.15,8506
-2.06641e-07,-3.61787e-08,-1.57636e-06,-7.04062e-05,-2.44149e-05,-0.00185273,28.3455,32.1095,0.091743,16.0271,32.1291,28.3428,0.0748549,30.3388,213,15.09,11.8805,0.15,8507
1.79047e-07,5.83339e-08,-1.57803e-06,-6.30654e-05,-2.92258e-05,-0.00184565,29.0317,31.8236,0.0559649,15.9003,31.8424,29.027,0.0418617,30.4905,213,5.40514,8.05162,0.15,8508
-5.72802e-08,-1.24316e-07,-1.57917e-06,-3.05973e-05,-4.66164e-05,-0.00208826,31.5286,30.3649,0.0429331,15.7542,31.5443,30.3563,0.0358652,30.9315,213,12.1285,14.3577,0.15,8509
-6.45193e-08,1.98497e-07,-1.57847e-06,-3.17665e-05,-6.81033e-05,-0.00196493,31.0363,28.2392,-0.0352031,15.5563,31.0595,28.234,-0.0531424,29.8005,213,12.385,5.11765,0.15,8510
5.58151e-07,-1.39885e-08,-1.61185e-06,-0.000174902,-2.18005e-05,-0.00189298,15.026,27.6333,-2.98973,15.591,27.9129,15.0258,-3.26912,27.1394,213,2.08465,10.966,0.15,8511
4.991e-07,-3.30098e-07,-1.62953e-06,-0.000169238,-0.000105704,-0.00207486,15.4834,19.7842,-0.559032,10.638,20.3327,15.3192,-0.943348,19.265,213,2.01718,17.3924,0.15,8512
4.96857e-07,4.9004e-07,-1.61844e-06,-0.000161536,-0.000154653,-0.00209182,13.9588,14.4489,-2.53154,9.56515,15.9329,13.1407,-3.19743,17.8983,213,2.01718,2.10758,0.15,8513
-6.38655e-07,-1.80708e-08,-1.6241e-06,-0.000204514,-2.21653e-05,-0.00187894,11.7834,26.9353,-2.22487,14.9761,27.3318,11.7824,-2.62043,25.9458,213,18.4502,11.1247,0.15,8514
-6.83918e-08,3.49685e-08,-1.58037e-06,-3.43741e-05,-2.53451e-05,-0.0018704,32.3874,33.1191,-0.0441705,16.5855,33.1244,32.3845,-0.0465613,32.8073,213,12.3642,8.95394,0.15,8515
1.66249e-07,-1.76047e-07,-1.57221e-06,-6.0916e-05,-6.10709e-05,-0.00195503,28.1415,28.1234,0.0467108,14.2697,28.5639,27.7232,0.0245077,28.1285,213,5.41406,15.4175,0.15,8516
1.65505e-07,2.73504e-07,-1.57379e-06,-5.92435e-05,-9.26647e-05,-0.00169617,27.5701,24.6624,0.261831,13.7359,27.6883,24.5895,0.216524,26.0609,213,5.40069,4.08489,0.15,8517
-5.03075e-07,4.94649e-07,-1.63099e-06,-0.000167088,-0.000156325,-0.00258927,16.1164,16.6666,-2.96599,10.7887,17.8951,15.6042,-3.68233,20.5281,213,18.1358,2.06232,0.15,8518
-5.06618e-07,-3.35475e-07,-1.63185e-06,-0.000174419,-0.000109357,-0.00201391,13.0497,17.8232,-2.86674,10.8614,18.4216,12.8858,-3.30126,19.5518,213,18.1358,17.4377,0.15,8519
-2.86657e-07,-1.03372e-07,-1.57561e-06,-9.80678e-05,-3.92164e-05,-0.00138379,24.182,30.1273,-0.0576006,15.1303,30.1703,24.1717,-0.0902466,27.7518,213,16.0973,14.0529,0.15,8520
-2.87865e-07,1.75748e-07,-1.57173e-06,-9.59234e-05,-6.02652e-05,-0.00194983,24.1796,26.984,-0.23839,13.6855,27.0834,24.1295,-0.287631,26.0201,213,16.1743,5.25143,0.15,8521
-3.49455e-08,6.09283e-07,-1.62369e-06,-2.55897e-05,-0.000191699,-0.00233432,26.6979,16.1958,-2.15937,14.8002,27.0695,16.1956,-2.53078,25.9335,213,11.4465,1.79471,0.15,8522
-3.06499e-08,-4.04337e-07,-1.60923e-06,-2.24827e-05,-0.000134527,-0.0023268,28.3062,20.4559,-2.25409,15.2931,28.3204,20.4534,-2.26584,27.5098,213,11.4303,17.7037,0.15,8523
4.70046e-08,-6.97032e-09,-1.58094e-06,-3.00509e-05,-2.33313e-05,-0.00186561,32.9672,33.5179,-0.0454394,16.7826,33.5189,32.9671,-0.0462931,33.2927,213,8.39503,10.6751,0.15,8524
2.62046e-07,-2.31957e-08,-1.57398e-06,-8.80107e-05,-2.2695e-05,-0.00211278,26.3293,30.9767,-0.093431,15.563,31.0047,26.329,-0.121202,29.0715,213,4.35613,11.3584,0.15,8525
-2.59786e-07,5.63742e-08,-1.57356e-06,-8.65807e-05,-2.90034e-05,-0.00208139,26.405,30.5549,0.133367,15.243,30.5896,26.4002,0.103475,28.6223,213,15.7574,8.08211,0.15,8526
2.8132e-07,-1.09436e-07,-1.57486e-06,-9.59235e-05,-4.17513e-05,-0.00194627,25.0077,29.1838,0.132283,14.571,29.2342,24.9973,0.0922806,27.2715,213,4.05164,14.1985,0.15,8527
2.91052e-07,1.71188e-07,-1.57067e-06,-9.74671e-05,-5.89206e-05,-0.00219301,24.4187,27.0263,-0.217724,13.6876,27.1123,24.3779,-0.262906,26.1156,213,3.90127,5.32067,0.15,8528
-1.58701e-07,2.70325e-07,-1.57385e-06,-5.65818e-05,-9.17186e-05,-0.00203449,27.738,25.1737,0.306668,13.7814,27.8293,25.1225,0.266552,26.314,213,14.5862,4.1304,0.15,8529
-1.94973e-07,-1.65285e-07,-1.57308e-06,-7.06695e-05,-5.83157e-05,-0.00177543,27.3839,28.4426,0.428687,14.1119,28.6254,27.2283,0.4015,27.5519,213,15.0966,15.2601,0.15,8530
7.81227e-08,8.55963e-08,-1.58082e-06,-3.58656e-05,-3.60936e-05,-0.00209288,31.2519,31.2459,-0.0775112,15.7138,31.3444,31.159,-0.08315,31.3353,213,7.43649,7.31541,0.15,8531
-9.14785e-08,-5.73657e-08,-1.58071e-06,-3.93433e-05,-2.98974e-05,-0.00182503,31.7747,32.557,-0.0534235,16.315,32.5717,31.7649,-0.0583066,32.2342,213,13.0083,12.6146,0.15,8532
7.96154e-08,6.4037e-07,-1.61976e-06,-3.3984e-05,-0.000200039,-0.00169043,25.4201,10.4939,-3.09002,14.8269,25.9926,10.4927,-3.66131,25.6898,213,7.19619,1.59176,0.15,8533
7.00458e-08,-4.23917e-07,-1.60909e-06,-2.99646e-05,-0.000133996,-0.00228359,28.3193,21.3365,-0.895725,14.6638,28.3848,21.3181,-0.942782,26.5103,213,7.20211,17.9073,0.15,8534
3.09939e-08,4.25643e-08,-1.58089e-06,-2.82011e-05,-2.71179e-05,-0.00170254,33.5788,33.6754,-0.0316024,16.8576,33.6825,33.5728,-0.0327331,33.6605,213,8.9253,8.68955,0.15,8535
2.79371e-07,-3.76851e-07,-1.60577e-06,-0.000100202,-0.000120612,-0.00270618,21.9983,20.6313,-2.50165,12.4256,22.3253,20.3286,-2.52591,23.9154,213,3.59953,17.7639,0.15,8536
2.93059e-07,5.72703e-07,-1.62401e-06,-9.49259e-05,-0.00018287,-0.00210442,20.5722,14.4777,-1.1207,11.3478,21.1198,14.3852,-1.57582,20.1891,213,3.59953,1.73614,0.15,8537
-2.92058e-07,5.68518e-07,-1.61978e-06,-9.45999e-05,-0.0001833,-0.00263057,21.5367,16.9713,-2.07,12.2747,22.037,16.9134,-2.51242,22.4309,213,16.4954,1.75782,0.15,8538
-2.7967e-07,-3.73317e-07,-1.60441e-06,-9.97131e-05,-0.000121084,-0.00269346,22.1493,20.7806,-2.30175,12.3926,22.4636,20.4863,-2.32168,23.8581,213,16.4954,17.7422,0.15,8539
6.84668e-07,9.50088e-08,-1.60553e-06,-0.000215035,-3.79305e-05,-0.00199275,10.8284,24.4646,-3.12076,14.4996,25.1715,10.8286,-3.8278,25.1146,213,1.38499,6.88609,0.15,8540
6.85568e-07,-5.96679e-08,-1.62409e-06,-0.00021598,-3.01856e-05,-0.00207606,12.3565,25.8203,-1.9656,14.5473,26.474,12.3576,-2.62047,25.2003,213,1.40382,12.6686,0.15,8541
-8.47221e-08,6.65484e-07,-1.61898e-06,-3.55355e-05,-0.000207401,-0.00199969,25.0438,11.7343,-2.85575,14.5878,25.6789,11.7402,-3.49673,25.2751,213,13.0606,1.46951,0.15,8542
-7.13932e-08,-4.35499e-07,-1.60941e-06,-3.14191e-05,-0.000135179,-0.00222035,27.8159,20.3322,-1.93633,14.9325,27.883,20.3107,-1.98193,26.8907,213,12.9962,17.9975,0.15,8543
-3.29481e-11,-2.79487e-08,-1.58093e-06,-2.6692e-05,-2.48685e-05,-0.00211782,32.472,32.6012,-0.0312301,16.3165,32.6015,32.472,-0.031539,32.5685,213,10.0527,11.5232,0.15,8544
-1.50731e-07,1.34533e-08,-1.57506e-06,-5.58105e-05,-2.28295e-05,-0.00168846,30.3892,33.3148,0.122323,16.6059,33.3248,30.3884,0.113084,31.8452,213,14.1917,9.79064,0.15,8545
-7.06753e-07,-5.94377e-08,-1.61097e-06,-0.000222435,-3.07296e-05,-0.0021077,11.2389,25.1678,-2.85458,14.735,25.8879,11.2462,-3.58205,25.5219,213,18.7965,12.673,0.15,8546
-6.81471e-07,9.46127e-08,-1.60113e-06,-0.000215673,-3.81737e-05,-0.00196635,10.9976,24.7108,-2.52317,14.2884,25.381,11,-3.19578,24.7484,213,18.7047,6.89622,0.15,8547
3.11932e-07,5.34219e-08,-1.57309e-06,-0.000104434,-2.83042e-05,-0.00195115,24.4081,30.3189,0.0223289,15.1944,30.3669,24.4043,-0.0218551,27.8896,213,3.82305,8.15919,0.15,8548
8.16027e-08,-4.97197e-08,-1.5811e-06,-3.72319e-05,-2.83476e-05,-0.0017688,32.2312,32.9941,-0.043924,16.5265,33.0049,32.2245,-0.0480919,32.6698,213,7.35995,12.358,0.15,8549
-1.05032e-08,1.3784e-07,-1.58034e-06,-2.52818e-05,-5.0538e-05,-0.00221805,31.551,29.8557,-0.00947459,15.7889,31.5597,29.8556,-0.0181108,30.7612,213,10.4584,6.15821,0.15,8550
-3.87968e-07,-1.18814e-08,-1.58402e-06,-0.000126163,-2.16615e-05,-0.00210401,22.1104,29.6542,-0.951924,15.358,29.7092,22.1102,-1.00672,27.7092,213,16.9031,10.8754,0.15,8551
-2.8932e-08,3.64898e-07,-1.57459e-06,-2.50843e-05,-0.00012129,-0.00194561,29.9746,22.5473,-0.486967,15.2992,30.0435,22.5463,-0.554893,27.6237,213,11.2318,3.37368,0.15,8552
-2.72636e-08,-2.3453e-07,-1.57836e-06,-2.48869e-05,-7.91714e-05,-0.00211694,30.9082,27.0134,-0.398626,15.676,30.9329,27.0092,-0.419139,29.586,213,11.1837,16.0858,0.15,8553
2.39695e-07,1.02044e-07,-1.57448e-06,-8.30465e-05,-4.07265e-05,-0.00194929,26.463,29.7299,0.250998,14.7736,29.7705,26.45,0.223304,28.0349,213,4.52797,6.75511,0.15,8554
1.60668e-07,1.81513e-08,-1.57696e-06,-5.85134e-05,-2.32495e-05,-0.00213961,29.3226,31.7993,0.105844,15.8572,31.81,29.3221,0.0956163,30.5465,213,5.72964,9.58439,0.15,8555
-1.40581e-08,5.96547e-08,-1.58076e-06,-2.66668e-05,-3.02699e-05,-0.00198494,32.744,32.4696,-0.0333219,16.3904,32.7459,32.4693,-0.0348986,32.6434,213,10.5772,8.1177,0.15,8556
3.27407e-09,-8.27667e-08,-1.58046e-06,-2.52872e-05,-3.58363e-05,-0.00198199,32.7225,31.9046,-0.0039329,16.3661,32.7254,31.9046,-0.006864,32.3297,213,9.92303,13.3324,0.15,8557
3.52947e-08,-2.01376e-07,-1.57391e-06,-2.64562e-05,-7.12838e-05,-0.00179049,32.0992,28.3116,0.309511,15.9166,32.1227,28.3081,0.289523,30.1077,213,8.64795,15.6519,0.15,8558
3.57145e-08,3.1046e-07,-1.56746e-06,-2.62499e-05,-0.000104039,-0.00225663,29.8353,24.8369,-0.130455,15.0258,29.8783,24.8368,-0.173377,27.875,213,8.65836,3.8501,0.15,8559
-4.28727e-08,-1.09497e-08,-1.58077e-06,-2.99383e-05,-2.33882e-05,-0.00211677,32.1861,32.6545,-0.0323029,16.3443,32.6555,32.1859,-0.0331008,32.4563,213,11.5743,10.8414,0.15,8560
6.34051e-07,-2.0964e-07,-1.61022e-06,-0.000206233,-6.82439e-05,-0.00131686,6.93999,21.1134,-1.38448,11.9317,21.7773,6.97767,-2.08604,20.8643,213,1.50802,15.9295,0.15,8561
6.17331e-07,3.01096e-07,-1.62214e-06,-0.000199027,-9.65403e-05,-0.0018094,8.95759,17.6311,-4.40214,11.746,18.3609,8.95682,-5.13116,20.4791,213,1.50802,3.57052,0.15,8562
-6.2158e-07,3.08368e-07,-1.6235e-06,-0.000198818,-9.89929e-05,-0.00182224,9.2627,17.6214,-4.02795,11.6049,18.3982,9.26951,-4.8116,20.2523,213,18.6175,3.49824,0.15,8563
-6.37693e-07,-2.14837e-07,-1.61083e-06,-0.000207854,-6.98688e-05,-0.00170835,9.3284,21.4863,-1.29557,12.0424,22.1407,9.32256,-1.94414,20.8725,213,18.6175,16.0018,0.15,8564
-9.49588e-08,1.00666e-07,-1.58034e-06,-4.01267e-05,-4.01277e-05,-0.00248418,29.8089,29.8074,-0.0446918,14.9803,29.9066,29.7189,-0.0538824,29.8671,213,13.12,6.9075,0.15,8565
-2.31305e-07,1.00505e-07,-1.57562e-06,-7.97806e-05,-4.01277e-05,-0.00225847,26.8099,29.3745,0.252212,14.5916,29.41,26.7999,0.226708,27.9697,213,15.4794,6.80482,0.15,8566
9.81319e-08,-1.55711e-07,-1.57831e-06,-4.08359e-05,-5.60179e-05,-0.00196685,30.4436,29.2728,-0.00782924,15.2628,30.5041,29.226,-0.0215506,29.9071,213,6.80278,14.9971,0.15,8567
9.72158e-08,2.43363e-07,-1.57583e-06,-4.0345e-05,-8.34531e-05,-0.00195193,29.6913,26.3751,0.0784368,14.8444,29.7359,26.3618,0.0470601,28.1539,213,6.80389,4.50122,0.15,8568
2.30138e-07,-5.79015e-08,-1.57748e-06,-8.0468e-05,-2.91513e-05,-0.00158405,27.1362,31.9007,0.193485,15.8803,31.9303,27.1305,0.169674,29.6535,213,4.68514,12.7039,0.15,8569
6.36917e-07,-4.59895e-07,-1.61388e-06,-0.000212311,-0.000110752,-0.00244534,6.53557,13.5994,-10.2323,12.8639,14.477,6.67649,-11.2508,22.849,213,1.04179,18.3806,0.15,8570
6.55751e-07,6.51874e-07,-1.63816e-06,-0.000197042,-0.000187541,-0.00242095,9.63547,10.2308,-5.3825,9.9314,12.3816,9.58344,-7.48123,18.6221,213,1.04179,1.1194,0.15,8571
-1.12861e-07,-1.71334e-07,-1.5771e-06,-4.51155e-05,-6.11294e-05,-0.00217358,29.5986,28.5053,0.337307,14.6769,29.6745,28.4461,0.320608,28.7594,213,13.674,15.2776,0.15,8572
7.52351e-07,7.51637e-07,-1.47224e-06,-0.000213562,-0.000205677,-0.00216846,8.6197,9.13879,-2.5795,8.3873,11.5148,8.92391,-5.25976,15.6409,213,0.545897,0.634698,0.15,8573
5.61086e-07,7.53109e-07,-1.57303e-06,-0.000165933,-0.000215252,-0.00190424,11.6716,7.9177,-0.877289,8.68221,13.7839,8.50865,-3.58053,15.4191,213,1.5459,0.634698,0.15,8574
7.6886e-07,5.72206e-07,-1.55661e-06,-0.000226178,-0.000166863,-0.00190328,6.03523,10.6544,-2.39487,9.46363,13.134,6.95396,-5.79323,16.7171,213,0.545897,1.5947,0.15,8575
-4.87768e-07,6.63819e-07,-1.63036e-06,-0.000152313,-0.000198249,-0.00192388,12.8449,9.37461,-2.67463,9.34213,14.4564,9.31639,-4.22788,16.7178,213,18.0929,1.10616,0.15,8576
-6.64614e-07,6.55569e-07,-1.62184e-06,-0.000198744,-0.000187553,-0.00246609,13.713,14.3204,-1.75007,9.57718,15.8989,13.6399,-3.25548,18.1307,213,19.0929,1.10616,0.15,8577
-6.84601e-07,4.91263e-07,-1.62005e-06,-0.000207925,-0.000154075,-0.00217639,10.5415,14.0818,-2.35929,9.47364,15.2945,10.6222,-3.65275,17.0969,213,19.0929,2.06616,0.15,8578
7.04897e-07,-5.40683e-07,-1.51666e-06,-0.000222234,-9.56161e-05,-0.00233354,9.28499,17.643,-5.45095,13.3632,19.0269,10.1497,-7.69952,23.5765,213,0.545897,18.8653,0.15,8579
7.78371e-07,-4.25863e-07,-1.52643e-06,-0.000237994,-0.000127894,-0.00170574,3.63207,13.2449,-1.96151,9.22977,14.5602,4.25451,-3.89929,16.0226,213,0.545897,17.9053,0.15,8580
5.06448e-07,-4.95566e-07,-1.61457e-06,-0.000175453,-9.1569e-05,-0.00200211,13.4072,19.8154,-3.22243,14.1868,22.354,13.6658,-6.01967,25.18,213,1.5459,18.8653,0.15,8581
-6.44328e-07,-4.61796e-07,-1.61315e-06,-0.000209335,-0.000103593,-0.00197337,9.22861,17.3304,-3.76909,11.6545,18.2472,9.60441,-5.0617,20.4095,213,19.0929,18.3938,0.15,8582
-4.59725e-07,-4.43326e-07,-1.63486e-06,-0.000156048,-0.000101525,-0.00234086,16.8312,20.2483,-3.70923,13.1026,21.7684,16.0387,-4.43686,23.8621,213,18.0929,18.3938,0.15,8583
-6.93681e-07,-3.4926e-07,-1.60415e-06,-0.000217031,-0.000117577,-0.00218333,10.4347,16.9891,-2.93039,10.8716,17.8175,10.6016,-3.92571,19.1818,213,19.0929,17.4338,0.15,8584
3.78191e-07,7.17336e-07,-1.5752e-06,-0.000119653,-0.000214684,-0.00189606,16.8685,9.52119,-0.44361,9.64743,17.8254,9.59022,-1.4695,16.7694,213,2.82476,0.943071,0.15,8585
2.73866e-07,7.40552e-07,-1.5675e-06,-8.88832e-05,-0.000220929,-0.00226681,20.7069,12.3617,-1.35553,11.8124,21.4888,12.3603,-2.13602,20.635,213,3.82476,0.943071,0.15,8586
4.84756e-07,6.59765e-07,-1.62997e-06,-0.000150266,-0.000197023,-0.0018901,13.4092,9.80099,-2.33524,9.31618,14.8796,9.74815,-3.75278,16.6699,213,2.03359,1.12879,0.15,8587
3.82483e-07,5.28172e-07,-1.6113e-06,-0.000126251,-0.000166965,-0.00196043,17.1047,13.9545,-1.51582,10.0091,17.9136,13.7344,-2.10464,18.2903,213,2.80835,1.92186,0.15,8588
5.72404e-07,5.66122e-07,-1.66413e-06,-0.000179176,-0.000170509,-0.00225202,12.295,12.8291,-3.37701,9.38833,14.3911,11.7415,-4.38556,17.6021,213,1.52949,1.61349,0.15,8589
2.06299e-07,7.12233e-07,-1.60036e-06,-7.05002e-05,-0.000214636,-0.00219136,22.0379,12.3383,-1.97558,12.6879,22.7121,12.3522,-2.66368,22.099,213,4.65833,1.13364,0.15,8590
1.45629e-07,7.25185e-07,-1.60069e-06,-5.15168e-05,-0.000219012,-0.0019457,23.49,10.5642,-1.86207,13.2823,24.0907,10.5755,-2.47399,23.0068,213,5.65833,1.13364,0.15,8591
2.22021e-07,5.51515e-07,-1.62303e-06,-7.64532e-05,-0.000178977,-0.00190603,22.7085,14.786,-0.382876,12.0127,23.1946,14.7479,-0.830899,21.1101,213,4.4331,1.92671,0.15,8592
1.02965e-07,7.95603e-07,-1.56506e-06,-4.05798e-05,-0.000233842,-0.00193271,24.3054,9.39199,-1.71973,13.8606,25.1492,9.40047,-2.57205,24.0815,213,6.6231,0.870879,0.15,8593
6.64506e-08,8.02515e-07,-1.56456e-06,-3.17318e-05,-0.000237181,-0.00167768,25.2072,7.30924,-1.4656,14.1846,26.0516,7.31676,-2.31752,24.9862,213,7.6231,0.870879,0.15,8594
1.16291e-07,5.84219e-07,-1.61541e-06,-4.49766e-05,-0.000185115,-0.00159123,25.3407,12.612,-1.62842,13.9029,25.7552,12.6196,-2.05058,24.0928,213,6.23143,1.85451,0.15,8595
3.4064e-08,7.19455e-07,-1.61426e-06,-2.66298e-05,-0.000217017,-0.00195071,26.118,11.426,-2.21805,14.7294,26.6794,11.4261,-2.77945,25.5175,213,8.70211,1.2564,0.15,8596
8.25209e-09,7.21496e-07,-1.61287e-06,-2.42984e-05,-0.000218458,-0.00196714,26.2893,11.3091,-2.23704,14.8223,26.8485,11.3089,-2.79609,25.683,213,9.70211,1.2564,0.15,8597
4.50194e-08,5.74153e-07,-1.62394e-06,-2.87819e-05,-0.000180573,-0.00235318,26.5332,16.9131,-2.50164,14.8813,26.8977,16.9118,-2.86485,26.2359,213,8.27521,1.97728,0.15,8598
-1.72844e-08,7.85592e-07,-1.57715e-06,-2.50984e-05,-0.000233301,-0.00220338,25.7712,11.7955,-2.08983,14.5248,26.3647,11.7969,-2.68478,25.1577,213,10.7482,0.972354,0.15,8599
-4.38167e-08,7.83865e-07,-1.5806e-06,-2.81766e-05,-0.000230961,-0.00193691,25.5738,9.92006,-2.13651,14.6038,26.322,9.92115,-2.88575,25.3584,213,11.7482,0.972354,0.15,8600
-8.17927e-09,5.5885e-07,-1.61602e-06,-2.48695e-05,-0.000177536,-0.00227095,27.8755,18.2449,-0.583709,14.5551,28.201,18.2449,-0.909237,25.6263,213,10.4003,2.07876,0.15,8601
-6.90454e-08,8.16996e-07,-1.55345e-06,-3.279e-05,-0.000238918,-0.0016758,24.9943,7.03313,-1.55392,14.1474,25.8594,7.0494,-2.43532,24.9436,213,12.5553,0.809755,0.15,8602
-1.06622e-07,8.1006e-07,-1.55817e-06,-4.12134e-05,-0.00023661,-0.00218158,24.318,11.2245,-1.76087,13.8206,25.0941,11.2347,-2.54716,23.9381,213,13.5553,0.809755,0.15,8603
-5.789e-08,6.37498e-07,-1.61962e-06,-3.0653e-05,-0.00019906,-0.00236254,26.097,15.4354,-1.87631,14.5202,26.6315,15.4336,-2.40895,25.3682,213,12.2536,1.63211,0.15,8604
-1.4684e-07,7.2202e-07,-1.60747e-06,-5.19419e-05,-0.000218711,-0.00170648,23.1489,8.62391,-1.90698,13.1742,23.7916,8.63113,-2.55688,22.9047,213,14.4651,1.14731,0.15,8605
-2.0802e-07,7.09042e-07,-1.60337e-06,-7.08261e-05,-0.000214337,-0.00193974,21.5122,10.4234,-1.99717,12.4743,22.2259,10.4353,-2.72274,21.617,213,15.4651,1.14731,0.15,8606
-1.20616e-07,5.91595e-07,-1.62251e-06,-4.65667e-05,-0.000189172,-0.00192048,25.355,14.3503,-1.01599,13.7382,25.8984,14.3687,-1.57787,23.8974,213,13.9705,1.80706,0.15,8607
-2.73358e-07,7.38204e-07,-1.57164e-06,-8.86657e-05,-0.000220526,-0.00225544,20.7809,12.4431,-1.29557,11.8988,21.6424,12.4411,-2.15512,20.7851,213,16.2727,0.95391,0.15,8608
-3.77969e-07,7.14817e-07,-1.58197e-06,-0.000119323,-0.000213002,-0.00191182,16.5863,9.32143,-1.40485,10.0123,17.5739,9.37972,-2.45073,17.4369,213,17.2727,0.95391,0.15,8609
-2.23428e-07,5.47031e-07,-1.61879e-06,-7.66656e-05,-0.000177381,-0.00254206,23.2374,17.7797,-1.45856,12.7185,23.624,17.7474,-1.81295,23.0671,213,15.6878,1.95122,0.15,8610
-3.84538e-07,5.29886e-07,-1.60895e-06,-0.000126635,-0.00016842,-0.00232391,18.5253,15.8819,-1.54037,10.6703,19.2551,15.6973,-2.08559,19.803,213,17.3156,1.91007,0.15,8611
7.73403e-07,-2.82778e-07,-1.54092e-06,-0.000230722,-9.0662e-05,-0.00168313,5.99996,18.2114,-1.43909,10.7986,19.0939,6.18154,-2.50322,18.8228,213,0.779009,16.6797,0.15,8612
7.98101e-07,-2.05581e-07,-1.53289e-06,-0.000234018,-6.82641e-05,-0.00173199,5.05485,19.5274,-4.72569,12.946,20.3156,5.11745,-5.57649,22.536,213,0.779009,15.7197,0.15,8613
6.88845e-07,-3.47457e-07,-1.60123e-06,-0.000216528,-0.000112023,-0.00223857,11.5268,18.0671,-3.13016,11.4322,18.8199,11.6885,-4.04462,20.2629,213,1.03359,17.4112,0.15,8614
5.6637e-07,-2.63898e-07,-1.61793e-06,-0.000189863,-8.48288e-05,-0.00152357,14.1015,23.6923,7.61183,9.03601,24.6371,14.2034,6.56512,15.7131,213,1.7626,16.6609,0.15,8615
5.68484e-07,-3.89294e-07,-1.65083e-06,-0.00019035,-0.000110233,-0.00226851,12.9687,18.1642,-3.20265,11.2865,18.8183,12.8667,-3.75472,20.2637,213,1.52949,17.8865,0.15,8616
7.61335e-07,-1.5701e-07,-1.57281e-06,-0.000227818,-5.52927e-05,-0.00257303,13.2487,22.5682,-4.39104,14.1816,23.2673,13.2544,-5.09587,24.9145,213,0.982182,14.9592,0.15,8617
7.73683e-07,-1.1134e-07,-1.5848e-06,-0.00023314,-4.01126e-05,-0.00232109,11.0349,23.2075,-5.01992,14.7128,23.8025,11.043,-5.62305,25.558,213,0.982182,13.9992,0.15,8618
6.04914e-07,-1.60001e-07,-1.61679e-06,-0.000197571,-5.67521e-05,-0.00153062,12.6271,25.4517,3.52396,11.5641,26.0542,12.6226,2.92601,20.1164,213,1.71119,15.1689,0.15,8619
8.4137e-07,-7.85377e-08,-1.54349e-06,-0.000247208,-3.60812e-05,-0.00194738,7.9393,24.2172,-2.03593,13.8792,24.9696,7.93977,-2.7888,24.2451,213,0.72691,13.1293,0.15,8620
8.46026e-07,-4.79864e-08,-1.54512e-06,-0.000250428,-2.7715e-05,-0.00169498,5.38018,24.815,-2.4548,14.3525,25.5272,5.39081,-3.17768,25.5232,213,0.72691,12.1693,0.15,8621
6.28324e-07,-8.71551e-08,-1.61753e-06,-0.000199691,-3.6623e-05,-0.00191063,14.231,26.8604,0.956566,13.7199,27.6123,14.2632,0.172493,23.7664,213,1.65909,13.5385,0.15,8622
7.65337e-07,-2.36017e-08,-1.59702e-06,-0.000232099,-2.45372e-05,-0.00228219,12.791,25.907,-1.94669,14.4674,26.4451,12.7959,-2.48968,25.0716,213,1.06733,11.318,0.15,8623
7.67835e-07,-1.32288e-09,-1.59088e-06,-0.000233759,-2.3044e-05,-0.00192388,9.71614,25.9989,-2.32032,14.7785,26.6177,9.71636,-2.93932,25.685,213,1.06733,10.358,0.15,8624
6.18163e-07,-3.54791e-08,-1.62515e-06,-0.000195219,-2.62871e-05,-0.00199266,14.1869,27.262,-0.851359,14.5705,27.7746,14.1894,-1.36641,25.2561,213,1.74424,11.8173,0.15,8625
7.66382e-07,2.45285e-08,-1.59145e-06,-0.000234481,-2.48694e-05,-0.00192557,9.02993,25.2128,-3.8082,15.2667,25.969,9.0298,-4.5643,26.4955,213,1.07029,9.29181,0.15,8626
7.6353e-07,4.91198e-08,-1.59408e-06,-0.000230773,-2.74319e-05,-0.00193332,9.6784,25.3882,-2.80856,14.8422,26.1305,9.68151,-3.55397,25.7577,213,1.07029,8.33181,0.15,8627
5.57803e-07,9.62161e-09,-1.6158e-06,-0.000174601,-2.28795e-05,-0.00200437,16.0093,27.7187,-2.30871,15.3155,28.0206,16.0092,-2.61046,26.7322,213,2.08761,9.89979,0.15,8628
8.41847e-07,8.13925e-08,-1.54147e-06,-0.000247391,-3.59569e-05,-0.00167414,5.99944,24.4243,-1.34959,13.6996,25.2366,6.00023,-2.16266,24.3658,213,0.717496,7.35805,0.15,8629
8.33358e-07,1.19587e-07,-1.53609e-06,-0.000242913,-4.23268e-05,-0.00192362,8.37976,23.8672,-1.64956,13.7662,24.8683,8.39307,-2.66401,23.9971,213,0.717496,6.39805,0.15,8630
6.15579e-07,6.17683e-08,-1.62117e-06,-0.000197883,-2.98839e-05,-0.00254011,17.3565,26.3923,-1.42904,14.3295,26.8111,17.3567,-1.84799,25.2937,213,1.73778,7.85985,0.15,8631
7.58128e-07,1.62673e-07,-1.57252e-06,-0.000226526,-5.50293e-05,-0.0019757,9.20123,22.4404,-2.85474,13.2899,23.076,9.21473,-3.5038,23.0258,213,0.991717,5.48705,0.15,8632
7.43487e-07,2.24231e-07,-1.57073e-06,-0.000224391,-7.39769e-05,-0.00196167,8.88583,20.5154,-2.76234,12.3537,21.2008,8.94483,-3.5067,21.3975,213,0.991717,4.52705,0.15,8633
6.20587e-07,1.3336e-07,-1.62139e-06,-0.000200757,-5.04855e-05,-0.0022107,14.0451,24.1497,-2.31412,13.6545,24.5623,14.0652,-2.74678,23.8602,213,1.65921,5.97509,0.15,8634
7.7839e-07,2.89291e-07,-1.52955e-06,-0.000231975,-9.1479e-05,-0.00194787,7.68048,18.5225,-2.42771,11.4232,19.4392,7.74322,-3.40713,19.7874,213,0.779009,3.78026,0.15,8635
7.55417e-07,3.92049e-07,-1.54704e-06,-0.000223917,-0.000122919,-0.00190553,8.24515,16.0315,-0.906185,9.58139,17.047,8.43926,-2.11579,16.624,213,0.779009,2.82026,0.15,8636
5.88874e-07,2.35766e-07,-1.62428e-06,-0.000189401,-7.78854e-05,-0.0019824,12.2882,20.9022,-3.43753,12.6676,21.4166,12.255,-3.91867,22.2193,213,1.72073,4.31731,0.15,8637
5.53232e-07,3.84073e-07,-1.61484e-06,-0.000182667,-0.000126633,-0.00152802,10.2575,15.3891,-0.847358,9.18561,16.5627,10.0451,-1.80855,16.1321,213,1.7626,2.83905,0.15,8638
6.78951e-07,4.89047e-07,-1.6158e-06,-0.000207023,-0.000150959,-0.00224538,11.7962,15.3604,-2.02431,9.65609,16.2643,11.9159,-3.04791,17.5469,213,1.03359,2.08879,0.15,8639
-3.40629e-07,-4.64985e-07,-1.6058e-06,-0.000118331,-0.00010261,-0.00234978,20.3944,21.2821,-2.88998,13.5291,23.3057,19.2335,-3.75264,25.2695,213,17.2727,18.5461,0.15,8640
-2.38494e-07,-4.73552e-07,-1.59854e-06,-8.44354e-05,-0.000112549,-0.00199627,23.0535,20.8695,-2.14673,13.8213,24.7212,19.9766,-2.92147,25.6022,213,16.2727,18.5461,0.15,8641
-3.78227e-07,-3.50826e-07,-1.61198e-06,-0.000134028,-0.000118763,-0.00201025,17.5945,18.4823,-1.39184,10.3149,19.1148,17.0851,-1.51497,19.6935,213,17.3156,17.5899,0.15,8642
-1.78388e-07,-4.53213e-07,-1.60791e-06,-6.4191e-05,-0.000115309,-0.00202485,24.9727,20.9349,-2.46512,14.1947,25.6055,20.6209,-2.78389,26.2544,213,15.3755,18.2739,0.15,8643
-1.23298e-07,-4.64035e-07,-1.61221e-06,-4.62305e-05,-0.000116972,-0.00204604,26.2521,20.7895,-3.8948,15.4816,26.7469,20.6162,-4.21624,28.3985,213,14.3755,18.2739,0.15,8644
-2.07462e-07,-3.49195e-07,-1.59645e-06,-7.60285e-05,-0.000118348,-0.0025828,24.4083,21.8613,-1.61419,13.1053,24.5795,21.7071,-1.63116,24.899,213,15.5982,17.47,0.15,8645
-8.39576e-08,-5.20998e-07,-1.59566e-06,-3.28794e-05,-0.000118171,-0.00266015,27.0435,22.4587,-3.14463,15.7588,27.7388,22.3975,-3.7788,29.2155,213,13.5231,18.6738,0.15,8646
-5.42234e-08,-5.28839e-07,-1.59198e-06,-2.76243e-05,-0.000114761,-0.00240072,28.0835,22.5376,-2.88689,16.4115,29.0238,22.5095,-3.79911,30.0992,213,12.5231,18.6738,0.15,8647
-1.05581e-07,-3.78832e-07,-1.60736e-06,-4.3612e-05,-0.00013042,-0.0019234,27.8576,21.1129,-0.062377,14.1114,28.0214,21.0882,-0.201469,25.474,213,13.8486,17.5976,0.15,8648
-1.39734e-08,-5.16028e-07,-1.59841e-06,-2.05633e-05,-0.000121116,-0.00203681,29.3922,21.4745,-2.59693,16.5446,29.9435,21.472,-3.14568,29.7715,213,10.7401,18.5268,0.15,8649
-3.5193e-08,-5.15596e-07,-1.59851e-06,-2.24111e-05,-0.000116096,-0.00204041,28.9775,21.6975,-3.67991,17.0294,29.6788,21.6963,-4.38001,30.8521,213,11.7401,18.5268,0.15,8650
-4.91077e-08,-4.21296e-07,-1.60816e-06,-2.67208e-05,-0.000135956,-0.00230964,28.0613,20.507,-1.94728,15.0427,28.1069,20.4928,-1.97861,27.0931,213,12.2132,17.8506,0.15,8651
6.93732e-09,-4.75206e-07,-1.60956e-06,-1.96961e-05,-0.000122223,-0.00202009,29.3856,21.4737,-3.00857,16.4994,29.6892,21.4712,-3.30966,29.7536,213,9.71687,18.2415,0.15,8652
2.77694e-08,-4.74199e-07,-1.6095e-06,-2.2178e-05,-0.000120314,-0.00204941,28.7074,21.1183,-4.11267,16.7105,29.0084,21.1172,-4.4126,30.2573,213,8.71687,18.2415,0.15,8653
-7.86525e-09,-3.69937e-07,-1.60217e-06,-2.23705e-05,-0.000123772,-0.00239637,28.6516,21.9851,-1.85624,15.2546,28.653,21.9838,-1.85631,27.7817,213,10.407,17.4183,0.15,8654
5.31282e-08,-5.23603e-07,-1.59231e-06,-2.71155e-05,-0.000122974,-0.00266869,27.1635,22.0016,-3.64733,15.9524,27.7188,21.9849,-4.18596,29.4594,213,7.62606,18.6287,0.15,8655
8.22548e-08,-5.16101e-07,-1.59472e-06,-3.23553e-05,-0.000115919,-0.00238431,27.8897,22.5326,-2.26547,16.0128,28.8525,22.4774,-3.17307,29.3618,213,6.62606,18.6287,0.15,8656
3.99465e-08,-3.79466e-07,-1.60724e-06,-2.63709e-05,-0.000130236,-0.00157815,30.6203,21.2106,0.613696,15.1064,30.7323,21.1928,0.519448,26.7508,213,8.29293,17.5201,0.15,8657
1.25025e-07,-4.7515e-07,-1.60653e-06,-4.70949e-05,-0.00011624,-0.00203319,26.3127,20.9596,-3.59488,15.4631,26.9172,20.7691,-4.00891,28.3564,213,5.65834,18.3664,0.15,8658
1.80791e-07,-4.64501e-07,-1.60337e-06,-6.50041e-05,-0.000113876,-0.00202503,24.8311,20.9703,-2.71441,14.3456,25.5776,20.6231,-3.1137,26.5629,213,4.65834,18.3664,0.15,8659
1.06269e-07,-3.84333e-07,-1.60726e-06,-4.29965e-05,-0.000129282,-0.00204057,26.8958,20.048,-2.05105,14.5063,26.9454,20.0145,-2.06716,26.2428,213,6.2344,17.645,0.15,8660
2.38307e-07,-4.75375e-07,-1.597e-06,-8.44904e-05,-0.00011106,-0.00199752,23.1159,21.0477,-2.09823,13.8839,24.8475,20.1382,-2.92033,25.7383,213,3.82476,18.5569,0.15,8661
3.40538e-07,-4.67076e-07,-1.60503e-06,-0.000117365,-0.000103729,-0.00236927,20.19,20.9257,-3.48548,13.6486,23.0192,18.8892,-4.27814,25.4845,213,2.82476,18.5569,0.15,8662
2.11001e-07,-3.61754e-07,-1.60094e-06,-7.68023e-05,-0.000121467,-0.0023834,23.8332,20.6986,-1.9739,13.0099,24.0358,20.506,-1.98389,24.4467,213,4.4331,17.5733,0.15,8663
3.755e-07,-3.50004e-07,-1.61291e-06,-0.000133286,-0.000117873,-0.00200036,17.88,18.8047,-0.992046,10.3119,19.4884,17.3396,-1.13533,19.6377,213,2.80835,17.5781,0.15,8664
4.54862e-07,-4.3877e-07,-1.63614e-06,-0.000156443,-0.000102507,-0.00192407,15.1879,19.3501,-3.51759,12.5168,20.8848,14.2845,-4.14885,22.4726,213,2.03359,18.3712,0.15,8665
-7.56881e-07,3.96316e-07,-1.54802e-06,-0.000222714,-0.000123503,-0.00167994,5.59181,14.2351,-2.15203,9.19385,15.1176,5.82745,-3.27013,15.9245,213,19.3337,2.78412,0.15,8666
-7.80101e-07,2.92291e-07,-1.52658e-06,-0.000231816,-9.28969e-05,-0.00195445,7.56187,18.2789,-2.62243,11.3919,19.1851,7.63198,-3.59873,19.732,213,19.3337,3.74412,0.15,8667
-5.58128e-07,3.90715e-07,-1.62206e-06,-0.000184958,-0.0001273,-0.00184242,13.1716,17.621,0.92538,9.3636,18.7438,12.9576,0.0165757,16.6081,213,18.3766,2.78028,0.15,8668
-7.49099e-07,2.24398e-07,-1.56548e-06,-0.000225715,-7.42287e-05,-0.00195742,8.76688,20.4771,-2.70201,12.3264,21.1816,8.83146,-3.47113,21.3499,213,19.1345,4.52064,0.15,8669
-7.63908e-07,1.62778e-07,-1.56493e-06,-0.000227642,-5.46968e-05,-0.00196634,9.19603,22.5487,-2.62194,13.2785,23.2317,9.21641,-3.3253,23.0108,213,19.1345,5.48064,0.15,8670
-5.9581e-07,2.39123e-07,-1.62294e-06,-0.000190397,-7.93634e-05,-0.00199939,12.013,20.5904,-3.65644,12.6347,21.1176,11.9813,-4.15189,22.1619,213,18.4183,4.27476,0.15,8671
-8.32232e-07,1.19583e-07,-1.53242e-06,-0.000242321,-4.2665e-05,-0.0019156,8.53232,23.947,-1.42331,13.6908,24.9447,8.54829,-2.43694,23.867,213,19.3773,6.40311,0.15,8672
-8.39917e-07,8.11334e-08,-1.53922e-06,-0.000246657,-3.58259e-05,-0.00167169,6.16545,24.5367,-1.17418,13.6916,25.3721,6.16683,-2.01099,24.347,213,19.3773,7.36311,0.15,8673
-6.2482e-07,1.33366e-07,-1.61588e-06,-0.000201889,-5.02477e-05,-0.00197619,12.1901,23.9319,-2.29445,13.5348,24.3405,12.2162,-2.72908,23.4853,213,18.4618,5.97375,0.15,8674
-7.55641e-07,4.68861e-08,-1.58609e-06,-0.000230734,-2.65809e-05,-0.00192232,10.0186,25.7802,-2.09715,14.5906,26.4312,10.0206,-2.75008,25.3371,213,18.9943,8.41091,0.15,8675
-7.60557e-07,2.2516e-08,-1.57844e-06,-0.000232362,-2.50419e-05,-0.00192142,10.0091,26.0109,-1.87587,14.572,26.6397,10.0086,-2.5042,25.3232,213,18.9943,9.37091,0.15,8676
-6.06607e-07,5.91991e-08,-1.61824e-06,-0.000197938,-2.9332e-05,-0.00230208,16.0119,26.6536,-1.20256,14.3199,27.0453,16.0122,-1.59456,25.0197,213,18.3216,7.94402,0.15,8677
-8.22434e-07,-3.28227e-09,-1.53604e-06,-0.000243972,-2.32645e-05,-0.00167826,6.19018,25.4243,-2.96383,14.7788,26.0094,6.18943,-3.54819,26.0893,213,19.2501,10.4374,0.15,8678
-8.17138e-07,-2.62768e-08,-1.55168e-06,-0.000243212,-2.51534e-05,-0.00191042,9.36641,26.2077,-0.471019,14.0549,26.9157,9.38134,-1.194,24.5912,213,19.2501,11.3974,0.15,8679
-5.89909e-07,5.92241e-09,-1.62364e-06,-0.000190599,-2.31461e-05,-0.00232809,16.8714,27.484,-0.746532,14.4569,27.8254,16.8718,-1.08834,25.2839,213,18.1943,10.0583,0.15,8680
-8.57387e-07,-4.78122e-08,-1.53366e-06,-0.000250051,-2.73946e-05,-0.00193092,8.09912,25.3161,-1.49925,14.3526,26.2592,8.10282,-2.44607,25.1488,213,19.4232,12.1715,0.15,8681
-8.53846e-07,-7.78881e-08,-1.52776e-06,-0.000249636,-3.62979e-05,-0.00168596,5.41872,24.0339,-1.85408,13.7677,24.857,5.41988,-2.67837,24.5111,213,19.4232,13.1315,0.15,8682
-6.71934e-07,-3.76331e-08,-1.61803e-06,-0.000212731,-2.63846e-05,-0.00198829,11.9225,26.3365,-1.84647,14.6926,26.9378,11.9222,-2.44747,25.4504,213,18.6233,11.8989,0.15,8683
-7.79275e-07,-1.1205e-07,-1.57777e-06,-0.000234446,-4.04793e-05,-0.00228865,11.3514,23.5912,-3.99591,14.4583,24.2545,11.3543,-4.66215,25.091,213,19.1406,14.0133,0.15,8684
-7.66673e-07,-1.58063e-07,-1.5688e-06,-0.000227945,-5.54709e-05,-0.00196533,8.76935,22.0761,-3.83476,13.7153,22.8268,8.78755,-4.60368,23.7577,213,19.1406,14.9733,0.15,8685
-6.42937e-07,-8.8208e-08,-1.614e-06,-0.000205092,-3.77044e-05,-0.0019772,13.3287,26.2628,0.451877,13.6867,27.0273,13.3622,-0.346122,23.7061,213,18.5138,13.5548,0.15,8686
-8.01035e-07,-2.07995e-07,-1.53304e-06,-0.000234701,-6.87827e-05,-0.00169393,5.97206,20.4505,-2.25942,12.3291,21.4025,6.01644,-3.25579,21.5724,213,19.3337,15.7559,0.15,8687
-7.75197e-07,-2.85602e-07,-1.53978e-06,-0.000232414,-9.09207e-05,-0.00167984,5.9009,18.2277,-1.18037,10.7223,19.1479,6.09707,-2.29676,18.717,213,19.3337,16.7159,0.15,8688
-6.12166e-07,-1.62732e-07,-1.61961e-06,-0.000199166,-5.71208e-05,-0.00200017,12.6475,23.6855,-1.04991,12.7448,24.0663,12.6402,-1.42336,22.114,213,18.4243,15.2191,0.15,8689
-5.71746e-07,-2.68992e-07,-1.61819e-06,-0.000191986,-8.6299e-05,-0.00152367,14.0426,23.694,8.31146,8.65928,24.6066,14.1534,7.28804,15.1052,213,18.3766,16.7197,0.15,8690
-3.70489e-08,2.48383e-08,-1.58064e-06,-3.0192e-05,-2.47562e-05,-0.00198545,32.5405,32.9554,-0.0228898,16.4903,32.9568,32.54,-0.0238594,32.7743,213,11.3771,9.36658,0.15,8691
-3.95558e-08,4.6832e-08,-1.58074e-06,-3.02397e-05,-2.81663e-05,-0.0019838,32.4313,32.5913,-0.0269206,16.3148,32.601,32.4233,-0.0286519,32.5412,213,11.4707,8.53582,0.15,8692
-1.15896e-08,3.57656e-08,-1.58075e-06,-2.652e-05,-2.71051e-05,-0.0022288,32.0568,32.0232,-0.0238544,16.0411,32.0576,32.0231,-0.0245747,32.0649,213,10.4836,8.94846,0.15,8693
-2.56838e-08,1.83506e-09,-1.58073e-06,-2.84017e-05,-2.40499e-05,-0.00198683,32.7498,33.0872,-0.0289418,16.5584,33.0875,32.7498,-0.0292236,32.9492,213,10.9822,10.3103,0.15,8694
-5.54654e-08,1.17401e-08,-1.58058e-06,-3.2216e-05,-2.44174e-05,-0.00232461,31.3032,31.7926,-0.051563,15.9235,31.7939,31.3033,-0.0529749,31.6044,213,11.9693,9.89765,0.15,8695
1.05902e-08,2.81531e-08,-1.5808e-06,-2.74267e-05,-2.56705e-05,-0.00232587,31.7022,31.8108,-0.0216832,15.9165,31.8109,31.7025,-0.0221273,31.779,213,9.65764,9.23439,0.15,8696
3.90391e-08,1.68324e-08,-1.58088e-06,-2.93359e-05,-2.49277e-05,-0.00164623,33.706,34.11,-0.0144393,17.0633,34.1112,33.7056,-0.0152962,33.9255,213,8.66016,9.68231,0.15,8697
1.79343e-08,3.76966e-09,-1.58084e-06,-2.82139e-05,-2.36818e-05,-0.00198703,32.7862,33.136,-0.024914,16.5806,33.1361,32.7862,-0.0250327,32.9876,213,9.3925,10.2271,0.15,8698
2.26339e-08,-1.72947e-08,-1.58093e-06,-2.83581e-05,-2.43638e-05,-0.00198672,32.743,33.049,-0.0371477,16.5435,33.0495,32.7429,-0.0375415,32.9348,213,9.22386,11.0991,0.15,8699
-4.69359e-09,-6.40884e-09,-1.58079e-06,-2.66711e-05,-2.44071e-05,-0.00198734,32.9223,33.103,-0.0244339,16.5638,33.103,32.9223,-0.0244835,33.0375,213,10.2213,10.6512,0.15,8700
8.05168e-09,5.10158e-08,-1.58079e-06,-2.72959e-05,-2.8921e-05,-0.00164565,33.8139,33.6633,-0.0410883,16.9289,33.8157,33.6624,-0.0419922,33.7813,213,9.75127,8.40363,0.15,8701
-2.09463e-08,-1.93112e-08,-1.58079e-06,-2.8116e-05,-2.4286e-05,-0.00198638,32.7836,33.076,-0.00933348,16.5433,33.0769,32.7831,-0.00970962,32.9407,213,10.8135,11.1823,0.15,8702
1.0809e-07,1.12276e-07,-1.58048e-06,-4.43919e-05,-4.4104e-05,-0.00221539,29.8913,29.9094,-0.115069,15.0823,30.0382,29.7738,-0.126397,30.0333,213,6.66003,6.61957,0.15,8703
6.30008e-08,1.241e-07,-1.58069e-06,-3.27431e-05,-4.84816e-05,-0.00163488,32.4428,31.0115,0.0247743,16.2234,32.4627,31.0005,0.0158538,31.741,213,7.82566,6.40337,0.15,8704
9.00295e-08,1.59378e-07,-1.58006e-06,-4.03357e-05,-5.73187e-05,-0.00196698,30.4706,29.1601,0.0168698,15.2524,30.5057,29.1411,0.000796835,29.846,213,7.0492,5.70753,0.15,8705
7.15314e-08,2.06784e-07,-1.57819e-06,-3.49097e-05,-7.25912e-05,-0.00162074,31.4122,27.975,0.294458,15.582,31.4399,27.9658,0.275869,29.5804,213,7.50936,4.99628,0.15,8706
1.19355e-07,1.88318e-07,-1.5785e-06,-4.66143e-05,-6.7773e-05,-0.00196083,29.4148,27.7838,-0.123179,14.8059,29.4652,27.7568,-0.146605,28.7957,213,6.34373,5.21247,0.15,8707
1.61522e-07,9.50367e-08,-1.57915e-06,-5.87553e-05,-3.99983e-05,-0.00162669,29.4155,31.1281,-0.0552943,15.6199,31.168,29.3922,-0.0718035,30.3908,213,5.64436,6.98767,0.15,8708
1.21072e-07,7.11724e-08,-1.58049e-06,-4.91316e-05,-3.28529e-05,-0.00163497,30.8975,32.3766,-0.0482481,16.2263,32.3962,30.8861,-0.0564866,31.7246,213,6.42082,7.68352,0.15,8709
1.87005e-07,1.22147e-07,-1.57807e-06,-6.79856e-05,-4.64405e-05,-0.0019578,27.8134,29.4738,-0.0241534,14.7883,29.5289,27.7819,-0.0477837,28.743,213,5.20577,6.33942,0.15,8710
2.07499e-07,7.84026e-08,-1.57666e-06,-7.28526e-05,-3.48394e-05,-0.00229982,27.4646,29.8785,0.0360513,14.9456,29.9054,27.4597,0.0140854,28.7466,213,4.96655,7.40337,0.15,8711
1.55115e-07,1.99973e-07,-1.57836e-06,-5.64608e-05,-7.15956e-05,-0.00195232,28.3371,27.1688,0.10788,14.1836,28.4434,27.0942,0.0761941,27.7172,213,5.64213,5.00431,0.15,8712
2.20452e-07,2.17068e-07,-1.57626e-06,-7.89283e-05,-7.59052e-05,-0.00194038,25.6936,25.9279,-0.132762,13.2505,26.3183,25.3531,-0.182642,26.0318,213,4.65098,4.70278,0.15,8713
2.06456e-07,1.57852e-07,-1.57685e-06,-7.5388e-05,-5.56664e-05,-0.00229131,26.6963,27.9435,-0.0481578,14.0496,28.0171,26.6566,-0.0820542,27.4442,213,4.89242,5.6222,0.15,8714
1.27864e-07,2.58816e-07,-1.57537e-06,-4.97454e-05,-8.81887e-05,-0.00228033,28.2215,25.7958,0.115281,14.101,28.2804,25.7739,0.0782852,27.0361,213,6.10229,4.29306,0.15,8715
2.64546e-07,1.33429e-07,-1.57258e-06,-9.12139e-05,-4.96898e-05,-0.00195234,25.129,28.3289,-0.201644,14.3116,28.3854,25.1087,-0.23787,27.1337,213,4.21462,6.03789,0.15,8716
1.09618e-07,-6.81618e-08,-1.58072e-06,-4.55384e-05,-3.23503e-05,-0.00163677,31.3666,32.5652,-0.0636727,16.3276,32.5836,31.3561,-0.0715939,32.0591,213,6.6608,12.9767,0.15,8717
1.06163e-07,-3.21386e-08,-1.58083e-06,-4.45017e-05,-2.54414e-05,-0.00231977,30.1808,31.3802,-0.0690384,15.7308,31.3871,30.1792,-0.0743752,30.8753,213,6.77401,11.7203,0.15,8718
1.3976e-07,-4.83609e-08,-1.58027e-06,-5.26493e-05,-2.87029e-05,-0.00163425,30.6119,32.8006,0.00169043,16.409,32.8119,30.6084,-0.00613586,31.7737,213,6.07487,12.3389,0.15,8719
1.77725e-07,-3.60375e-08,-1.57865e-06,-6.51764e-05,-2.56514e-05,-0.00197033,28.7016,31.7519,-0.133417,15.9599,31.7698,28.7001,-0.14989,30.501,213,5.43661,11.8932,0.15,8720
1.82284e-07,-7.2301e-08,-1.57918e-06,-6.62541e-05,-3.26163e-05,-0.00196587,28.4047,31.0005,-0.0618283,15.5548,31.0276,28.3977,-0.0819067,29.8815,213,5.3234,13.1496,0.15,8721
9.23796e-08,-9.83723e-08,-1.58039e-06,-4.15229e-05,-3.96646e-05,-0.00197341,30.8603,31.0037,-0.0428779,15.5744,31.0968,30.7762,-0.0519181,30.9897,213,7.02243,13.8039,0.15,8722
6.74143e-08,-7.62031e-08,-1.58062e-06,-3.38387e-05,-3.52394e-05,-0.00198,31.8068,31.7059,-0.0485215,15.961,31.8688,31.6485,-0.0531271,31.8124,213,7.72158,13.1853,0.15,8723
1.194e-07,-1.18547e-07,-1.5801e-06,-4.73122e-05,-4.67438e-05,-0.00162699,30.6585,30.7128,0.018162,15.4762,30.9562,30.4294,0.00384141,30.6924,213,6.38222,14.2962,0.15,8724
7.48409e-08,-1.30654e-07,-1.579e-06,-3.59776e-05,-4.99984e-05,-0.00221197,30.5969,29.6526,0.0579275,15.2854,30.621,29.6362,0.0501801,30.0905,213,7.44299,14.5048,0.15,8725
2.01959e-07,-9.87785e-08,-1.57802e-06,-7.36503e-05,-3.91867e-05,-0.00162236,27.4817,30.6175,-0.247523,15.4674,30.6607,27.465,-0.27404,29.4671,213,5.00665,13.8969,0.15,8726
2.18154e-07,-1.39482e-07,-1.57376e-06,-7.89414e-05,-5.16468e-05,-0.00194996,26.5394,28.6412,0.150372,14.2997,28.72,26.4904,0.120643,27.5523,213,4.73285,14.808,0.15,8727
1.54881e-07,-1.26935e-07,-1.57833e-06,-5.72219e-05,-4.88322e-05,-0.00162553,29.1418,29.9118,-0.435587,15.2505,30.0492,29.0205,-0.451739,29.9998,213,5.68786,14.5064,0.15,8728
1.28813e-07,-1.6606e-07,-1.5766e-06,-5.05894e-05,-5.88159e-05,-0.00220276,28.8714,28.3196,-0.26208,14.6432,29.0038,28.2077,-0.282641,28.8966,213,6.10842,15.2073,0.15,8729
2.55139e-07,-8.14201e-08,-1.57683e-06,-8.84881e-05,-3.50087e-05,-0.00195711,25.9074,30.0446,-0.0951578,15.11,30.0864,25.904,-0.133593,28.361,213,4.36839,13.4512,0.15,8730
-2.11532e-07,-9.96936e-08,-1.57834e-06,-7.67183e-05,-3.87502e-05,-0.00162232,27.1229,30.5784,-0.201212,15.4224,30.6166,27.1117,-0.228234,29.2503,213,15.2347,13.9218,0.15,8731
-2.43603e-07,-6.58995e-08,-1.57866e-06,-8.49892e-05,-3.13028e-05,-0.00162192,26.2999,31.2003,-0.275711,15.7601,31.2239,26.2969,-0.296285,29.3683,213,15.5936,12.9667,0.15,8732
-1.79663e-07,-6.25879e-08,-1.57952e-06,-6.36265e-05,-3.10619e-05,-0.00230903,28.3399,30.3979,-0.0800425,15.2584,30.4202,28.334,-0.096497,29.5289,213,14.7311,12.8356,0.15,8733
-1.40923e-07,-4.60523e-08,-1.57945e-06,-5.46182e-05,-2.72917e-05,-0.00197381,29.8057,31.9046,-0.0871751,16.0072,31.9178,29.802,-0.0966652,31.0107,213,14.0491,12.2476,0.15,8734
-1.20539e-07,-7.55649e-08,-1.58076e-06,-4.83911e-05,-3.42312e-05,-0.00163337,30.9686,32.2582,0.0202877,16.134,32.28,30.9551,0.0119646,31.6264,213,13.6902,13.2026,0.15,8735
-7.33645e-08,-8.69902e-08,-1.58066e-06,-3.48993e-05,-3.7874e-05,-0.00231826,30.6803,30.4947,-0.143532,15.4375,30.7259,30.4547,-0.149126,30.7403,213,12.5684,13.4862,0.15,8736
-9.85827e-08,-1.09602e-07,-1.58016e-06,-4.30877e-05,-4.28039e-05,-0.00163276,31.3018,31.3231,-0.0646921,15.7869,31.5001,31.1338,-0.0737557,31.3923,213,13.2504,14.0742,0.15,8737
-8.25996e-08,-1.46538e-07,-1.57832e-06,-3.77858e-05,-5.41084e-05,-0.002307,30.0774,29.051,-0.0105718,15.0663,30.1096,29.0311,-0.0228963,29.608,213,12.9013,14.8177,0.15,8738
-1.3336e-07,-1.29282e-07,-1.57921e-06,-5.10084e-05,-4.94295e-05,-0.00230897,28.961,29.0582,-0.158562,14.7133,29.2512,28.7849,-0.175434,29.1963,213,14.0231,14.5341,0.15,8739
-1.74407e-07,-1.27121e-07,-1.57826e-06,-6.35447e-05,-4.82876e-05,-0.00195868,28.1936,29.3897,-0.0745324,14.7788,29.4624,28.1416,-0.0952454,28.9199,213,14.7344,14.5254,0.15,8740
-2.3741e-07,-1.31233e-07,-1.57486e-06,-8.4756e-05,-4.92617e-05,-0.00160993,25.8334,29.0703,0.0693678,14.5496,29.1374,25.7975,0.0381737,27.5814,213,15.5969,14.6565,0.15,8741
-1.49183e-07,-1.68271e-07,-1.57529e-06,-5.76464e-05,-5.9533e-05,-0.00161435,29.13,28.9595,0.625969,14.4482,29.4995,28.6128,0.603111,28.4634,213,14.3853,15.2688,0.15,8742
-1.22295e-07,1.2475e-07,-1.57976e-06,-4.82726e-05,-4.73086e-05,-0.00253421,28.897,28.9498,-0.0702072,14.5716,29.0584,28.803,-0.0847584,29.0163,213,13.7709,6.33762,0.15,8743
-1.13929e-07,7.61666e-08,-1.57983e-06,-4.59293e-05,-3.45512e-05,-0.00197448,30.5406,31.4162,-0.0461052,15.7481,31.4416,30.5237,-0.0545637,31.0474,213,13.5363,7.53994,0.15,8744
-1.45547e-07,9.63855e-08,-1.57916e-06,-5.47708e-05,-4.03582e-05,-0.00162824,29.909,31.2251,-0.0561563,15.6664,31.2638,29.883,-0.0689496,30.6657,213,14.1872,6.97006,0.15,8745
-1.90164e-07,1.24576e-07,-1.57799e-06,-6.84687e-05,-4.70729e-05,-0.00220148,27.5873,29.0259,-0.030241,14.5657,29.076,27.5623,-0.0554306,28.4049,213,14.9506,6.28627,0.15,8746
-1.78619e-07,7.63324e-08,-1.57748e-06,-6.51932e-05,-3.42342e-05,-0.00196289,28.5328,30.9219,0.0894633,15.4386,30.9486,28.5242,0.0713669,29.7392,213,14.716,7.4886,0.15,8747
-1.57305e-07,2.03746e-07,-1.5786e-06,-5.62721e-05,-7.26844e-05,-0.0025154,27.7843,26.8982,0.0158565,13.9383,27.8587,26.8575,-0.0178181,27.3896,213,14.504,4.94906,0.15,8748
-1.05105e-07,2.32605e-07,-1.57734e-06,-4.42222e-05,-8.02237e-05,-0.00161338,29.8571,26.5776,0.0201289,14.9561,29.9064,26.5544,-0.0059185,28.3851,213,13.4856,4.62403,0.15,8749
-1.03653e-07,1.74613e-07,-1.57937e-06,-4.38429e-05,-6.18061e-05,-0.00162528,30.521,28.8876,-0.0754133,15.3323,30.5691,28.8598,-0.0956305,29.8468,213,13.4034,5.44269,0.15,8750
-7.8808e-08,1.43127e-07,-1.58018e-06,-3.62161e-05,-5.39832e-05,-0.00230988,30.1987,29.0715,-0.0615288,15.1475,30.2213,29.0611,-0.0736822,29.7318,213,12.7525,6.01258,0.15,8751
-2.12478e-07,1.64121e-07,-1.57641e-06,-7.70648e-05,-5.7603e-05,-0.00161356,26.3687,28.1389,-0.292847,14.2825,28.2354,26.3089,-0.329633,27.6522,213,15.298,5.50958,0.15,8752
-2.14752e-07,2.18626e-07,-1.57549e-06,-7.7282e-05,-7.63666e-05,-0.00193726,25.9184,25.9938,0.0180758,13.2356,26.4421,25.5172,-0.0290729,26.0211,213,15.3803,4.69092,0.15,8753
-2.58413e-07,1.34372e-07,-1.57395e-06,-8.94602e-05,-4.99732e-05,-0.00228948,25.48,27.9795,-0.315556,14.187,28.0253,25.4674,-0.348743,27.1855,213,15.8268,6.02813,0.15,8754
8.43194e-09,-2.36947e-07,-1.57564e-06,-2.34506e-05,-8.34108e-05,-0.00195022,31.7421,27.1151,0.603274,15.5898,31.7627,27.1146,0.583167,29.1349,213,9.69033,16.0954,0.15,8755
-5.442e-09,-2.82713e-07,-1.58283e-06,-2.32501e-05,-9.47689e-05,-0.00196512,31.0713,25.5333,-0.176769,15.6633,31.1109,25.5327,-0.215751,28.9435,213,10.2837,16.6093,0.15,8756
-1.30227e-08,-1.96835e-07,-1.57638e-06,-2.45017e-05,-6.96348e-05,-0.00221288,31.0807,28.0401,-0.100315,15.6044,31.0949,28.0395,-0.113931,29.7989,213,10.5903,15.5718,0.15,8757
1.8082e-08,-1.81849e-07,-1.57454e-06,-2.5583e-05,-6.45059e-05,-0.00196492,31.9808,28.9541,0.374764,15.8122,31.9904,28.9532,0.365985,30.2205,213,9.32243,15.3549,0.15,8758
2.45021e-08,-2.61978e-07,-1.57711e-06,-2.44696e-05,-9.027e-05,-0.00160359,32.2364,26.2436,0.568864,15.8764,32.2813,26.2392,0.528394,29.2044,213,9.01584,16.3924,0.15,8759
2.2129e-09,-1.18006e-07,-1.57888e-06,-2.43105e-05,-4.70466e-05,-0.00231785,31.4285,29.9957,-0.0304225,15.7359,31.435,29.9957,-0.0368875,30.7775,213,9.95998,14.1952,0.15,8760
2.77982e-08,-9.52763e-08,-1.57976e-06,-2.79844e-05,-3.92672e-05,-0.00197877,32.3511,31.4699,0.0111225,16.1754,32.3578,31.4672,0.007099,31.9147,213,9.00312,13.6725,0.15,8761
2.59914e-08,-1.3436e-07,-1.57765e-06,-2.72186e-05,-5.11891e-05,-0.0016354,33.0204,30.8309,-0.0585354,16.5493,33.0316,30.8281,-0.0669423,32.0536,213,9.04006,14.5352,0.15,8762
4.43743e-08,-1.49418e-07,-1.57687e-06,-2.83701e-05,-5.61378e-05,-0.00230753,30.7939,29.0379,-0.196499,15.5082,30.8094,29.0329,-0.206958,30.1673,213,8.36558,14.8322,0.15,8763
-4.1615e-08,-1.72361e-07,-1.5775e-06,-2.8175e-05,-6.29108e-05,-0.00230862,30.661,28.4651,-0.11552,15.4044,30.6798,28.4598,-0.129035,29.761,213,11.6561,15.2218,0.15,8764
-2.58036e-08,-1.43205e-07,-1.57825e-06,-2.72215e-05,-5.34939e-05,-0.00163354,33.0052,30.6069,0.116304,16.4537,33.0156,30.6045,0.108257,31.7705,213,11.0627,14.7078,0.15,8765
-2.54362e-08,-1.02417e-07,-1.57998e-06,-2.78386e-05,-4.12136e-05,-0.00197953,32.2883,31.2562,-0.0338779,16.1667,32.2948,31.2545,-0.0386855,31.8261,213,11.0258,13.8451,0.15,8766
-1.52175e-08,3.0294e-07,-1.57156e-06,-2.4626e-05,-0.000103207,-0.00161128,31.5692,24.4052,0.145518,15.7478,31.6053,24.405,0.109643,28.5839,213,10.6644,3.92934,0.15,8767
-5.76092e-09,4.33086e-07,-1.58258e-06,-2.43467e-05,-0.000142482,-0.00193474,29.6004,20.4768,0.021069,14.8645,29.6748,20.4778,-0.0542913,26.3626,213,10.293,2.86824,0.15,8768
8.02311e-09,3.59552e-07,-1.56468e-06,-2.43357e-05,-0.000122433,-0.00194527,30.2751,22.705,0.19531,15.094,30.3292,22.7051,0.141113,27.1899,213,9.72559,3.42391,0.15,8769
2.6054e-08,3.99143e-07,-1.5671e-06,-2.51304e-05,-0.000133481,-0.00218221,29.39,22.1295,0.144036,14.7143,29.481,22.1301,0.0524117,26.5283,213,9.00629,3.10645,0.15,8770
1.65799e-08,2.79488e-07,-1.56771e-06,-2.58212e-05,-9.42292e-05,-0.00194597,30.986,25.7062,0.168722,15.4384,31.0157,25.7064,0.13883,28.5943,213,9.37766,4.16755,0.15,8771
2.27594e-08,2.10163e-07,-1.5758e-06,-2.66574e-05,-7.38043e-05,-0.00162642,32.3837,28.0871,0.21249,16.1021,32.4008,28.0859,0.196612,30.2782,213,9.1559,4.98817,0.15,8772
1.83901e-08,1.55762e-07,-1.57904e-06,-2.69153e-05,-5.62208e-05,-0.00197225,31.9255,29.664,-0.0515248,16.0011,31.9382,29.6638,-0.0640545,30.9279,213,9.33662,5.82477,0.15,8773
-5.69414e-09,1.8706e-07,-1.57899e-06,-2.44056e-05,-6.75864e-05,-0.001967,31.8965,28.5686,0.0791624,15.9245,31.9124,28.5686,0.0633085,30.3158,213,10.2777,5.32161,0.15,8774
4.23207e-08,2.34024e-07,-1.5738e-06,-2.7722e-05,-8.20276e-05,-0.0019543,30.9746,26.7839,-0.287418,15.6531,30.9978,26.7817,-0.308396,29.4255,213,8.43659,4.67072,0.15,8775
-3.61787e-08,1.66374e-07,-1.57994e-06,-2.84817e-05,-5.96877e-05,-0.00253542,30.1481,28.4658,-0.0205352,15.0976,30.1617,28.4653,-0.0335785,29.3838,213,11.4217,5.63793,0.15,8776
-3.05993e-08,2.23751e-07,-1.57691e-06,-2.74648e-05,-7.66278e-05,-0.00196177,31.2932,27.4993,0.0715356,15.6317,31.3148,27.4978,0.0513952,29.5405,213,11.241,4.80133,0.15,8777
-4.58364e-08,2.70064e-07,-1.57602e-06,-2.84531e-05,-9.43019e-05,-0.00229282,29.8656,25.7039,-0.0705149,15.0069,29.9053,25.7023,-0.108591,28.1487,213,11.8084,4.24567,0.15,8778
-3.84421e-07,2.19675e-08,-1.58256e-06,-0.000129564,-2.324e-05,-0.00194741,21.806,30.0109,-0.211426,15.1851,30.0853,21.805,-0.284855,27.1926,213,16.8828,9.37091,0.15,8779
-3.77083e-07,4.25197e-08,-1.58461e-06,-0.000127592,-2.56032e-05,-0.00160452,21.2554,30.5464,0.0997307,15.2987,30.6234,21.2523,0.025898,27.1531,213,16.848,8.53697,0.15,8780
-2.6516e-07,3.34735e-08,-1.57176e-06,-8.76919e-05,-2.57191e-05,-0.00219069,26.4751,30.6559,0.281964,15.2204,30.6909,26.4721,0.249963,28.5661,213,15.7923,8.91606,0.15,8781
-3.23968e-07,5.59799e-10,-1.57445e-06,-0.000109283,-2.21145e-05,-0.00220028,24.325,30.1951,-0.204664,15.2422,30.2374,24.325,-0.246997,28.0004,213,16.3651,10.3127,0.15,8782
-4.60439e-07,9.00748e-09,-1.59371e-06,-0.00014879,-2.30614e-05,-0.00194879,19.4613,29.1821,-0.827703,15.1127,29.2899,19.4614,-0.935551,26.704,213,17.4208,9.93361,0.15,8783
-2.03306e-07,1.35e-08,-1.57128e-06,-7.29972e-05,-2.24638e-05,-0.0019572,28.1106,32.0038,0.210975,15.9155,32.0232,28.1099,0.19225,30.0659,213,15.0094,9.77032,0.15,8784
-1.77842e-07,-1.07997e-08,-1.57408e-06,-6.38918e-05,-2.36324e-05,-0.00162965,29.4123,33.0855,0.103775,16.5047,33.0994,29.4123,0.0899113,31.3291,213,14.6409,10.8355,0.15,8785
-2.37539e-07,-1.06172e-08,-1.57199e-06,-8.07751e-05,-2.33718e-05,-0.00195506,27.2611,31.6908,0.254482,15.7419,31.715,27.2603,0.231098,29.5098,213,15.4585,10.8152,0.15,8786
-2.84382e-07,-2.36088e-08,-1.57591e-06,-9.8343e-05,-2.32086e-05,-0.00195502,25.2259,31.0297,-0.0640805,15.5935,31.0774,25.2237,-0.109598,28.7112,213,15.9965,11.3779,0.15,8787
-1.99739e-07,3.37076e-08,-1.57247e-06,-7.13998e-05,-2.59148e-05,-0.00195979,28.18,31.69,0.229683,15.7502,31.711,28.1779,0.210696,29.8908,213,14.9746,8.93637,0.15,8788
4.03672e-07,2.45866e-08,-1.58022e-06,-0.000135451,-2.30551e-05,-0.00228133,22.2545,29.3684,0.0931481,14.7112,29.4423,22.2539,0.0198448,26.5679,213,3.08211,9.25318,0.15,8789
4.05086e-07,5.38595e-10,-1.57864e-06,-0.00013543,-2.19466e-05,-0.00160061,20.2385,30.5784,-0.301933,15.5098,30.648,20.2386,-0.37162,27.3437,213,3.07915,10.3194,0.15,8790
3.00744e-07,3.29924e-08,-1.57073e-06,-0.00010031,-2.53865e-05,-0.00228207,25.3073,30.0817,0.163707,14.9966,30.1197,25.3065,0.126528,27.8997,213,3.94835,8.91597,0.15,8791
4.17751e-07,4.30824e-08,-1.58472e-06,-0.00013898,-2.56347e-05,-0.0019521,20.7831,29.521,0.018057,14.8363,29.6071,20.7805,-0.0654474,26.3905,213,2.95681,8.4964,0.15,8792
2.28449e-07,3.52272e-08,-1.57201e-06,-8.04262e-05,-2.57301e-05,-0.00195948,27.0685,31.2917,-0.124081,15.7348,31.3198,27.066,-0.149723,29.573,213,4.73939,8.86219,0.15,8793
2.36894e-07,5.58437e-08,-1.57281e-06,-8.37957e-05,-2.87165e-05,-0.00161845,26.7241,31.7369,0.143547,15.8267,31.7697,26.7187,0.116177,29.4546,213,4.61409,8.1054,0.15,8794
2.16696e-07,1.67689e-08,-1.57231e-06,-7.75156e-05,-2.26672e-05,-0.00196348,27.4988,31.7288,-0.0614098,15.9179,31.7521,27.4979,-0.0837861,29.9363,213,4.90165,9.62857,0.15,8795
1.69925e-07,3.71048e-08,-1.57695e-06,-6.08524e-05,-2.63942e-05,-0.00230682,28.7789,30.9602,0.100719,15.4424,30.9732,28.7781,0.0884968,29.8478,213,5.56739,8.81801,0.15,8796
3.85436e-07,-1.83357e-08,-1.57602e-06,-0.000130139,-2.25689e-05,-0.00195185,21.8087,30.1098,-0.0711368,15.1584,30.1777,21.8089,-0.139179,27.1189,213,3.22039,11.1622,0.15,8797
2.75712e-07,-3.59436e-09,-1.57065e-06,-9.24568e-05,-2.28292e-05,-0.00195271,25.992,31.4098,0.355876,15.5493,31.4322,25.992,0.333501,28.767,213,4.21489,10.5156,0.15,8798
2.0656e-07,-2.52821e-09,-1.57443e-06,-7.38534e-05,-2.32082e-05,-0.00195958,27.9715,31.8798,0.15748,15.8797,31.8983,27.9715,0.138942,29.9894,213,5.04289,10.4714,0.15,8799
2.35103e-07,2.97605e-07,-1.56935e-06,-8.37876e-05,-0.000100979,-0.00135957,24.0935,22.373,0.669394,11.9177,24.4208,22.1297,0.585392,22.7764,213,4.39389,3.77713,0.15,8800
1.65526e-07,3.83202e-07,-1.56591e-06,-5.7819e-05,-0.000129583,-0.00192163,26.5706,21.0307,0.467769,13.1897,26.7245,20.9995,0.345055,24.0339,213,5.33368,3.10108,0.15,8801
2.3382e-07,4.1405e-07,-1.57505e-06,-8.26796e-05,-0.000137915,-0.00224672,24.0719,20.5788,0.191141,12.1549,24.308,20.5356,-0.00178998,22.6603,213,4.32688,2.79332,0.15,8802
3.1032e-07,4.31758e-07,-1.58005e-06,-0.000102545,-0.000142953,-0.00191234,21.1073,18.0299,0.0797341,10.8054,21.4954,17.8368,-0.115299,20.0336,213,3.49331,2.60275,0.15,8803
4.316e-07,2.4203e-07,-1.5897e-06,-0.000144191,-8.40828e-05,-0.00191654,19.1066,23.7954,1.91886,11.1916,24.0713,19.0614,1.68818,20.3461,213,2.66026,4.26673,0.15,8804
4.03901e-07,1.75205e-07,-1.57919e-06,-0.000137275,-5.95322e-05,-0.00225488,22.4236,27.3393,3.32801,12.1947,27.5285,22.4232,3.13918,22.2798,213,2.91735,5.19239,0.15,8805
3.10355e-07,2.35612e-07,-1.57307e-06,-0.000103279,-8.35469e-05,-0.00217858,23.2163,24.5817,-0.174477,12.5126,24.7916,23.0655,-0.233568,24.2083,213,3.64418,4.39502,0.15,8806
4.50794e-07,3.11304e-07,-1.58943e-06,-0.000152293,-0.000102714,-0.001917,17.7107,21.5366,1.91013,10.234,22.0355,17.5545,1.56749,18.636,213,2.44755,3.51994,0.15,8807
4.06098e-07,3.98415e-07,-1.57556e-06,-0.000133143,-0.000131613,-0.00192507,17.0192,17.1858,-2.75926,10.5069,18.0678,16.3239,-2.946,20.1984,213,2.70213,2.78847,0.15,8808
2.33182e-07,-2.69996e-07,-1.57496e-06,-8.55309e-05,-9.21313e-05,-0.0015923,24.1326,23.5304,-0.108747,12.4938,24.7954,22.951,-0.192161,24.1183,213,4.32688,16.7067,0.15,8809
1.63536e-07,-2.47682e-07,-1.57467e-06,-5.89394e-05,-8.62618e-05,-0.00159863,28.1738,25.6944,1.0757,13.68,28.3835,25.5368,1.02355,26.0535,213,5.34037,16.4001,0.15,8810
2.38593e-07,-1.92406e-07,-1.5662e-06,-8.71221e-05,-6.57683e-05,-0.00228235,25.2976,26.6389,-0.320278,13.5772,26.7883,25.1939,-0.366035,26.3933,213,4.40058,15.7241,0.15,8811
3.09537e-07,-2.82441e-07,-1.58039e-06,-0.000105281,-9.47476e-05,-0.00249223,23.6182,24.211,0.198795,12.3623,24.8092,23.1343,0.084508,23.9312,213,3.49331,16.8972,0.15,8812
3.09123e-07,-1.5399e-07,-1.57003e-06,-0.00010453,-5.6055e-05,-0.00193566,23.7983,27.549,0.563275,13.5534,27.6228,23.7718,0.515996,25.4012,213,3.71936,15.1146,0.15,8813
4.04814e-07,-1.13557e-07,-1.58146e-06,-0.00013817,-4.27858e-05,-0.0019263,20.6642,28.0265,0.745262,13.7359,28.1222,20.6634,0.6504,24.6054,213,2.983,14.3034,0.15,8814
4.42293e-07,-1.59628e-07,-1.58901e-06,-0.000146417,-5.67447e-05,-0.00226679,19.9718,25.6533,-1.06335,13.5164,25.8174,19.9596,-1.21529,24.6319,213,2.65073,15.2195,0.15,8815
4.60236e-07,-2.07858e-07,-1.59861e-06,-0.000157399,-6.89669e-05,-0.00189597,19.0923,25.9165,4.0984,11.1261,26.1377,19.0838,3.88562,19.6964,213,2.44755,15.9801,0.15,8816
4.11105e-07,-2.63352e-07,-1.59459e-06,-0.000138882,-8.58883e-05,-0.00192238,17.7035,21.8085,-3.15213,12.6866,22.07,17.593,-3.30315,23.4573,213,2.70213,16.7115,0.15,8817
-2.38143e-07,4.16977e-07,-1.57497e-06,-8.41502e-05,-0.000139652,-0.00156999,22.8803,17.7802,0.6467,11.312,23.0935,17.7442,0.469468,20.4802,213,15.83,2.76867,0.15,8818
-1.63416e-07,3.78976e-07,-1.56643e-06,-5.66101e-05,-0.000127853,-0.00226087,26.686,22.1896,0.33426,13.3067,26.8268,22.1698,0.213323,24.6176,213,14.7333,3.13751,0.15,8819
-2.32839e-07,2.99411e-07,-1.56781e-06,-8.3428e-05,-0.000101747,-0.00135662,24.2282,22.3944,0.957256,11.8438,24.5563,22.1549,0.868659,22.5829,213,15.683,3.76156,0.15,8820
-3.13171e-07,4.35439e-07,-1.57805e-06,-0.000103195,-0.000143567,-0.00191084,20.916,17.8327,-0.252489,10.9193,21.3552,17.6243,-0.483353,20.2328,213,16.6376,2.57528,0.15,8821
-3.1166e-07,2.41609e-07,-1.57339e-06,-0.000103622,-8.53727e-05,-0.0019377,22.5506,24.0147,-0.377495,12.3481,24.258,22.368,-0.43823,23.8076,213,16.477,4.32208,0.15,8822
-4.04961e-07,1.77707e-07,-1.58174e-06,-0.000138099,-6.05587e-05,-0.00191101,21.4517,27.4354,4.17902,11.8214,27.63,21.449,3.98713,21.238,213,17.1967,5.15136,0.15,8823
-4.39666e-07,2.45953e-07,-1.59113e-06,-0.000147678,-8.52329e-05,-0.00156379,17.5384,23.2486,2.68237,10.5758,23.57,17.481,2.4184,18.8593,213,17.4994,4.22201,0.15,8824
-4.57175e-07,3.18597e-07,-1.58973e-06,-0.000154354,-0.000104393,-0.00190662,17.2973,21.1725,1.48255,10.4092,21.8235,17.1239,1.00499,18.9118,213,17.6986,3.44549,0.15,8825
-4.1257e-07,4.05662e-07,-1.57866e-06,-0.000134315,-0.00013327,-0.00225135,19.4484,19.531,-0.107957,10.3565,20.3803,18.8239,-0.332735,19.9803,213,17.4577,2.72753,0.15,8826
-2.599e-07,-1.89188e-07,-1.56649e-06,-9.30711e-05,-6.56671e-05,-0.00228492,24.7902,26.5199,-0.228282,13.4679,26.657,24.7036,-0.2788,26.0142,213,15.9382,15.6837,0.15,8827
-1.73296e-07,-2.3302e-07,-1.57112e-06,-6.31285e-05,-8.06e-05,-0.00194026,27.3537,26.0203,0.153221,13.7349,27.5809,25.8353,0.111114,26.6399,213,14.8988,16.2289,0.15,8828
-2.30868e-07,-2.65502e-07,-1.57299e-06,-8.54358e-05,-8.95033e-05,-0.00159326,24.0925,23.7149,-0.495454,12.6732,24.777,23.1044,-0.569399,24.5528,213,15.7404,16.6525,0.15,8829
-3.12363e-07,-2.84745e-07,-1.57957e-06,-0.00010618,-9.49138e-05,-0.00226911,23.1003,23.84,0.389295,12.1244,24.5224,22.5335,0.273682,23.318,213,16.6376,16.9247,0.15,8830
-4.4992e-07,-1.62598e-07,-1.59008e-06,-0.000149873,-5.707e-05,-0.0019373,17.9848,25.1463,-1.72065,13.6088,25.3252,17.9777,-1.89243,24.3886,213,17.5054,15.2719,0.15,8831
-4.1157e-07,-1.11025e-07,-1.58113e-06,-0.000140458,-4.16189e-05,-0.00158608,19.3341,28.3361,0.830576,13.84,28.4227,19.3354,0.742653,24.4383,213,17.1642,14.2447,0.15,8832
-3.15281e-07,-1.51738e-07,-1.57118e-06,-0.000106399,-5.54759e-05,-0.0019416,23.2776,27.2515,-0.165438,13.7688,27.3275,23.2463,-0.21011,25.7408,213,16.4385,15.0801,0.15,8833
-4.66087e-07,-2.13164e-07,-1.59918e-06,-0.000159222,-7.07276e-05,-0.00223185,20.1498,25.7603,3.14529,11.5011,25.9648,20.128,2.96256,20.7102,213,17.6986,16.0545,0.15,8834
-4.18044e-07,-2.68462e-07,-1.59511e-06,-0.000141104,-8.77428e-05,-0.00191906,17.5852,21.7216,-2.70094,12.4361,21.9993,17.4795,-2.87294,22.9486,213,17.4577,16.7725,0.15,8835
1.1098e-07,7.22861e-09,-1.58012e-06,-4.53018e-05,-2.39063e-05,-0.00197968,30.9213,32.5724,-0.071187,16.3269,32.5777,30.9211,-0.0762199,31.8579,213,6.68556,10.0647,0.15,8836
8.51535e-08,-1.1669e-08,-1.58103e-06,-3.99398e-05,-2.31461e-05,-0.00198265,31.5241,32.8157,-0.0603814,16.4418,32.8195,31.5239,-0.0640445,32.2553,213,7.29155,10.8788,0.15,8837
6.68592e-08,1.23301e-08,-1.58092e-06,-3.46957e-05,-2.41493e-05,-0.00198411,32.07,32.8852,-0.0303869,16.4598,32.8872,32.07,-0.0323933,32.5187,213,7.78903,9.8609,0.15,8838
1.21379e-07,2.51494e-08,-1.57965e-06,-4.89626e-05,-2.42393e-05,-0.00197559,30.5537,32.4587,0.0189274,16.2276,32.467,30.5525,0.0117725,31.5416,213,6.45634,9.31556,0.15,8839
1.47594e-07,8.17944e-10,-1.57811e-06,-5.49805e-05,-2.32404e-05,-0.00197358,29.9179,32.3732,-0.0110667,16.2011,32.3822,29.9179,-0.0199998,31.243,213,5.95886,10.3335,0.15,8840
8.35686e-08,5.62978e-08,-1.58105e-06,-3.7149e-05,-3.0698e-05,-0.00198182,31.5666,32.0753,-0.0914314,16.092,32.0884,31.5578,-0.0957014,31.9221,213,7.30976,8.18107,0.15,8841
1.2882e-07,4.48853e-08,-1.57987e-06,-5.13147e-05,-2.7334e-05,-0.00197401,30.1985,32.0501,-0.00360763,16.0366,32.0609,30.1963,-0.0122567,31.1827,213,6.29409,8.54918,0.15,8842
5.76766e-08,3.73905e-08,-1.58094e-06,-3.32887e-05,-2.60554e-05,-0.00174117,32.8783,33.507,-0.0237822,16.7687,33.5116,32.8758,-0.02586,33.2241,213,8.05417,8.86814,0.15,8843
5.31744e-08,6.25812e-08,-1.581e-06,-3.21542e-05,-3.19289e-05,-0.00232186,31.108,31.1251,-0.0620748,15.6101,31.1552,31.0809,-0.0650328,31.1831,213,8.1809,8.00248,0.15,8844
5.30914e-07,9.22953e-08,-1.60528e-06,-0.000174853,-3.74311e-05,-0.00157356,15.588,28.0885,2.07798,13.2786,28.358,15.5957,1.80077,23.0051,213,2.17591,6.87805,0.15,8845
4.77584e-07,6.03132e-08,-1.59805e-06,-0.000155248,-2.99131e-05,-0.00159676,17.6714,29.1147,0.439969,14.4563,29.2354,17.6679,0.322765,25.2052,213,2.5287,7.85181,0.15,8846
3.57511e-07,7.2413e-08,-1.57821e-06,-0.000118899,-3.2821e-05,-0.00195712,22.5338,29.1764,-0.498273,14.9065,29.2484,22.5282,-0.564641,27.0856,213,3.39494,7.51459,0.15,8847
3.46052e-07,1.2863e-07,-1.57086e-06,-0.000114381,-4.77631e-05,-0.0016162,22.0364,28.1172,-0.0233409,14.1363,28.1936,22.0156,-0.0789177,25.7456,213,3.43405,6.09534,0.15,8848
4.76509e-07,1.33637e-07,-1.59713e-06,-0.000158716,-5.04956e-05,-0.00190131,18.9589,27.3102,2.62666,12.5726,27.5461,18.9488,2.40086,22.1363,213,2.45013,5.96705,0.15,8849
3.143e-07,9.79181e-08,-1.57356e-06,-0.000107477,-3.9033e-05,-0.00160116,23.3318,29.5675,0.0786806,14.8018,29.6293,23.3229,0.0257399,27.0083,213,3.7474,6.81256,0.15,8850
2.73678e-07,7.52729e-08,-1.57324e-06,-9.4539e-05,-3.38341e-05,-0.00195033,25.3332,30.0258,-0.0259907,15.0659,30.0696,25.3256,-0.0622323,28.0622,213,4.17551,7.45715,0.15,8851
4.85459e-07,-8.6548e-08,-1.59087e-06,-0.000157912,-3.5852e-05,-0.00192928,18.2002,27.5991,-0.743197,14.2934,27.7203,18.2023,-0.866479,25.2132,213,2.47061,13.597,0.15,8852
3.39673e-07,-8.22131e-08,-1.57687e-06,-0.000115349,-3.47119e-05,-0.00228069,23.5753,28.6707,-0.37842,14.5891,28.7372,23.5714,-0.441031,26.969,213,3.53924,13.492,0.15,8853
5.30471e-07,-5.8853e-08,-1.5975e-06,-0.000171488,-2.85389e-05,-0.00227527,19.667,28.7053,2.10534,13.6055,29.0109,19.667,1.7998,23.9477,213,2.21533,12.7271,0.15,8854
3.26929e-07,-3.99867e-08,-1.57575e-06,-0.000110998,-2.55467e-05,-0.00251756,24.6402,29.2547,0.00268603,14.6659,29.2943,24.6408,-0.0375223,27.3041,213,3.69149,12.072,0.15,8855
4.78851e-07,-3.5715e-08,-1.59153e-06,-0.000153813,-2.561e-05,-0.00160002,17.5729,29.2707,-0.723138,15.1044,29.3781,17.573,-0.830652,26.3688,213,2.55575,11.8758,0.15,8856
3.0754e-07,-5.85804e-08,-1.57688e-06,-0.000106662,-2.91254e-05,-0.00160636,23.9323,30.9935,0.459534,15.2995,31.027,23.9305,0.427906,27.7402,213,3.85599,12.7447,0.15,8857
2.4613e-07,-3.92974e-08,-1.57636e-06,-8.46998e-05,-2.56696e-05,-0.00162507,26.3893,31.7713,-0.682349,16.2629,31.8095,26.385,-0.716253,30.1813,213,4.52064,12.0311,0.15,8858
4.36924e-08,4.44211e-07,-1.58881e-06,-2.82521e-05,-0.000147615,-0.00192361,29.9938,20.6787,2.62911,13.7421,30.0467,20.6923,2.56256,24.203,213,8.30714,2.77076,0.15,8859
7.76115e-08,5.00063e-07,-1.60001e-06,-3.38514e-05,-0.000161805,-0.00159744,27.6315,15.9853,-1.48511,14.6938,27.769,15.9813,-1.61865,25.6159,213,7.22813,2.38524,0.15,8860
5.47572e-08,3.45556e-07,-1.57587e-06,-2.99963e-05,-0.00011618,-0.00160392,30.7616,22.9066,1.0464,14.9105,30.8167,22.9023,0.995655,26.7566,213,7.95921,3.51441,0.15,8861
1.16022e-07,4.51927e-07,-1.58363e-06,-4.59301e-05,-0.000148566,-0.0022635,26.9689,20.4649,0.0268105,13.6075,27.1105,20.4547,-0.104567,24.5728,213,6.26336,2.64799,0.15,8862
1.14901e-07,3.25851e-07,-1.57284e-06,-4.6308e-05,-0.000110569,-0.00160099,28.4772,22.6276,-0.066564,14.3239,28.539,22.6081,-0.108883,26.191,213,6.33038,3.6318,0.15,8863
8.64597e-08,3.06381e-07,-1.57664e-06,-3.68903e-05,-0.000105106,-0.00161274,29.7041,23.493,-0.444525,15.1348,29.7693,23.4835,-0.500221,27.6674,213,7.03198,3.83997,0.15,8864
6.27383e-08,2.75322e-07,-1.57562e-06,-3.26029e-05,-9.37972e-05,-0.00251976,29.0271,25.7321,-0.204827,14.6595,29.0724,25.7285,-0.246554,27.7983,213,7.73113,4.17566,0.15,8865
7.30632e-08,-3.27954e-07,-1.59595e-06,-3.17101e-05,-0.000109374,-0.00193835,30.2246,24.2282,1.04136,14.6568,30.299,24.2099,0.985303,26.7932,213,7.23113,17.1142,0.15,8866
4.15903e-08,-2.90845e-07,-1.58204e-06,-2.74726e-05,-9.78826e-05,-0.00199373,30.0916,24.6582,-1.15527,15.6781,30.1502,24.6502,-1.20591,29,213,8.32195,16.727,0.15,8867
5.42653e-08,-2.25519e-07,-1.5761e-06,-3.0105e-05,-7.8376e-05,-0.00197223,30.8596,27.1172,-0.104672,15.5089,30.8903,27.1094,-0.12753,29.3108,213,7.95405,15.9865,0.15,8868
1.14338e-07,-2.10938e-07,-1.57533e-06,-4.68397e-05,-7.34702e-05,-0.00196019,29.2869,27.2173,0.0663306,14.6586,29.3641,27.1595,0.0469208,28.2794,213,6.33711,15.8693,0.15,8869
1.11686e-07,-2.94895e-07,-1.58671e-06,-4.55477e-05,-0.000100013,-0.00194991,28.6265,24.4235,0.0902607,14.3793,28.771,24.357,0.0122891,26.8255,213,6.26341,16.8519,0.15,8870
8.6327e-08,-1.97896e-07,-1.57628e-06,-3.70678e-05,-7.05802e-05,-0.00230997,29.6234,27.499,-0.230221,14.9593,29.668,27.4747,-0.250544,28.8844,213,7.03146,15.6591,0.15,8871
6.30183e-08,-1.77538e-07,-1.5761e-06,-3.31873e-05,-6.34655e-05,-0.00163084,31.7504,28.9918,-0.232589,16.016,31.7826,28.9765,-0.249504,30.7253,213,7.72536,15.3245,0.15,8872
-1.13009e-07,3.27652e-07,-1.57184e-06,-4.53118e-05,-0.000111113,-0.00193433,28.4912,23.4069,0.517755,14.046,28.5585,23.3907,0.466601,25.8977,213,13.7313,3.61931,0.15,8873
-1.18085e-07,4.55072e-07,-1.58375e-06,-4.66437e-05,-0.000149365,-0.00158746,27.6694,18.2535,1.69276,13.1252,27.8174,18.2313,1.56699,23.0073,213,13.8783,2.62642,0.15,8874
-8.06695e-08,5.15189e-07,-1.59507e-06,-3.44959e-05,-0.00016658,-0.00192955,27.4676,17.2885,-0.68334,14.2729,27.6653,17.2879,-0.880466,25.0264,213,12.9685,2.28886,0.15,8875
-7.11988e-08,2.80719e-07,-1.57634e-06,-3.30099e-05,-9.78094e-05,-0.00161334,30.6112,24.7058,-0.0773691,15.3874,30.6568,24.7009,-0.118004,28.2713,213,12.6307,4.11294,0.15,8876
-5.16069e-08,3.79798e-07,-1.57806e-06,-3.02603e-05,-0.000125135,-0.00194232,29.4357,22.1109,-0.108347,14.8428,29.5074,22.1092,-0.178299,26.7648,213,12.0541,3.24095,0.15,8877
-5.44588e-08,4.92039e-07,-1.5927e-06,-3.01653e-05,-0.00016006,-0.00193294,28.437,18.3899,0.105147,14.2873,28.559,18.3886,-0.0155847,25.0864,213,12.1614,2.45146,0.15,8878
-3.17064e-08,4.73293e-07,-1.59233e-06,-2.52225e-05,-0.000155015,-0.00194527,28.7212,18.7106,-0.929663,14.9895,28.8854,18.7104,-1.09368,26.4053,213,11.3391,2.58419,0.15,8879
-7.19917e-08,-3.37156e-07,-1.5952e-06,-3.21478e-05,-0.00011138,-0.00137288,31.0558,23.0998,1.05012,15.0668,31.1319,23.0755,0.998346,27.0216,213,12.8729,17.1919,0.15,8880
-1.07067e-07,-2.90036e-07,-1.58308e-06,-4.40731e-05,-9.78717e-05,-0.00229642,28.2849,24.8766,-0.279131,14.3844,28.4157,24.8197,-0.353047,27.15,213,13.7253,16.792,0.15,8881
-1.32468e-07,-2.3776e-07,-1.57394e-06,-5.06017e-05,-8.22696e-05,-0.00229789,28.2253,26.2173,0.000546521,14.1943,28.3443,26.1431,-0.0443151,27.3546,213,14.1875,16.2377,0.15,8882
-9.07759e-08,-2.10478e-07,-1.57638e-06,-3.94526e-05,-7.45317e-05,-0.00161714,30.7407,27.5413,0.217871,15.2979,30.7941,27.5075,0.198342,29.092,213,13.2118,15.8319,0.15,8883
-6.4805e-08,-1.80438e-07,-1.57734e-06,-3.20044e-05,-6.61138e-05,-0.00196795,31.0879,28.4601,0.0050995,15.5627,31.1153,28.4481,-0.0102271,29.8813,213,12.4391,15.372,0.15,8884
-4.80405e-08,-2.45768e-07,-1.57956e-06,-2.89855e-05,-8.27052e-05,-0.00162682,31.4526,26.5379,-0.574751,16.0384,31.4812,26.5301,-0.595538,29.9101,213,11.9667,16.236,0.15,8885
-4.90775e-08,-3.22984e-07,-1.59186e-06,-2.78154e-05,-0.00011027,-0.00194819,30.5576,24.1947,0.942974,14.8784,30.6312,24.1896,0.87446,27.116,213,12.09,17.0449,0.15,8886
-2.89987e-08,-3.08186e-07,-1.58869e-06,-2.37773e-05,-0.000105321,-0.00195434,31.2565,24.9611,1.25595,15.0611,31.3193,24.9571,1.19713,27.4987,213,11.307,16.8947,0.15,8887
-3.23243e-07,7.6227e-08,-1.57894e-06,-0.000108614,-3.38364e-05,-0.00230107,24.1032,28.8483,-0.446913,14.6996,28.9015,24.1008,-0.497664,27.317,213,16.4241,7.41628,0.15,8888
-4.66351e-07,5.9918e-08,-1.60194e-06,-0.000152023,-2.9688e-05,-0.00196014,19.0348,28.4957,-0.38834,14.5333,28.5884,19.0318,-0.478088,25.6596,213,17.5147,7.87113,0.15,8889
-5.24249e-07,9.45332e-08,-1.60569e-06,-0.000173767,-3.79777e-05,-0.00190429,17.4026,27.8739,1.80938,13.282,28.1197,17.4106,1.55565,23.1485,213,17.8977,6.82333,0.15,8890
-4.76446e-07,1.36715e-07,-1.5975e-06,-0.000159206,-5.11531e-05,-0.00190605,18.8883,27.2267,2.66119,12.4964,27.4448,18.8794,2.45203,21.9984,213,17.6549,5.90086,0.15,8891
-3.40825e-07,1.33306e-07,-1.57291e-06,-0.000112597,-4.8957e-05,-0.00196122,22.7715,27.7157,-0.157976,14.0014,27.7881,22.7559,-0.214766,25.8567,213,16.6326,6.00094,0.15,8892
-3.05755e-07,9.96642e-08,-1.5761e-06,-0.000104984,-3.92399e-05,-0.00194697,24.0828,29.152,0.0810758,14.588,29.2075,24.0768,0.031526,26.9791,213,16.2851,6.77763,0.15,8893
-2.45208e-07,7.65862e-08,-1.57477e-06,-8.3655e-05,-3.41991e-05,-0.00195409,26.5013,30.3367,0.0324814,15.1882,30.3781,26.4908,0.00166443,28.6314,213,15.6184,7.44347,0.15,8894
-3.50456e-07,-7.74758e-08,-1.57917e-06,-0.000119011,-3.30193e-05,-0.00194128,22.8474,29.5011,0.397107,14.618,29.568,22.8455,0.332076,26.5216,213,16.6535,13.3415,0.15,8895
-4.99747e-07,-8.47077e-08,-1.59183e-06,-0.000160789,-3.56579e-05,-0.00159371,16.0497,27.4615,-1.47189,14.591,27.585,16.0513,-1.59699,25.4566,213,17.7205,13.5333,0.15,8896
-5.4842e-07,-5.70943e-08,-1.60096e-06,-0.000177599,-2.8401e-05,-0.00248729,20.1509,28.2023,1.57172,13.5789,28.465,20.1527,1.30721,24.1018,213,18.0032,12.6515,0.15,8897
-2.97415e-07,-4.52602e-08,-1.58012e-06,-0.000103713,-2.62016e-05,-0.00229414,24.9435,29.8402,-0.00185328,14.9661,29.8851,24.9438,-0.0470899,27.793,213,16.1499,12.2552,0.15,8898
-4.05206e-07,-3.22534e-08,-1.58981e-06,-0.00013127,-2.48783e-05,-0.00195709,21.0111,29.2852,-1.38712,15.3907,29.339,21.0125,-1.44233,27.5775,213,17.0565,11.7527,0.15,8899
-5.21581e-07,-3.62473e-08,-1.60328e-06,-0.000169536,-2.56349e-05,-0.00159406,17.2798,30.4084,3.7579,13.6255,30.7084,17.2803,3.45741,23.6009,213,17.83,11.8774,0.15,8900
-4.97668e-07,-1.49022e-08,-1.60491e-06,-0.000162568,-2.20264e-05,-0.00191571,19.6888,30.5343,3.37245,13.835,30.7885,19.6886,3.11847,24.1185,213,17.6766,11.0001,0.15,8901
5.79766e-08,-4.98581e-08,-1.58103e-06,-3.32753e-05,-2.82064e-05,-0.00164355,33.0759,33.5326,-0.0488439,16.7971,33.5431,33.0677,-0.0510696,33.359,213,8.03162,12.348,0.15,8902
4.57259e-08,-7.63003e-08,-1.58053e-06,-3.00105e-05,-3.53028e-05,-0.00254745,30.5464,30.2627,-0.0431327,15.3013,30.5556,30.2574,-0.0470423,30.4546,213,8.39325,13.1752,0.15,8903
1.95849e-08,-6.54403e-08,-1.58072e-06,-2.73824e-05,-3.25303e-05,-0.00164398,33.6704,33.201,-0.0487041,16.8622,33.6738,33.1995,-0.0505972,33.4898,213,9.31317,12.8352,0.15,8904
1.80814e-08,-3.85685e-08,-1.58105e-06,-2.75979e-05,-2.67647e-05,-0.0023256,31.6539,31.7053,-0.0317375,15.8697,31.7068,31.6533,-0.0325969,31.7127,213,9.37799,11.9306,0.15,8905
4.20701e-08,-2.74001e-08,-1.58107e-06,-2.99452e-05,-2.5801e-05,-0.00198646,32.5168,32.8379,-0.0618612,16.4519,32.8408,32.5149,-0.0629305,32.742,213,8.54916,11.5065,0.15,8906
6.35613e-08,-2.74758e-08,-1.58122e-06,-3.36163e-05,-2.57017e-05,-0.00198404,32.1368,32.7476,-0.0394725,16.3958,32.7502,32.1362,-0.0414458,32.489,213,7.87749,11.5165,0.15,8907
1.68591e-09,-5.26639e-08,-1.58097e-06,-2.61193e-05,-3.02974e-05,-0.00198496,32.8085,32.4878,-0.0236121,16.4175,32.8099,32.4878,-0.0250445,32.6751,213,9.98786,12.4278,0.15,8908
-9.59213e-08,-3.44464e-08,-1.58035e-06,-4.059e-05,-2.65247e-05,-0.00231865,30.507,31.3996,-0.0393627,15.7258,31.4073,30.5043,-0.0443849,31.0101,213,13.0904,11.8067,0.15,8909
-1.46828e-07,-2.50823e-08,-1.57778e-06,-5.61445e-05,-2.41623e-05,-0.00163446,30.3102,33.2205,-0.084379,16.6617,33.2302,30.3094,-0.0932652,31.9633,213,14.1313,11.4396,0.15,8910
-1.23969e-07,-3.60964e-10,-1.57779e-06,-4.93045e-05,-2.31516e-05,-0.00197519,30.5511,32.5693,0.0117966,16.2851,32.5756,30.5511,0.00550156,31.6065,213,13.6822,10.3947,0.15,8911
-1.04909e-07,2.39616e-08,-1.57886e-06,-4.48129e-05,-2.42286e-05,-0.00197846,30.9711,32.5542,-0.0590194,16.3119,32.5601,30.9699,-0.063713,31.8585,213,13.278,9.37229,0.15,8912
-8.381e-08,9.71347e-09,-1.58002e-06,-3.86348e-05,-2.40837e-05,-0.00164284,32.5224,33.8517,-0.0975562,16.9776,33.8548,32.5221,-0.10034,33.3088,213,12.7684,9.97631,0.15,8913
-6.91768e-08,-1.27407e-08,-1.58056e-06,-3.59208e-05,-2.31964e-05,-0.00198282,31.9919,32.967,0.0302525,16.471,32.9698,31.9917,0.0276577,32.4641,213,12.3735,10.92,0.15,8914
-6.59085e-08,-3.26894e-08,-1.58084e-06,-3.47382e-05,-2.64467e-05,-0.00164397,32.949,33.705,-0.060948,16.8864,33.7097,32.9465,-0.0631713,33.3978,213,12.2913,11.728,0.15,8915
-5.5838e-08,1.39508e-07,-1.58054e-06,-3.12258e-05,-5.30714e-05,-0.0016346,32.4206,30.4343,-0.0982549,16.2712,32.4354,30.4282,-0.106938,31.5866,213,12.0711,6.10116,0.15,8916
-2.79597e-08,1.15181e-07,-1.5809e-06,-2.77433e-05,-4.4891e-05,-0.00163862,33.2028,31.6394,0.00673693,16.6054,33.2113,31.6373,0.000389518,32.4525,213,11.1078,6.62144,0.15,8917
-6.93467e-08,9.79336e-08,-1.58083e-06,-3.53865e-05,-3.90611e-05,-0.00197794,31.5306,31.2478,-0.0590435,15.8136,31.5618,31.2231,-0.0655004,31.4593,213,12.4386,6.99609,0.15,8918
-3.01815e-08,7.63567e-08,-1.5809e-06,-2.84543e-05,-3.46013e-05,-0.00198274,32.4154,31.9418,-0.0541348,16.2387,32.4205,31.9394,-0.0569094,32.2396,213,11.1673,7.60119,0.15,8919
-5.75846e-08,6.19839e-08,-1.58082e-06,-3.2285e-05,-3.19144e-05,-0.00164262,33.0713,33.103,-0.0514671,16.612,33.1691,33.0085,-0.0548135,33.1439,213,12.0608,8.01931,0.15,8920
-8.13271e-08,6.41184e-08,-1.58062e-06,-3.74576e-05,-3.25625e-05,-0.0019794,31.5076,31.8854,-0.0556393,15.9834,31.9062,31.4917,-0.0605693,31.7616,213,12.7421,7.93072,0.15,8921
-1.22309e-08,9.36233e-08,-1.58075e-06,-2.62377e-05,-3.98885e-05,-0.00198165,32.4932,31.4414,-0.0449079,16.2734,32.4977,31.4412,-0.0491137,32.0316,213,10.5178,7.13796,0.15,8922
3.76066e-08,1.30623e-07,-1.5801e-06,-2.82695e-05,-5.03535e-05,-0.0016358,32.8985,30.8869,-0.106376,16.5121,32.909,30.8854,-0.115324,32.0604,213,8.64985,6.29002,0.15,8923
4.99877e-08,9.04723e-08,-1.58087e-06,-3.16186e-05,-3.73694e-05,-0.00222277,31.2876,30.8929,-0.0748699,15.6897,31.3002,30.8846,-0.0791858,31.1737,213,8.26069,7.20205,0.15,8924
7.28413e-09,1.1556e-07,-1.58018e-06,-2.62106e-05,-4.5072e-05,-0.00222113,31.6093,30.3401,-0.0305624,15.8254,31.6149,30.3398,-0.0358352,31.0328,213,9.77165,6.62345,0.15,8925
2.84528e-08,6.65707e-08,-1.58088e-06,-2.76478e-05,-3.29852e-05,-0.00164381,33.6219,33.1393,-0.0338493,16.8318,33.6272,33.1365,-0.0363704,33.4209,213,9.00509,7.88913,0.15,8926
5.90974e-09,7.63743e-08,-1.58069e-06,-2.67775e-05,-3.47381e-05,-0.00232189,31.5225,31.0196,-0.04214,15.785,31.5252,31.0196,-0.0448277,31.3203,213,9.83106,7.6032,0.15,8927
-4.68561e-08,-8.60573e-08,-1.5806e-06,-3.00047e-05,-3.79386e-05,-0.00197986,32.1219,31.5139,-0.107998,16.1231,32.1333,31.5074,-0.112854,31.9378,213,11.7534,13.4412,0.15,8928
-6.17829e-08,-5.63417e-08,-1.58101e-06,-3.39033e-05,-2.96839e-05,-0.00164252,32.9455,33.3234,-0.0426889,16.6911,33.3375,32.9335,-0.0447884,33.1821,213,12.1933,12.5697,0.15,8929
-1.57797e-08,-6.84859e-08,-1.58079e-06,-2.69425e-05,-3.31326e-05,-0.00198333,32.6304,32.1492,-0.0352995,16.3363,32.6349,32.147,-0.0376213,32.4313,213,10.6507,12.9286,0.15,8930
-3.96826e-08,-3.18177e-08,-1.58092e-06,-2.92767e-05,-2.63884e-05,-0.00232499,31.5218,31.7016,-0.0250116,15.8659,31.7057,31.5188,-0.0261111,31.6388,213,11.4763,11.683,0.15,8931
-1.80591e-08,-4.10498e-08,-1.58095e-06,-2.77167e-05,-2.74068e-05,-0.00198594,32.7185,32.7424,-0.0433497,16.3978,32.7514,32.7102,-0.044065,32.7749,213,10.7155,12.024,0.15,8932
-9.89116e-08,4.50272e-08,-1.57984e-06,-4.30046e-05,-2.72573e-05,-0.0019784,31.0754,32.2942,-0.0520423,16.1792,32.3017,31.0724,-0.0566099,31.7615,213,13.1584,8.56316,0.15,8933
-1.43345e-07,3.33655e-08,-1.57614e-06,-5.34319e-05,-2.60361e-05,-0.00163312,30.6276,33.1273,0.0293818,16.5598,33.1399,30.6239,0.0204161,31.9359,213,14.0722,8.98151,0.15,8934
-1.89715e-07,5.6048e-08,-1.57514e-06,-6.89184e-05,-2.88929e-05,-0.00196461,28.1807,31.2681,-0.20307,15.7566,31.2916,28.1756,-0.221472,30.0764,213,14.855,8.12725,0.15,8935
1.89611e-07,-1.98024e-08,-1.57691e-06,-6.95108e-05,-2.27499e-05,-0.00196676,28.3965,31.9951,0.049934,15.9874,32.0099,28.3965,0.0351094,30.33,213,5.2721,11.2205,0.15,8936
-8.84068e-07,-5.30854e-07,-1.42906e-06,-0.000261676,-0.000137144,-0.00339539,25.0557,25.9851,1.66982,12.9332,26.6236,25.3298,0.757179,25.2444,213,20.05,18.39,0.1625,8937
-1.05618e-06,4.23013e-08,-1.36518e-06,-0.000297263,-3.05631e-05,-0.00330539,26.0667,28.057,3.61799,13.5053,29.3426,26.0671,2.332,25.5309,213,20.05,8.79,0.1625,8938
-1.05921e-06,-1.21058e-08,-1.36978e-06,-0.000301847,-2.78708e-05,-0.00323845,26.5482,28.5928,4.63325,13.4041,30.0163,26.5498,3.20813,25.254,213,20.05,10.71,0.1625,8939
-1.0444e-06,-6.48978e-08,-1.38432e-06,-0.000291771,-3.18248e-05,-0.00325456,26.5442,28.4841,4.43378,12.8875,29.3461,26.5448,3.57117,24.4947,213,20.05,12.63,0.1625,8940
-1.03064e-06,-1.47635e-07,-1.3601e-06,-0.00029152,-5.75341e-05,-0.00318909,26.8633,28.6095,5.23964,12.837,29.7479,26.8908,4.07382,24.3714,213,20.05,14.55,0.1625,8941
-9.8437e-07,-2.91225e-07,-1.36629e-06,-0.000275154,-9.72969e-05,-0.00314158,27.1766,28.5039,5.78538,12.4685,29.6017,27.1996,4.66459,23.827,213,20.05,16.47,0.1625,8942
-1.00945e-06,2.10451e-07,-1.38135e-06,-0.000285374,-7.3057e-05,-0.00315798,27.0815,28.666,5.64417,12.8712,30.0178,27.0985,4.27536,24.414,213,20.05,4.95,0.1625,8943
-8.9028e-07,6.87167e-07,-1.3872e-06,-0.000243784,-0.000186585,-0.00338302,25.0371,25.464,1.61,12.9958,26.4072,25.2882,0.415692,25.4505,213,20.05,1.11,0.1625,8944
-9.59553e-07,3.90395e-07,-1.35066e-06,-0.000271912,-0.000121328,-0.00314271,27.0271,28.1508,5.60324,12.2822,29.1292,27.0871,4.56482,23.6097,213,20.05,3.03,0.1625,8945
-1.03513e-06,1.07128e-07,-1.38637e-06,-0.000287979,-4.06624e-05,-0.00328753,26.2711,28.1168,3.88643,13.0048,29.0054,26.2731,2.99589,24.7567,213,20.05,6.87,0.1625,8946
-8.69691e-07,7.71587e-07,-1.2947e-06,-0.000233726,-0.000200523,-0.00329517,25.778,26.0258,2.93136,13.1056,27.5002,25.9459,1.28903,25.4696,213,20.05,0.63,0.15625,8947
-8.88915e-07,7.90597e-07,-1.33373e-06,-0.000235575,-0.000207666,-0.00315782,26.782,26.9903,4.97421,12.4054,28.2874,26.9825,3.47659,24.1848,213,20.05,0.63,0.16875,8948
-9.14659e-07,6.08185e-07,-1.43238e-06,-0.000254687,-0.000171978,-0.00337997,25.0093,25.6266,1.68633,12.949,26.4836,25.2529,0.585703,25.305,213,20.05,1.59,0.16875,8949
-8.5076e-07,-6.11874e-07,-1.44236e-06,-0.000254928,-0.00015559,-0.00311489,27.2374,27.9788,5.89444,13.6781,30.3524,27.762,2.9962,26.1574,213,20.05,18.87,0.16875,8950
-8.29079e-07,-5.8324e-07,-1.40405e-06,-0.000253583,-0.000118685,-0.00334352,25.7379,26.7446,2.67866,14.217,28.6911,26.213,0.257098,27.2795,213,20.05,18.87,0.15625,8951
-9.2832e-07,-4.68875e-07,-1.43562e-06,-0.000271143,-0.000138688,-0.00338417,24.9867,25.9752,1.75518,12.8344,26.6047,25.1765,0.935899,24.9853,213,20.05,17.91,0.16875,8952
-8.94893e-07,5.94425e-07,-1.39238e-06,-0.00024388,-0.000168107,-0.00321297,26.5305,27.096,4.37316,12.8128,28.4425,26.7402,2.81698,24.8182,213,20.05,1.59,0.15625,8953
-9.09349e-07,-4.5915e-07,-1.39528e-06,-0.000260847,-0.000139387,-0.00320654,26.5481,27.4545,4.56531,12.5485,28.4631,26.7387,3.3661,24.2808,213,20.05,17.91,0.15625,8954
-9.53116e-07,4.57131e-07,-1.3829e-06,-0.00026643,-0.000142027,-0.00299366,28.1291,29.0575,7.77664,11.6392,29.9762,28.2892,6.69783,22.4824,213,20.05,2.55,0.16875,8955
-9.8553e-07,3.38396e-07,-1.36903e-06,-0.000278423,-0.000104593,-0.00324858,26.22,27.5173,4.05466,12.6216,28.3887,26.2578,3.14548,24.2481,213,20.05,3.51,0.16875,8956
-9.24676e-07,5.23444e-07,-1.38972e-06,-0.000255687,-0.000155623,-0.0031246,27.1484,27.8952,5.73862,12.6608,29.3818,27.3401,4.06033,24.3649,213,20.05,2.07,0.1625,8957
-9.31357e-07,4.48552e-07,-1.34475e-06,-0.000261105,-0.000134369,-0.00321801,26.493,27.4388,4.42653,12.766,28.6498,26.5906,3.1179,24.5671,213,20.05,2.55,0.15625,8958
-1.01145e-06,2.4968e-07,-1.39062e-06,-0.000288005,-8.36838e-05,-0.0032326,26.3651,27.8899,4.39045,12.8719,28.9999,26.3895,3.25611,24.5429,213,20.05,4.47,0.16875,8959
-1.02962e-06,1.79343e-07,-1.41068e-06,-0.000291016,-6.2611e-05,-0.00324527,26.3854,28.0899,4.33877,13.1049,29.3122,26.3994,3.10249,24.8815,213,20.05,5.43,0.16875,8960
-9.89009e-07,2.90235e-07,-1.36265e-06,-0.000277303,-8.96414e-05,-0.00308649,27.6411,29.0416,6.67706,12.5937,30.4378,27.6715,5.25041,23.9245,213,20.05,3.99,0.1625,8961
-9.87421e-07,2.4617e-07,-1.35278e-06,-0.00027539,-8.25655e-05,-0.00298508,28.5308,29.9698,8.30926,12.6166,31.7455,28.5522,6.51217,23.7979,213,20.05,4.47,0.15625,8962
-9.63228e-07,3.33905e-07,-1.33154e-06,-0.000268646,-0.000103967,-0.00296724,28.6063,29.8352,8.4675,12.1848,31.3191,28.6405,6.94948,23.1468,213,20.05,3.51,0.15625,8963
-1.04073e-06,1.286e-07,-1.41183e-06,-0.000285411,-4.64544e-05,-0.00332146,25.9956,27.7789,3.33857,13.1299,28.685,26.0028,2.42526,25.0267,213,20.05,6.39,0.16875,8964
-1.05019e-06,8.93622e-08,-1.40553e-06,-0.000287757,-3.53458e-05,-0.00335958,25.7454,27.629,2.82133,13.2233,28.4469,25.7486,2.00029,25.206,213,20.05,7.35,0.16875,8965
-1.0045e-06,1.76375e-07,-1.37262e-06,-0.000277158,-6.27794e-05,-0.00300148,28.5304,30.1302,8.19958,12.9006,32.0592,28.5429,6.25805,24.2351,213,20.05,5.43,0.15625,8966
-1.02419e-06,1.50202e-07,-1.40255e-06,-0.000280172,-4.98725e-05,-0.00311966,27.6493,29.368,6.45911,13.1446,31.0511,27.6635,4.76179,24.7699,213,20.05,5.91,0.1625,8967
-1.01784e-06,1.26712e-07,-1.37274e-06,-0.000278651,-4.34765e-05,-0.00311906,27.7281,29.4832,6.53101,12.9136,30.918,27.7335,5.09077,24.3914,213,20.05,6.39,0.15625,8968
-1.06249e-06,5.77779e-08,-1.39492e-06,-0.000298913,-3.23786e-05,-0.0033603,25.5915,27.5805,2.74532,13.5342,28.6955,25.5948,1.62705,25.659,213,20.05,8.31,0.16875,8969
-1.07211e-06,2.81033e-08,-1.38092e-06,-0.000303047,-2.93181e-05,-0.00332613,25.8231,27.8658,3.26276,13.5031,29.0674,25.823,2.06118,25.5391,213,20.05,9.27,0.16875,8970
-1.04425e-06,7.24011e-08,-1.3878e-06,-0.000287759,-3.2061e-05,-0.00338474,25.5719,27.4801,2.46007,13.7487,28.7131,25.5833,1.21573,26.0737,213,20.05,7.83,0.1625,8971
-1.03867e-06,5.65312e-08,-1.3534e-06,-0.000289004,-3.04512e-05,-0.00328555,26.352,28.2815,3.98968,13.6788,29.8127,26.3554,2.45507,25.8033,213,20.05,8.31,0.15625,8972
-1.02853e-06,8.80354e-08,-1.36425e-06,-0.000283781,-3.71595e-05,-0.00325004,26.6608,28.5012,4.52452,13.1968,29.7082,26.6638,3.31458,25.0107,213,20.05,7.35,0.15625,8973
-1.07359e-06,1.04869e-09,-1.38272e-06,-0.000306326,-2.77745e-05,-0.00328614,26.1019,28.1807,3.86451,13.381,29.4036,26.1019,2.6416,25.2734,213,20.05,10.23,0.16875,8974
-1.06857e-06,-2.60504e-08,-1.40187e-06,-0.000306048,-2.86478e-05,-0.00327261,26.2065,28.2767,4.06802,13.362,29.5323,26.2107,2.80826,25.2278,213,20.05,11.19,0.16875,8975
-1.04655e-06,2.75912e-08,-1.34091e-06,-0.000290577,-2.98121e-05,-0.00319468,27.0533,28.9993,5.3809,13.5762,30.7662,27.0536,3.61375,25.4996,213,20.05,9.27,0.15625,8976
-1.06167e-06,1.38363e-08,-1.36134e-06,-0.000295949,-2.66613e-05,-0.00320207,26.937,28.9466,5.24955,13.5622,30.6599,26.9376,3.53562,25.468,213,20.05,9.75,0.1625,8977
-1.04751e-06,1.09678e-09,-1.34302e-06,-0.000290704,-2.63871e-05,-0.00315084,27.4262,29.3987,6.08185,13.6099,31.3502,27.4262,4.13034,25.4854,213,20.05,10.23,0.15625,8978
-1.05861e-06,-5.10924e-08,-1.413e-06,-0.000291237,-2.55457e-05,-0.00330454,26.2059,28.1887,3.71858,13.1124,29.0662,26.2056,2.84144,24.9179,213,20.05,12.15,0.16875,8979
-1.05288e-06,-8.1615e-08,-1.39243e-06,-0.000289563,-3.80638e-05,-0.00331403,26.0572,27.934,3.48651,12.9929,28.7032,26.0571,2.71744,24.7689,213,20.05,13.11,0.16875,8980
-1.04277e-06,-2.52824e-08,-1.36238e-06,-0.000290599,-2.85061e-05,-0.00313713,27.5197,29.4756,6.2769,13.5782,31.453,27.5225,4.29664,25.4201,213,20.05,11.19,0.15625,8981
-1.05223e-06,-3.95933e-08,-1.39984e-06,-0.000290374,-2.56876e-05,-0.00317752,27.2252,29.2005,5.67932,13.443,30.8813,27.2284,3.99533,25.2584,213,20.05,11.67,0.1625,8982
-1.0354e-06,-5.07349e-08,-1.37374e-06,-0.000283792,-2.73537e-05,-0.00310933,27.854,29.7677,6.76794,12.9781,31.2459,27.8541,5.28969,24.4375,213,20.05,12.15,0.15625,8983
-1.04873e-06,-1.2341e-07,-1.3762e-06,-0.000296069,-5.01346e-05,-0.00325095,26.3615,28.1968,4.31008,12.9291,29.1764,26.3739,3.31812,24.5771,213,20.05,14.07,0.16875,8984
-1.03281e-06,-1.79156e-07,-1.38793e-06,-0.000292497,-6.59465e-05,-0.00324632,26.3278,28.0185,4.28433,12.9512,29.0885,26.3561,3.18607,24.6501,213,20.05,15.03,0.16875,8985
-1.03068e-06,-8.13656e-08,-1.35307e-06,-0.000282768,-3.61946e-05,-0.00311728,27.7367,29.5768,6.58364,12.8008,30.881,27.7367,5.27945,24.1832,213,20.05,13.11,0.15625,8986
-1.04168e-06,-1.00626e-07,-1.35858e-06,-0.00028715,-4.16344e-05,-0.00319027,27.0473,28.8795,5.38229,13.0485,30.1786,27.049,4.08153,24.6815,213,20.05,13.59,0.1625,8987
-1.02517e-06,-1.20779e-07,-1.33704e-06,-0.000285759,-4.70387e-05,-0.00308026,27.8981,29.6796,7.04362,12.8289,31.182,27.9151,5.52423,24.1903,213,20.05,14.07,0.15625,8988
-1.00973e-06,-2.49233e-07,-1.38945e-06,-0.000279666,-8.31406e-05,-0.00322065,26.5925,28.0591,4.6449,12.7367,29.0801,26.6096,3.60677,24.3323,213,20.05,15.99,0.16875,8989
-9.77395e-07,-3.44061e-07,-1.38948e-06,-0.00027123,-0.000114142,-0.00303382,27.9579,29.1302,7.34161,11.8459,30.0397,28.0422,6.3478,22.759,213,20.05,16.95,0.16875,8990
-1.00872e-06,-1.75331e-07,-1.35022e-06,-0.000281974,-6.66907e-05,-0.00300524,28.3954,30.002,8.07257,12.6584,31.6799,28.427,6.36304,23.8573,213,20.05,15.03,0.15625,8991
-1.00937e-06,-2.10866e-07,-1.38352e-06,-0.000277211,-6.97383e-05,-0.00304309,28.1444,29.6927,7.50353,12.7267,31.3126,28.1687,5.85928,24.0361,213,20.05,15.51,0.1625,8992
-9.86163e-07,-2.46433e-07,-1.35204e-06,-0.000268383,-8.45702e-05,-0.0029667,28.7685,30.1402,8.63178,12.4016,31.7807,28.7823,6.97755,23.4481,213,20.05,15.99,0.15625,8993
-9.46074e-07,-3.96959e-07,-1.38243e-06,-0.000268771,-0.00012736,-0.00315881,26.8999,27.9552,5.33241,12.7811,29.3347,27.0803,3.77249,24.5129,213,20.05,17.43,0.1625,8994
-9.55239e-07,-3.37827e-07,-1.35094e-06,-0.000267391,-0.00010592,-0.00321454,26.6493,27.8543,4.65567,12.9463,29.1706,26.7106,3.27806,24.7544,213,20.05,16.95,0.15625,8995
-5.69706e-07,-5.95579e-07,-1.57484e-06,-0.000189562,-0.000142213,-0.00333016,26.6427,26.996,3.20539,16.9119,31.9721,26.7238,-1.85176,31.529,213,19.05,19.35,0.1625,8996
5.71071e-07,-5.96844e-07,-1.56958e-06,-0.000190233,-0.000141464,-0.00302878,29.028,29.3919,7.84484,17.9305,36.5164,29.0929,0.655404,32.7858,213,1.05,19.35,0.1625,8997
-2.86057e-07,-5.97833e-07,-1.57513e-06,-0.00010088,-0.000151724,-0.00310156,29.7449,29.3654,7.35175,17.8253,36.4171,29.2786,0.766412,32.6716,213,17.05,19.35,0.1625,8998
-1.40513e-07,-6.25246e-07,-1.58155e-06,-5.37669e-05,-0.000156566,-0.00324955,29.2582,28.491,5.40903,17.7257,35.0643,28.4809,-0.386994,32.6611,213,15.05,19.35,0.1625,8999
-6.63077e-08,-6.54199e-07,-1.58468e-06,-2.88669e-05,-0.000173607,-0.00299477,31.5264,30.4463,9.39281,18.3253,38.7876,30.441,2.13695,33.272,213,13.05,19.35,0.1625,9000
-1.85773e-08,-6.58587e-07,-1.58293e-06,-2.01648e-05,-0.000159986,-0.00317062,30.3741,29.3306,6.86319,19.1239,37.7428,29.3301,-0.505013,34.8124,213,11.05,19.35,0.1625,9001
1.87515e-08,-6.6299e-07,-1.58296e-06,-1.94615e-05,-0.00017751,-0.00332195,29.0461,27.8666,4.40065,17.7156,34.4398,27.8649,-0.991305,32.6441,213,9.05,19.35,0.1625,9002
6.57378e-08,-6.53601e-07,-1.58743e-06,-2.94186e-05,-0.000170726,-0.0030005,31.4954,30.4409,9.32314,18.4029,38.8126,30.4402,2.00666,33.4158,213,7.05,19.35,0.1625,9003
1.40465e-07,-6.26052e-07,-1.5812e-06,-5.28312e-05,-0.000154095,-0.00320871,29.616,28.8603,6.06463,18.1107,35.9604,28.8416,-0.26105,33.2388,213,5.05,19.35,0.1625,9004
2.85794e-07,-5.98357e-07,-1.57281e-06,-0.000100556,-0.000151447,-0.00308392,29.8919,29.5121,7.62796,17.8141,36.6173,29.4255,0.989132,32.6322,213,3.05,19.35,0.1625,9005
-6.59725e-07,-6.01777e-07,-1.4874e-06,-0.000213988,-0.000121538,-0.00329633,26.6989,27.3888,3.69637,16.8609,32.2317,27.0424,-1.49004,31.4499,213,19.55,19.35,0.15625,9006
-6.84669e-07,-6.44006e-07,-1.52518e-06,-0.000219338,-0.000164093,-0.00305317,28.2072,28.6194,7.05917,17.2171,34.9472,28.4255,0.513012,31.6809,213,19.55,19.35,0.16875,9007
-4.90811e-07,-6.04683e-07,-1.6233e-06,-0.000165317,-0.000162888,-0.00336355,26.5872,26.6053,2.71979,16.7847,31.5498,26.3821,-2.01965,31.3071,213,18.55,19.35,0.16875,9008
6.85319e-07,-6.47945e-07,-1.51201e-06,-0.000212636,-0.000168551,-0.00284669,29.9121,30.2411,10.255,16.7524,36.9255,30.0619,3.42078,30.6547,213,0.55,19.35,0.16875,9009
6.5803e-07,-5.99316e-07,-1.48392e-06,-0.000214244,-8.9109e-05,-0.00237661,34.2447,35.1785,18.1076,18.794,45.176,34.7667,7.58809,33.6146,213,0.55,19.35,0.15625,9010
4.93378e-07,-6.06042e-07,-1.61874e-06,-0.000171152,-0.000165002,-0.00317082,28.0088,28.0547,5.62325,17.5704,34.4942,27.8391,-0.646619,32.3312,213,1.55,19.35,0.16875,9011
4.69086e-07,-5.57783e-07,-1.58028e-06,-0.000163932,-9.57646e-05,-0.0029528,30.3976,30.9063,9.58515,19.7253,39.911,30.5177,0.460398,35.6933,213,1.55,19.35,0.15625,9012
-4.69055e-07,-5.5748e-07,-1.58362e-06,-0.000164563,-0.000103769,-0.00314688,28.7855,29.2392,6.52947,19.1579,36.9688,28.9323,-1.34697,34.9966,213,18.55,19.35,0.15625,9013
-3.48946e-07,-6.15157e-07,-1.60006e-06,-0.000123429,-0.000170341,-0.0032099,28.3911,28.041,5.35767,17.255,34.1739,27.952,-0.336099,31.858,213,17.55,19.35,0.16875,9014
-2.4534e-07,-6.30328e-07,-1.59353e-06,-8.4026e-05,-0.000180833,-0.00324137,28.6649,27.9424,5.10264,17.2294,34.1377,27.8933,-0.321044,31.7997,213,16.55,19.35,0.16875,9015
-4.02862e-07,-5.81254e-07,-1.59223e-06,-0.000138824,-0.000121519,-0.0031561,28.9678,29.0969,6.4508,19.367,37.2053,28.8388,-1.5286,35.3022,213,18.05,19.35,0.1625,9016
-3.31811e-07,-5.63445e-07,-1.56225e-06,-0.000114062,-0.000108756,-0.00297313,30.901,30.9406,9.56463,19.8656,40.1868,30.7638,0.455607,35.9579,213,17.55,19.35,0.15625,9017
-1.72938e-07,-6.44177e-07,-1.59985e-06,-6.51207e-05,-0.000174243,-0.00333879,28.2356,27.4213,3.80525,17.1144,33.1404,27.41,-1.08825,31.7537,213,15.55,19.35,0.16875,9018
-1.19159e-07,-6.58308e-07,-1.60213e-06,-4.38613e-05,-0.0001947,-0.00306695,30.5561,29.4304,7.99571,19.2421,38.5216,29.4231,0.0374864,34.8377,213,14.55,19.35,0.16875,9019
-2.34676e-07,-5.78874e-07,-1.55473e-06,-8.1192e-05,-0.000119083,-0.00302865,30.8848,30.602,8.88878,19.6779,39.6067,30.5179,0.250914,35.6902,213,16.55,19.35,0.15625,9020
-2.02389e-07,-6.11731e-07,-1.57819e-06,-7.06186e-05,-0.000137614,-0.00327164,28.9739,28.474,5.08571,19.0138,36.0658,28.4297,-1.96187,34.8429,213,16.05,19.35,0.1625,9021
-1.65295e-07,-5.92135e-07,-1.56018e-06,-6.05751e-05,-0.00011893,-0.00312458,30.4427,30.0072,7.57706,19.8359,38.8609,29.977,-0.810944,36.0602,213,15.55,19.35,0.15625,9022
-8.32822e-08,-6.7459e-07,-1.60318e-06,-3.20725e-05,-0.000212428,-0.00289494,31.9609,30.615,10.5963,18.9061,40.1871,30.6102,2.37485,34.0494,213,13.55,19.35,0.16875,9023
-5.36568e-08,-6.84437e-07,-1.60201e-06,-2.63789e-05,-0.000199022,-0.00312218,30.353,29.0646,7.24999,17.8332,36.6357,29.0627,0.969184,32.5476,213,12.55,19.35,0.16875,9024
-1.14106e-07,-6.04132e-07,-1.56334e-06,-4.33506e-05,-0.000135053,-0.0033321,28.9345,28.2501,4.39154,17.7541,34.4217,28.241,-1.08658,32.8569,213,14.55,19.35,0.15625,9025
-9.75548e-08,-6.37863e-07,-1.58364e-06,-3.52261e-05,-0.000181284,-0.00317531,29.9362,28.8462,6.50273,19.3813,37.6045,28.8388,-1.15821,35.208,213,14.05,19.35,0.1625,9026
-7.96083e-08,-6.20021e-07,-1.56593e-06,-2.98386e-05,-0.000143664,-0.00317021,30.3579,29.5084,6.92227,18.402,37.0476,29.4974,0.243526,33.67,213,13.55,19.35,0.15625,9027
-2.98402e-08,-6.85688e-07,-1.60179e-06,-2.21248e-05,-0.000190202,-0.00322686,29.6584,28.4041,5.74252,18.3213,36.0211,28.4055,-0.621562,33.4907,213,11.55,19.35,0.16875,9028
-9.16817e-09,-6.87777e-07,-1.60112e-06,-1.9197e-05,-0.000187776,-0.00328746,29.2422,27.9842,4.85222,18.0832,35.1309,27.9832,-1.03547,33.1751,213,10.55,19.35,0.16875,9029
-5.09271e-08,-6.27597e-07,-1.56605e-06,-2.65897e-05,-0.000121628,-0.00281243,33.4195,32.7102,12.6296,20.4443,43.4701,32.7076,2.58156,36.7103,213,12.55,19.35,0.15625,9030
-3.95913e-08,-6.55428e-07,-1.5826e-06,-2.32909e-05,-0.000138659,-0.00301266,31.7476,30.8866,9.4389,19.9187,40.5121,30.8862,0.674741,36.0028,213,12.05,19.35,0.1625,9031
-2.78709e-08,-6.26872e-07,-1.56466e-06,-2.0336e-05,-0.000114365,-0.00294194,32.5464,31.8447,10.7434,21.2111,42.8561,31.8445,0.433843,38.1283,213,11.55,19.35,0.15625,9032
9.37395e-09,-6.89335e-07,-1.60124e-06,-1.9205e-05,-0.000195424,-0.00337023,28.5251,27.21,3.51743,17.256,33.2777,27.2091,-1.23433,31.9135,213,9.55,19.35,0.16875,9033
2.98377e-08,-6.86022e-07,-1.60434e-06,-2.13414e-05,-0.000206945,-0.00314634,30.1761,28.791,6.85522,18.8835,37.3994,28.7905,-0.367539,34.283,213,8.55,19.35,0.16875,9034
-8.49485e-09,-6.32311e-07,-1.56224e-06,-1.85246e-05,-0.000119005,-0.00304759,31.6998,30.95,9.09484,20.782,41.18,30.9486,-0.383966,37.5098,213,10.55,19.35,0.15625,9035
3.05177e-10,-6.6269e-07,-1.57947e-06,-1.78759e-05,-0.000151744,-0.0032233,30.057,29.058,6.13596,19.2577,37.3542,29.058,-1.16125,35.1103,213,10.05,19.35,0.1625,9036
9.03616e-09,-6.37261e-07,-1.56127e-06,-1.75914e-05,-0.000142315,-0.00317019,30.5572,29.6265,7.03042,19.7646,38.5584,29.6264,-0.970704,35.9062,213,9.55,19.35,0.15625,9037
5.31742e-08,-6.83066e-07,-1.60582e-06,-2.64867e-05,-0.000211689,-0.00288905,32.0994,30.7173,10.737,18.8649,40.2821,30.7193,2.55229,33.9733,213,7.55,19.35,0.16875,9038
8.27513e-08,-6.74157e-07,-1.60514e-06,-3.2959e-05,-0.000191204,-0.00316902,29.9423,28.7614,6.53885,17.7805,36.0224,28.7589,0.461308,32.543,213,6.55,19.35,0.16875,9039
2.79937e-08,-6.34295e-07,-1.56469e-06,-2.00058e-05,-0.000157229,-0.00337959,28.7414,27.7174,3.6699,17.6688,33.8762,27.7139,-1.46137,32.6949,213,8.55,19.35,0.15625,9040
3.96839e-08,-6.56474e-07,-1.58599e-06,-2.28092e-05,-0.000188938,-0.0031911,29.9415,28.7017,6.29754,18.9494,37.0688,28.7019,-0.829962,34.4852,213,8.05,19.35,0.1625,9041
5.06675e-08,-6.29035e-07,-1.56877e-06,-2.61807e-05,-0.000143749,-0.00319271,30.2351,29.3577,6.60425,18.3009,36.7206,29.3576,0.11889,33.5321,213,7.55,19.35,0.15625,9042
1.19101e-07,-6.59207e-07,-1.60221e-06,-4.30205e-05,-0.000182033,-0.00330246,28.8021,27.7647,4.47796,17.5243,34.1723,27.7488,-0.876336,32.3192,213,5.55,19.35,0.16875,9043
1.73057e-07,-6.45511e-07,-1.59893e-06,-6.4991e-05,-0.000177136,-0.00329871,28.5325,27.6956,4.40027,17.4151,33.8874,27.6839,-0.942885,32.1801,213,4.55,19.35,0.16875,9044
7.90659e-08,-6.19476e-07,-1.56766e-06,-3.0817e-05,-0.000122567,-0.00289566,32.687,32.0023,11.3076,20.2529,42.2536,31.9955,1.74779,36.4751,213,6.55,19.35,0.15625,9045
9.72439e-08,-6.38053e-07,-1.58421e-06,-3.54804e-05,-0.000139426,-0.0032042,30.0351,29.2594,6.38792,19.4418,37.6598,29.2464,-1.22386,35.4342,213,6.05,19.35,0.1625,9046
1.13869e-07,-6.04575e-07,-1.56337e-06,-4.21845e-05,-0.00011867,-0.00306429,31.2058,30.635,8.65277,20.3091,40.2492,30.6135,-0.369113,36.7601,213,5.55,19.35,0.15625,9047
2.4529e-07,-6.30991e-07,-1.59185e-06,-8.36985e-05,-0.000181113,-0.00321801,28.8529,28.126,5.46258,17.2935,34.4754,28.0778,-0.111677,31.8735,213,3.55,19.35,0.16875,9048
3.486e-07,-6.1588e-07,-1.59665e-06,-0.000123037,-0.000171384,-0.00320076,28.4613,28.1005,5.4932,17.2528,34.2739,28.0128,-0.231746,31.8402,213,2.55,19.35,0.16875,9049
1.65109e-07,-5.91821e-07,-1.55983e-06,-6.06215e-05,-0.00011617,-0.00307892,30.8259,30.4114,8.30135,20.2042,39.7837,30.3797,-0.624755,36.6234,213,4.55,19.35,0.15625,9050
2.02268e-07,-6.11695e-07,-1.57738e-06,-7.04906e-05,-0.000136204,-0.00323376,29.2874,28.797,5.6809,19.2218,36.7286,28.7517,-1.71506,35.141,213,4.05,19.35,0.1625,9051
2.34451e-07,-5.78773e-07,-1.55345e-06,-8.10568e-05,-0.000117225,-0.00299511,31.1675,30.8976,9.42082,19.7988,40.135,30.8136,0.537309,35.8575,213,3.55,19.35,0.15625,9052
4.02025e-07,-5.81731e-07,-1.58769e-06,-0.000142877,-0.000121202,-0.00316166,28.8639,29.0256,6.33567,19.3895,37.1226,28.7589,-1.65634,35.3472,213,2.05,19.35,0.1625,9053
3.31163e-07,-5.63956e-07,-1.55898e-06,-0.00011345,-0.000107997,-0.00296157,31.0081,31.0488,9.75346,19.8634,40.3349,30.8674,0.608042,35.9408,213,2.55,19.35,0.15625,9054
-3.07726e-10,9.98862e-07,-1.27624e-06,-2.7621e-05,-0.0002322,-0.000186803,28.5438,-1.50368,5.16391,15.0691,28.6329,5.07635,-1.50523,27.4457,213,10.05,0,0.075,9055
-3.98628e-07,8.95273e-07,-1.29569e-06,-0.000122572,-0.000204846,-0.00016608,10.2167,-1.86734,3.82639,6.64718,10.7886,3.89286,-2.50574,11.5159,213,17.3591,0,0.075,9056
-6.54209e-07,8.54594e-07,-1.29268e-06,-0.000167602,-0.000192814,-0.000166183,0.508949,-3.19404,0.717353,3.28984,2.0325,0.54693,-4.54717,5.97699,213,19.1864,0,0.075,9057
1.18953e-07,9.76035e-07,-1.29913e-06,-4.47691e-05,-0.00022934,-0.000193799,24.0358,-3.07306,2.147,13.6634,24.1813,2.07405,-3.14556,25.127,213,6.39545,0,0.075,9058
5.24617e-08,9.93399e-07,-1.28664e-06,-3.05011e-05,-0.000233664,-0.000195686,26.8844,-2.95518,2.62296,14.9297,26.8984,2.61478,-2.961,27.4988,213,8.22273,0,0.075,9059
-5.16647e-08,9.92208e-07,-1.28542e-06,-3.12779e-05,-0.000231079,-0.000192001,27.2838,-2.06201,3.67753,14.6973,27.3074,3.67909,-2.08716,26.9776,213,11.8773,0,0.075,9060
-1.1909e-07,9.75051e-07,-1.29478e-06,-4.3969e-05,-0.000229064,-0.000196737,23.9793,-3.20655,1.5415,13.7002,24.127,1.46077,-3.2735,25.3669,213,13.7045,0,0.075,9061
3.99443e-07,8.97786e-07,-1.29201e-06,-0.000123451,-0.00020675,-0.000169619,9.49688,-2.73766,2.71597,6.51954,9.61329,3.28769,-3.42579,11.2938,213,2.74091,0,0.075,9062
6.50567e-07,8.51713e-07,-1.28267e-06,-0.000161952,-0.000191794,-0.000167061,1.88024,-2.50272,1.12985,3.02235,2.62799,1.29609,-3.41671,5.50104,213,0.913636,0,0.075,9063
2.2249e-07,9.46739e-07,-1.29118e-06,-7.34741e-05,-0.000225245,-0.000177385,19.0537,-3.23772,3.7917,11.5435,19.5382,3.61832,-3.54883,20.4673,213,4.56818,0,0.075,9064
-2.22455e-07,9.46619e-07,-1.28909e-06,-7.41245e-05,-0.000224884,-0.00017796,18.8774,-3.26543,3.62657,11.4753,19.3574,3.47433,-3.5932,20.3587,213,15.5318,0,0.075,9065
7.43771e-07,8.68013e-07,-1.16773e-06,-0.000197339,-0.000168181,-0.000181531,-5.77,-1.48736,-3.44821,2.80404,-0.432813,-4.23186,-6.0409,4.95762,213,0.456818,0,0.1125,9066
7.15788e-07,8.32758e-07,-1.15433e-06,-0.000173054,-0.000194603,-0.000133413,2.09438,-1.07058,7.91678,5.86895,9.32354,2.03139,-2.41435,10.2645,213,0.456818,0,0.0375,9067
5.77922e-07,8.40053e-07,-1.3396e-06,-0.000129302,-0.000203743,-0.00015742,9.51177,-1.42184,5.38184,5.7594,9.67666,5.63726,-1.84214,10.1228,213,1.37045,0,0.0375,9068
-7.46276e-07,8.68428e-07,-1.21347e-06,-0.000199126,-0.000169741,-0.000175538,-5.78517,-1.46928,-2.32065,3.14458,0.294753,-3.87545,-5.99441,5.5423,213,19.6432,0,0.1125,9069
-7.25608e-07,8.4128e-07,-1.20084e-06,-0.000182263,-0.000197712,-0.00013382,-0.447504,-2.71659,6.66755,5.94898,7.93884,-0.476261,-3.95912,10.5949,213,19.6432,0,0.0375,9070
-5.79385e-07,8.43043e-07,-1.33076e-06,-0.000137639,-0.000207112,-0.000159342,7.01344,-3.1903,3.8258,5.72199,7.40706,4.2788,-4.03692,10.2446,213,18.7295,0,0.0375,9071
5.85083e-07,8.72604e-07,-1.35247e-06,-0.000150156,-0.000177165,-0.000187267,4.19403,0.227067,-1.25669,3.23685,4.59693,0.444262,-1.87678,5.6807,213,1.37045,0,0.1125,9072
-5.85555e-07,8.72442e-07,-1.34374e-06,-0.000152937,-0.000178481,-0.000186337,3.48972,-0.262083,-1.41586,3.04593,3.7724,0.358819,-2.31945,5.28849,213,18.7295,0,0.1125,9073
3.45723e-07,8.96114e-07,-1.27538e-06,-0.000111626,-0.000221306,-0.000161279,11.7577,-4.35153,4.46497,8.37965,11.9338,4.76294,-4.82555,14.5642,213,3.19773,0,0.0375,9074
4.5935e-07,8.67882e-07,-1.30773e-06,-0.000137156,-0.000208597,-0.000155242,7.37396,-3.11888,4.71755,6.71529,8.96201,4.47919,-4.46857,11.8435,213,2.28409,0,0.0375,9075
4.5789e-07,8.96973e-07,-1.32085e-06,-0.000134125,-0.000183815,-0.000181802,7.9362,0.637986,0.933594,4.72464,8.30085,2.35536,-1.14844,8.27389,213,2.28409,0,0.1125,9076
5.23156e-07,8.68269e-07,-1.34705e-06,-0.000131563,-0.000189326,-0.000174777,8.69353,0.209559,2.34639,5.02042,8.70875,3.87281,-1.33208,8.69757,213,1.82727,0,0.075,9077
1.90159e-07,9.38889e-07,-1.28851e-06,-6.35813e-05,-0.000231288,-0.000168518,21.6953,-2.93658,6.28279,12.8305,22.5089,5.68479,-3.15217,22.5791,213,5.025,0,0.0375,9078
2.57133e-07,9.21598e-07,-1.28032e-06,-8.35301e-05,-0.00022822,-0.000166213,17.4031,-3.84822,5.25907,10.8971,17.649,5.31013,-4.14522,18.9294,213,4.11136,0,0.0375,9079
3.46536e-07,9.24387e-07,-1.28909e-06,-0.000108372,-0.000190751,-0.000191928,12.531,0.431652,0.25877,6.71171,12.6157,1.41351,-0.807752,12.4621,213,3.19773,0,0.1125,9080
2.99273e-07,9.2332e-07,-1.28218e-06,-9.54174e-05,-0.000205573,-0.000186845,14.7343,-1.44475,1.30592,8.36456,14.7543,1.81603,-1.97484,15.1926,213,3.65455,0,0.075,9081
2.59472e-07,9.49694e-07,-1.29472e-06,-8.38504e-05,-0.000198066,-0.000201793,16.8189,0.0434332,-0.503903,8.98911,16.8231,0.690365,-1.15507,17.1302,213,4.11136,0,0.1125,9082
9.92638e-08,9.64863e-07,-1.29181e-06,-4.01831e-05,-0.000235487,-0.000178301,26.012,-2.67332,5.72587,14.5459,26.3592,5.43798,-2.73265,25.9884,213,6.85227,0,0.0375,9083
1.39887e-07,9.54284e-07,-1.29239e-06,-4.86269e-05,-0.000235314,-0.00017916,23.9185,-3.5011,4.74654,13.8401,24.0928,4.65847,-3.58735,24.6158,213,5.93864,0,0.0375,9084
1.4071e-07,9.83258e-07,-1.30746e-06,-4.93191e-05,-0.000206026,-0.000213744,23.2571,0.240779,-0.892758,12.1697,23.2794,0.385714,-1.05999,23.6497,213,5.93864,0,0.1125,9085
1.63726e-07,9.618e-07,-1.29836e-06,-5.41263e-05,-0.000220408,-0.000195048,22.505,-1.91763,1.80716,12.2818,22.5274,1.90339,-2.03622,22.8499,213,5.48182,0,0.075,9086
1.91659e-07,9.69105e-07,-1.30283e-06,-6.4697e-05,-0.000203378,-0.000208346,20.3133,-0.0554364,-0.785174,10.709,20.3218,0.246988,-1.09613,20.779,213,5.025,0,0.1125,9087
3.89724e-08,9.79251e-07,-1.27504e-06,-2.9801e-05,-0.000248061,-0.000176851,27.4675,-4.58936,5.86949,16.1318,27.6678,5.67559,-4.59574,28.549,213,8.67955,0,0.0375,9088
6.68723e-08,9.73578e-07,-1.28519e-06,-3.14545e-05,-0.000245713,-0.000180185,26.978,-4.49117,5.13324,15.8317,27.1619,4.95955,-4.50139,28.1515,213,7.76591,0,0.0375,9089
9.93871e-08,9.95069e-07,-1.30647e-06,-4.0961e-05,-0.000208708,-0.00021731,24.682,0.0441736,-1.21928,12.9615,24.6827,0.0644592,-1.2403,25.2959,213,6.85227,0,0.1125,9090
8.17682e-08,9.84291e-07,-1.2967e-06,-3.50902e-05,-0.000227681,-0.000195198,26.3863,-1.90047,2.87042,14.1829,26.4282,2.86568,-1.9376,26.2952,213,7.30909,0,0.075,9091
6.6473e-08,1.00289e-06,-1.30007e-06,-3.23657e-05,-0.000207988,-0.000213939,27.1301,1.33551,0.461518,13.4329,27.2027,1.38746,0.336976,26.3562,213,7.76591,0,0.1125,9092
-1.2949e-08,9.80969e-07,-1.27347e-06,-2.67277e-05,-0.000244521,-0.000180195,28.2245,-3.76397,5.68404,16.1691,28.5687,5.34521,-3.76939,28.8805,213,10.5068,0,0.0375,9093
1.24207e-08,9.81759e-07,-1.26896e-06,-2.86823e-05,-0.000245144,-0.000173958,28.2794,-3.51342,6.94213,16.0803,28.6428,6.58295,-3.51769,28.4865,213,9.59318,0,0.0375,9094
1.24559e-08,1.01078e-06,-1.28436e-06,-2.75045e-05,-0.000210913,-0.000215559,27.8736,0.935531,0.253048,13.8745,27.906,0.999115,0.157059,27.3376,213,9.59318,0,0.1125,9095
2.53816e-08,9.94547e-07,-1.27875e-06,-2.86333e-05,-0.000222965,-0.000205536,27.4128,-1.12964,1.43026,14.2907,27.4447,1.40531,-1.1366,27.3989,213,9.13636,0,0.075,9096
3.83308e-08,1.00778e-06,-1.29073e-06,-2.93331e-05,-0.000211207,-0.00022192,26.8121,0.0994062,-1.47412,14.1817,26.848,0.104645,-1.51529,27.5891,213,8.67955,0,0.1125,9097
-6.64657e-08,9.72161e-07,-1.28084e-06,-3.38421e-05,-0.000241125,-0.00017613,27.212,-3.23278,6.31347,15.3469,27.4248,6.13689,-3.269,27.2374,213,12.3341,0,0.0375,9098
-3.78767e-08,9.77591e-07,-1.27854e-06,-2.86262e-05,-0.000243126,-0.000186087,27.3479,-4.15672,4.22084,15.8234,27.4863,4.08632,-4.16057,28.4349,213,11.4205,0,0.0375,9099
-1.25215e-08,1.01037e-06,-1.28865e-06,-2.71619e-05,-0.000211459,-0.00021297,28.147,1.07841,0.85639,13.8231,28.2428,1.24246,0.596551,27.329,213,10.5068,0,0.1125,9100
-2.49766e-08,9.94044e-07,-1.28648e-06,-2.73024e-05,-0.000223304,-0.000205497,27.7045,-1.08322,1.5322,14.4126,27.7375,1.50358,-1.08761,27.6208,213,10.9636,0,0.075,9101
-3.78588e-08,1.00711e-06,-1.29402e-06,-2.96608e-05,-0.000210539,-0.000216072,27.3424,0.775973,-0.0366948,13.8438,27.4895,0.790276,-0.198134,27.2069,213,11.4205,0,0.1125,9102
-1.39625e-07,9.52858e-07,-1.28835e-06,-4.74778e-05,-0.000234581,-0.000181226,24.07,-3.41077,4.42573,13.843,24.1867,4.39766,-3.49937,24.7031,213,14.1614,0,0.0375,9103
-9.97594e-08,9.63677e-07,-1.28687e-06,-3.98054e-05,-0.000234293,-0.000181158,25.9474,-2.61797,5.18624,14.4716,26.2866,4.88583,-2.65673,26.0057,213,13.2477,0,0.0375,9104
-6.64279e-08,1.0023e-06,-1.29598e-06,-3.2944e-05,-0.000206519,-0.000217201,26.8236,1.32979,-0.239215,13.6156,26.856,1.4333,-0.375155,26.3735,213,12.3341,0,0.1125,9105
-8.21958e-08,9.83705e-07,-1.2915e-06,-3.5886e-05,-0.000225389,-0.000196818,26.2579,-1.57534,2.62108,13.9338,26.2805,2.61029,-1.58712,26.024,213,12.7909,0,0.075,9106
-9.96337e-08,9.94867e-07,-1.30162e-06,-4.06087e-05,-0.000209081,-0.000218852,24.5876,-0.156879,-1.59199,13.0922,24.5881,-0.152921,-1.59641,25.4934,213,13.2477,0,0.1125,9107
-2.57492e-07,9.21215e-07,-1.28051e-06,-8.39079e-05,-0.000226028,-0.00016971,17.1902,-3.68379,4.58797,10.7504,17.4269,4.74145,-4.07395,18.7205,213,15.9886,0,0.0375,9108
-1.89836e-07,9.38159e-07,-1.28487e-06,-6.45501e-05,-0.000230346,-0.00017087,21.3307,-3.0206,5.71503,12.7058,22.1295,5.17786,-3.2822,22.413,213,15.075,0,0.0375,9109
-1.40427e-07,9.8292e-07,-1.30353e-06,-4.86892e-05,-0.000207561,-0.000213958,23.2451,-0.0891027,-1.02868,12.2367,23.2662,0.0684016,-1.20729,23.8612,213,14.1614,0,0.1125,9110
-1.63123e-07,9.61151e-07,-1.29444e-06,-5.40825e-05,-0.000218881,-0.000197534,22.4259,-1.77894,1.35644,12.2135,22.4388,1.55287,-1.98823,22.863,213,14.6182,0,0.075,9111
-1.91311e-07,9.69101e-07,-1.29937e-06,-6.50897e-05,-0.000203928,-0.000208205,20.1807,-0.211193,-0.839328,10.6964,20.1902,0.142582,-1.20263,20.753,213,15.075,0,0.1125,9112
-4.57571e-07,8.65415e-07,-1.30674e-06,-0.000135465,-0.000205009,-0.000155504,8.09121,-2.12302,5.148,6.74728,9.98186,4.64702,-3.51269,11.7717,213,17.8159,0,0.0375,9113
-3.45337e-07,8.93766e-07,-1.28058e-06,-0.000110118,-0.000218798,-0.000158774,12.5889,-3.37347,5.44252,8.41026,12.9728,5.53286,-3.84772,14.5993,213,16.9023,0,0.0375,9114
-3.46223e-07,9.22853e-07,-1.29418e-06,-0.000107722,-0.000190677,-0.000193675,12.5309,0.346961,-0.0934564,6.80245,12.5336,1.32214,-1.07132,12.5801,213,16.9023,0,0.1125,9115
-2.99554e-07,9.22683e-07,-1.28572e-06,-9.46682e-05,-0.000205834,-0.000187717,14.8085,-1.51896,1.14189,8.4985,14.8105,1.80745,-2.18651,15.3936,213,16.4455,0,0.075,9116
-2.59489e-07,9.49798e-07,-1.29496e-06,-8.41669e-05,-0.000197962,-0.000200731,16.8518,0.138138,-0.268588,8.93843,16.8622,0.873888,-1.0147,17.0114,213,15.9886,0,0.1125,9117
-4.57106e-07,8.95408e-07,-1.31987e-06,-0.000133914,-0.000184618,-0.000182485,7.8482,0.401047,0.71434,4.56207,7.93902,2.20967,-1.18511,7.98748,213,17.8159,0,0.1125,9118
-5.21534e-07,8.67967e-07,-1.3377e-06,-0.000134049,-0.000188832,-0.000176131,8.01566,-0.0306081,1.83492,4.90542,8.02263,3.58554,-1.7882,8.50933,213,18.2727,0,0.075,9119
6.21211e-07,-6.57883e-07,-1.39886e-06,-0.000259942,-7.8798e-05,-0.000191515,-13.3949,13.2105,-3.34484,13.8498,14.1304,-4.09053,-13.5691,24.3835,213,0,20.1409,0.075,9120
8.5926e-07,-4.94432e-07,-1.35398e-06,-0.000208097,-0.00012119,-0.000142206,-0.288076,12.4765,9.38968,8.27372,14.5391,9.04727,-2.0083,14.598,213,0,18.2227,0.075,9121
9.42838e-07,-2.73232e-07,-1.3106e-06,-0.000234704,-9.25722e-05,-0.000142642,-4.04868,16.8269,9.47282,11.5433,18.8475,7.64271,-4.23917,19.9965,213,0,16.3045,0.075,9122
9.97573e-07,-5.94098e-08,-1.28513e-06,-0.000254368,-2.89822e-05,-0.000179769,-6.30151,26.8021,4.65529,16.773,27.2187,4.26451,-6.32731,29.702,213,0,12.4682,0.075,9123
9.60269e-07,2.17434e-07,-1.30937e-06,-0.000248081,-7.53808e-05,-0.000137332,-5.16073,20.2046,11.1055,13.1286,21.0141,10.3784,-5.24312,22.8757,213,0,4.79545,0.075,9124
8.40128e-07,6.83574e-07,-1.28741e-06,-0.000210091,-0.000166156,-0.000139919,-4.75639,1.69664,5.55025,6.22564,6.62135,1.69907,-5.82992,10.8616,213,0,0.959091,0.075,9125
9.85534e-07,-1.36644e-07,-1.28873e-06,-0.000246676,-5.22482e-05,-0.000174804,-6.1632,22.3934,4.39301,14.325,22.4375,4.39826,-6.21256,25.0881,213,0,14.3864,0.075,9126
1.00901e-06,-7.7071e-09,-1.26017e-06,-0.000263732,-2.81706e-05,-0.000167382,-7.31854,27.2796,6.83288,17.5195,27.7159,6.40115,-7.32315,30.5812,213,0,10.55,0.075,9127
1.00445e-06,4.7108e-08,-1.26773e-06,-0.000251738,-3.01746e-05,-0.000167995,-4.68046,27.8617,7.6193,16.4672,28.2509,7.2331,-4.6835,28.8828,213,0,8.63182,0.075,9128
9.88041e-07,1.13548e-07,-1.29823e-06,-0.000246617,-3.99694e-05,-0.000171689,-4.71025,25.6411,6.29472,15.4859,26.1912,5.81488,-4.78055,27.2645,213,0,6.71364,0.075,9129
9.08084e-07,4.04463e-07,-1.29056e-06,-0.000224771,-0.000125586,-0.000131384,-3.69494,10.873,10.0213,8.19475,12.3384,8.91196,-4.05105,14.9732,213,0,2.87727,0.075,9130
8.47605e-07,7.8036e-07,-1.17165e-06,-0.0001862,-0.000190795,-0.000153959,-2.62955,-3.30431,2.10593,3.31547,2.69155,-2.58009,-3.93939,6.06659,213,0,0.479545,0.1125,9131
8.08843e-07,7.53112e-07,-1.16018e-06,-0.000199279,-0.00016857,-0.000141788,-2.55809,1.95242,5.88603,6.11241,8.06302,1.37912,-4.16179,10.6024,213,0,0.479545,0.0375,9132
8.37032e-07,6.03854e-07,-1.33999e-06,-0.000212082,-0.000141698,-0.000140409,-2.99473,7.3429,7.53226,6.17568,8.72721,6.77737,-3.62414,11.5011,213,0,1.43864,0.0375,9133
5.50141e-07,-7.06798e-07,-1.41953e-06,-0.000225492,-0.000113509,-0.000189443,-8.16594,8.28161,-2.87113,8.7237,8.81788,-2.9438,-8.62953,15.4123,213,0,20.6205,0.0375,9134
5.60238e-07,-7.03315e-07,-1.43384e-06,-0.000247751,-0.000120334,-0.000171137,-12.4425,6.27175,-1.18988,12.4302,11.1036,-4.70751,-13.7568,21.7936,213,0,20.6205,0.1125,9135
6.85282e-07,-6.2327e-07,-1.36259e-06,-0.000240346,-6.22888e-05,-0.000133481,-1.71813,24.4341,13.9778,15.0642,25.3554,16.1114,-4.77303,26.7332,213,0,19.6614,0.0375,9136
8.73603e-07,6.10966e-07,-1.35099e-06,-0.000191726,-0.00016034,-0.000163369,-1.99056,2.6193,2.17444,3.50753,3.47832,2.86159,-3.53673,6.72792,213,0,1.43864,0.1125,9137
7.03826e-07,-6.27533e-07,-1.37306e-06,-0.000227068,-4.90901e-05,-0.000214504,-4.86594,21.2745,-3.02063,14.1438,21.5688,-1.46217,-6.71874,26.06,213,0,19.6614,0.1125,9138
8.73928e-07,-4.33586e-07,-1.33562e-06,-0.000225726,-0.000126151,-0.000128,-3.66097,10.9641,10.6925,9.22494,13.5461,9.35327,-4.90376,16.7517,213,0,17.7432,0.0375,9139
8.07011e-07,-5.47872e-07,-1.348e-06,-0.000221514,-0.000109614,-0.000143942,-2.59289,13.8424,8.80044,9.01913,14.66,8.76823,-3.37827,15.9316,213,0,18.7023,0.0375,9140
7.6943e-07,-6.0128e-07,-1.33741e-06,-0.000218077,-7.16273e-05,-0.000149769,1.23894,22.7487,11.2717,12.6777,23.101,14.4128,-2.25443,22.3179,213,0,19.1818,0.075,9141
8.31943e-07,-5.52508e-07,-1.35953e-06,-0.000210888,-0.000113468,-0.000152173,-1.16858,13.14,7.45519,8.79555,14.9668,7.08408,-2.62428,15.2617,213,0,18.7023,0.1125,9142
9.41565e-07,-2.30978e-07,-1.30939e-06,-0.000236573,-8.06093e-05,-0.000136146,-2.77272,20.1345,11.9775,11.6588,20.4987,11.6596,-2.81901,20.3896,213,0,15.825,0.0375,9143
9.1208e-07,-3.19817e-07,-1.30523e-06,-0.000231243,-0.000104022,-0.000146573,-4.65459,14.031,7.78135,9.50412,14.2378,7.6904,-4.77044,16.725,213,0,16.7841,0.0375,9144
9.09365e-07,-3.71169e-07,-1.31481e-06,-0.000204101,-0.000122811,-0.000159314,-1.07815,10.8613,5.49982,6.25502,11.0749,5.64327,-1.43518,10.8653,213,0,17.2636,0.075,9145
9.03897e-07,-4.34545e-07,-1.34589e-06,-0.000204188,-0.000130934,-0.000172456,-3.08668,7.67243,1.57394,6.81883,8.66091,2.47555,-4.97676,11.8275,213,0,17.7432,0.1125,9146
9.42004e-07,-3.19926e-07,-1.31651e-06,-0.000208083,-0.000100581,-0.000169967,-0.953134,14.8361,4.64504,7.92897,14.8909,4.60406,-0.966994,13.9343,213,0,16.7841,0.1125,9147
9.72328e-07,-1.12896e-07,-1.27433e-06,-0.000250458,-4.78282e-05,-0.000166558,-5.88843,23.8728,6.43443,14.9886,24.0094,6.37715,-5.9678,26.0953,213,0,13.9068,0.0375,9148
9.62885e-07,-1.63831e-07,-1.29636e-06,-0.000255103,-5.98577e-05,-0.00013988,-5.63552,23.0411,11.2879,14.5794,23.2276,11.3971,-5.93123,25.4014,213,0,14.8659,0.0375,9149
9.68383e-07,-1.95519e-07,-1.31929e-06,-0.00023878,-7.00374e-05,-0.000135803,-2.28301,22.5011,12.8418,12.6881,22.9152,12.6057,-2.46101,22.1048,213,0,15.3455,0.075,9150
9.71041e-07,-2.32051e-07,-1.32019e-06,-0.000211994,-8.22497e-05,-0.000164217,0.357586,19.4138,7.37497,9.54629,19.4233,7.39228,0.33075,16.7203,213,0,15.825,0.1125,9151
9.94205e-07,-1.63731e-07,-1.30785e-06,-0.000219218,-6.20115e-05,-0.000187613,-1.67369,21.416,2.96828,11.7851,21.4189,3.44305,-2.15136,21.3306,213,0,14.8659,0.1125,9152
9.84047e-07,-4.68608e-08,-1.27731e-06,-0.000248163,-2.32533e-05,-0.000173675,-3.70511,29.3285,7.23535,16.5531,29.3958,7.17343,-3.71047,29.226,213,0,11.9886,0.0375,9153
9.75818e-07,-7.40399e-08,-1.27704e-06,-0.000244315,-3.35915e-05,-0.000176024,-3.96613,26.9839,6.06416,15.5743,27.1471,5.93621,-4.0014,27.558,213,0,12.9477,0.0375,9154
1.01233e-06,-7.51326e-08,-1.28947e-06,-0.000233257,-3.42154e-05,-0.000189905,-2.66402,26.5701,3.70319,14.6592,26.5992,3.72928,-2.71916,26.685,213,0,12.9477,0.1125,9155
9.90997e-07,-9.21003e-08,-1.27766e-06,-0.000235041,-3.96701e-05,-0.000168077,-1.56239,27.1326,8.27292,14.4261,27.218,8.25928,-1.63413,25.3945,213,0,13.4273,0.075,9156
1.00668e-06,-1.12942e-07,-1.28705e-06,-0.000220671,-4.44696e-05,-0.000193093,-0.895651,24.984,3.15496,12.9733,25.0249,3.14016,-0.921774,24.1731,213,0,13.9068,0.1125,9157
9.92836e-07,5.51797e-09,-1.25265e-06,-0.000258623,-2.7249e-05,-0.000167449,-6.01051,27.9725,7.38057,17.0729,28.1277,7.23308,-6.0182,29.8171,213,0,10.0705,0.0375,9158
9.89831e-07,-2.20264e-08,-1.26046e-06,-0.000260256,-2.9757e-05,-0.000168344,-6.72112,27.1334,6.77849,17.1101,27.4909,6.42915,-6.72925,29.8978,213,0,11.0295,0.0375,9159
1.00599e-06,-3.56782e-08,-1.2786e-06,-0.000232862,-2.55914e-05,-0.000178627,-0.708928,29.7339,7.25682,15.2803,29.8497,7.14303,-0.710938,27.4885,213,0,11.5091,0.075,9160
1.01936e-06,-4.6451e-08,-1.29074e-06,-0.000229149,-2.60544e-05,-0.000191919,-1.10237,28.7272,4.36582,14.9167,28.729,4.36603,-1.10442,27.5092,213,0,11.9886,0.1125,9161
1.02483e-06,-2.08893e-08,-1.27325e-06,-0.000237707,-2.81787e-05,-0.000193679,-3.52205,27.2523,2.94443,15.4583,27.3353,2.92068,-3.58129,28.2328,213,0,11.0295,0.1125,9162
9.8308e-07,6.21364e-08,-1.2702e-06,-0.000254194,-3.0528e-05,-0.000170242,-5.51375,27.3372,6.81666,16.4964,27.4552,6.72254,-5.53762,28.8849,213,0,8.15227,0.0375,9163
9.90775e-07,3.29196e-08,-1.2567e-06,-0.00025932,-3.03817e-05,-0.000160501,-5.82162,27.8037,8.69239,16.8959,27.9696,8.5271,-5.82222,29.3752,213,0,9.11136,0.0375,9164
1.01178e-06,1.85613e-08,-1.26203e-06,-0.000232164,-2.81061e-05,-0.000177246,-0.647207,29.3238,7.41894,15.0587,29.4403,7.33237,-0.677117,27.0182,213,0,9.59091,0.075,9165
1.02823e-06,5.57865e-09,-1.26561e-06,-0.000229172,-2.7407e-05,-0.000187907,-0.859176,28.7751,5.20167,14.8267,28.7794,5.21207,-0.873899,27.1273,213,0,10.0705,0.1125,9166
1.02542e-06,3.25411e-08,-1.26935e-06,-0.00023187,-2.89686e-05,-0.000197514,-2.55154,27.2496,2.49451,14.9935,27.4248,2.33009,-2.56228,27.8649,213,0,9.11136,0.1125,9167
9.66559e-07,1.32897e-07,-1.3053e-06,-0.000238903,-4.06595e-05,-0.000177769,-3.4892,25.6279,5.4899,14.9493,25.6422,6.24285,-4.25646,26.2726,213,0,6.23409,0.0375,9168
9.75403e-07,9.52205e-08,-1.28403e-06,-0.000246973,-3.85587e-05,-0.000153833,-2.99496,27.6158,10.685,15.3761,27.7552,10.5476,-2.99703,26.6951,213,0,7.19318,0.0375,9169
9.96272e-07,7.64913e-08,-1.28754e-06,-0.000236133,-3.43565e-05,-0.0001693,-1.44266,28.1933,8.37349,14.9186,28.3934,8.17457,-1.44381,26.3777,213,0,7.67273,0.075,9170
1.01751e-06,6.11594e-08,-1.28325e-06,-0.00022396,-3.0893e-05,-0.000184112,0.422363,28.779,6.27501,14.2178,28.7898,6.33235,0.354224,25.9678,213,0,8.15227,0.1125,9171
1.01005e-06,9.42468e-08,-1.29626e-06,-0.00022717,-3.79129e-05,-0.000201817,-2.66004,25.1371,1.0637,14.1047,25.4825,0.785191,-2.72694,26.6277,213,0,7.19318,0.1125,9172
9.35877e-07,2.54447e-07,-1.29441e-06,-0.000239311,-8.48374e-05,-0.000140164,-4.20143,18.4868,10.3607,11.6907,19.0361,9.95528,-4.34535,20.4165,213,0,4.31591,0.0375,9173
9.53577e-07,1.82467e-07,-1.31342e-06,-0.00024539,-6.5488e-05,-0.00014149,-3.97798,22.4452,11.2823,13.7559,23.4839,10.2934,-4.02779,23.8326,213,0,5.275,0.0375,9174
9.83622e-07,1.84479e-07,-1.32458e-06,-0.000227614,-6.66572e-05,-0.000179077,-3.3281,20.3125,3.80089,11.9532,20.5779,3.53594,-3.32852,21.3198,213,0,5.275,0.1125,9175
9.76563e-07,1.53979e-07,-1.32851e-06,-0.000227974,-5.1041e-05,-0.000168869,-1.00086,24.9862,7.68023,13.4084,25.3791,7.72414,-1.43768,23.6091,213,0,5.75455,0.075,9176
9.98129e-07,1.33152e-07,-1.31898e-06,-0.000222159,-4.35767e-05,-0.000184031,-0.322742,25.9065,5.27736,13.4882,25.9493,5.93898,-1.02714,24.2556,213,0,6.23409,0.1125,9177
8.74612e-07,4.68689e-07,-1.30309e-06,-0.000216429,-0.00014205,-0.000133856,-3.4599,7.46457,8.66814,7.41983,10.5545,6.40354,-4.2852,13.2607,213,0,2.39773,0.0375,9178
9.0885e-07,3.47173e-07,-1.27939e-06,-0.000233443,-0.000111367,-0.000133473,-4.64542,13.2846,10.0378,9.25017,13.6265,9.92425,-4.8738,16.9551,213,0,3.35682,0.0375,9179
9.40421e-07,2.98976e-07,-1.28967e-06,-0.000217402,-9.47054e-05,-0.000155153,-1.25915,16.7619,7.88372,9.1624,16.9512,7.80886,-1.37359,15.8698,213,0,3.83636,0.075,9180
9.66106e-07,2.57074e-07,-1.30552e-06,-0.000216869,-8.49485e-05,-0.000165828,-1.2169,18.159,6.27986,9.73533,18.1615,6.36964,-1.30917,16.987,213,0,4.31591,0.1125,9181
9.40052e-07,3.48695e-07,-1.29009e-06,-0.000210318,-0.000108609,-0.000161411,-1.441,13.4975,5.74224,7.54961,13.53,5.83804,-1.56926,13.0771,213,0,3.35682,0.1125,9182
8.73515e-07,5.39099e-07,-1.33811e-06,-0.00019507,-0.000144631,-0.000156496,-0.683557,6.72468,4.98203,4.82398,7.40331,5.86449,-2.24465,8.97801,213,0,1.91818,0.075,9183
9.07519e-07,4.6786e-07,-1.31363e-06,-0.000197372,-0.000139171,-0.000159995,-1.05367,7.49459,4.43608,4.66792,7.67941,4.85402,-1.65643,8.29237,213,0,2.39773,0.1125,9184
-4.2377e-07,-5.81738e-07,-1.53696e-06,-0.000158802,-9.96084e-05,-0.000207203,7.50168,16.1957,0.392837,9.30108,18.892,4.90845,0.289804,16.7766,213,19.1182,20.225,0.15,9185
4.21404e-07,-5.80141e-07,-1.54137e-06,-0.000156175,-0.000102761,-0.000207547,7.80622,15.6514,0.260939,9.22394,18.6194,4.92758,0.171551,16.5893,213,0.981818,20.225,0.15,9186
6.6305e-07,8.71499e-07,-1.33601e-06,-0.00018634,-0.000185746,-0.000164861,-3.2103,-3.123,-0.0555786,2.42134,0.0697394,-1.68567,-4.77295,4.24643,213,0.938636,0.075,0.15,9187
8.55024e-07,8.77891e-07,-1.03798e-06,-0.000186592,-0.000195342,-0.000156065,-3.34559,-4.63078,1.13806,5.43448,1.64193,0.746798,-9.22703,10.4502,213,0.025,0.075,0.15,9188
8.75705e-07,6.85066e-07,-1.32503e-06,-0.000150044,-0.000185845,-0.000182699,3.83661,-1.42161,-0.959469,3.49291,4.83662,-1.2319,-2.1492,6.57533,213,0.025,1.03409,0.15,9189
5.02481e-07,8.86408e-07,-1.38004e-06,-0.000139588,-0.000182069,-0.000193263,5.71516,-0.524099,-2.16832,4.31536,6.4058,-1.15813,-2.22493,8.14986,213,1.93864,0.075,0.15,9190
9.04578e-07,5.24137e-07,-1.3547e-06,-0.000171236,-0.00015097,-0.000179818,2.27239,5.24897,1.01178,4.82767,8.55548,1.07753,-1.09987,8.77173,213,0.025,1.99409,0.15,9191
-8.53274e-07,8.74003e-07,-1.12365e-06,-0.000181801,-0.000190862,-0.000159332,-2.08064,-3.41149,1.21937,5.59723,3.29608,0.329541,-7.89838,10.0453,213,20.075,0.075,0.15,9192
-6.62761e-07,8.68853e-07,-1.33811e-06,-0.000184991,-0.000176861,-0.000165119,-2.07966,-0.885506,0.839089,2.24603,0.903146,0.559688,-3.58891,4.33056,213,19.1614,0.075,0.15,9193
-8.71707e-07,6.84349e-07,-1.32975e-06,-0.000150606,-0.000183915,-0.000180284,4.10778,-0.784522,-0.251168,4.04589,5.8225,-0.481129,-2.26928,7.36241,213,20.075,1.03409,0.15,9194
-5.02552e-07,8.85596e-07,-1.37315e-06,-0.000139803,-0.000181244,-0.000189161,6.12406,0.0374452,-1.12539,3.96932,6.7988,-0.622846,-1.13984,7.69319,213,18.1614,0.075,0.15,9195
-9.02587e-07,5.2338e-07,-1.34724e-06,-0.000170619,-0.000151243,-0.00017869,2.50032,5.34622,1.3149,4.45468,8.42837,1.21407,-0.481001,8.19439,213,20.075,1.99409,0.15,9196
7.73478e-07,-6.11433e-07,-1.35545e-06,-0.000176225,-5.99264e-05,-0.000212516,6.52663,23.6079,1.19634,14.9059,28.5517,4.03912,-1.25999,27.5471,213,0.025,19.2659,0.15,9197
6.16431e-07,-6.56931e-07,-1.4233e-06,-0.000204438,-8.4839e-05,-0.000184242,0.0599363,17.6261,3.02635,9.12021,17.8518,3.24919,-0.388611,16.721,213,0.025,20.225,0.15,9198
5.70942e-07,-5.72965e-07,-1.47768e-06,-0.000210389,-4.58395e-05,-0.000195099,1.26,25.4283,3.50576,13.5416,26.7581,3.7611,-0.325106,25.2889,213,0.515909,19.7875,0.15,9199
4.57998e-07,-6.58121e-07,-1.51265e-06,-0.000179275,-0.000143341,-0.000183808,0.68025,5.95811,0.0144581,3.93525,7.32096,-0.118605,-0.549539,7.66412,213,0.490909,20.6625,0.15,9200
8.76055e-07,-5.05002e-07,-1.37583e-06,-0.000177737,-0.000124152,-0.000171002,4.04038,11.9107,5.02956,4.85866,13.1093,4.47937,3.39198,9.22183,213,0.025,18.3059,0.15,9201
3.9595e-07,-5.32293e-07,-1.54773e-06,-0.000138399,-4.95487e-05,-0.000234775,14.507,27.557,0.351803,15.8062,31.9352,10.1577,0.322865,28.0207,213,1.51591,19.7875,0.15,9202
-7.77495e-07,-6.18082e-07,-1.35786e-06,-0.000176015,-6.46083e-05,-0.000207587,6.60015,22.963,1.96292,14.5775,28.5487,3.58364,-0.606269,27.3022,213,20.075,19.2659,0.15,9203
-6.1942e-07,-6.62589e-07,-1.41282e-06,-0.000204762,-8.24603e-05,-0.000188767,-0.218443,17.7446,2.13087,9.53725,18.1211,2.48927,-0.95337,17.6074,213,20.075,20.225,0.15,9204
-4.58769e-07,-6.6055e-07,-1.50978e-06,-0.000180011,-0.000139844,-0.000184406,0.774344,6.67399,0.12886,4.20073,7.97577,0.0271093,-0.425689,8.18446,213,19.6091,20.6625,0.15,9205
-5.74977e-07,-5.78845e-07,-1.46898e-06,-0.000211905,-4.2226e-05,-0.000197544,1.00486,25.9265,3.1141,13.8197,27.1617,3.36149,-0.477679,25.9338,213,19.5841,19.7875,0.15,9206
-3.97262e-07,-5.32774e-07,-1.54808e-06,-0.000140465,-4.71379e-05,-0.000234955,14.219,27.9265,0.340832,15.8546,32.0113,10.1728,0.302208,28.1053,213,18.5841,19.7875,0.15,9207
-8.75358e-07,-5.05303e-07,-1.38009e-06,-0.00018205,-0.000127845,-0.000165995,3.12671,11.088,5.48475,4.75504,11.9532,5.30321,2.44309,8.45115,213,20.075,18.3059,0.15,9208
3.28851e-07,-6.2606e-07,-1.53845e-06,-0.00011221,-0.000157703,-0.000204292,13.5418,6.86004,0.0172238,7.57081,15.1317,5.29734,-0.00995221,13.307,213,1.40455,20.6625,0.15,9209
-3.29119e-07,-6.26763e-07,-1.54032e-06,-0.00011302,-0.000158201,-0.000204025,13.3257,6.68972,-0.0407543,7.56962,15.0727,4.96857,-0.0665745,13.3537,213,18.6955,20.6625,0.15,9210
3.83673e-07,9.13704e-07,-1.33022e-06,-0.000117447,-0.000193107,-0.000183848,10.8849,-0.227685,1.13226,5.78486,11.1405,1.07811,-0.429179,10.8946,213,2.85227,0.075,0.15,9211
2.81098e-07,9.41608e-07,-1.32613e-06,-8.816e-05,-0.000191927,-0.000201558,16.3788,1.13796,-0.276474,8.38559,16.4343,1.14296,-0.336924,16.0824,213,3.85227,0.075,0.15,9212
2.08666e-07,9.62508e-07,-1.33536e-06,-6.98533e-05,-0.000204796,-0.000197322,19.9717,0.151982,1.24976,9.9606,20.0018,1.29097,0.0806347,19.3445,213,4.76591,0.075,0.15,9213
1.48563e-07,9.78909e-07,-1.34286e-06,-5.04165e-05,-0.000203066,-0.000210474,23.5756,1.15516,0.067178,11.7635,23.5858,1.15334,0.0587536,22.9993,213,5.76591,0.075,0.15,9214
1.05985e-07,9.91256e-07,-1.34256e-06,-4.26222e-05,-0.000210615,-0.000205162,25.2399,0.566032,1.36694,12.3563,25.249,1.38753,0.536328,24.2983,213,6.67955,0.075,0.15,9215
6.82073e-08,1.00032e-06,-1.33727e-06,-3.23865e-05,-0.00020686,-0.000217909,26.8595,1.23376,-0.389097,13.6375,26.8726,1.23396,-0.402403,26.4947,213,7.67955,0.075,0.15,9216
4.04303e-08,1.00532e-06,-1.3274e-06,-2.92181e-05,-0.000209426,-0.000221161,27.0773,0.60927,-1.11432,14.1179,27.0996,0.608851,-1.13618,27.4049,213,8.59318,0.075,0.15,9217
1.20187e-08,1.00855e-06,-1.3201e-06,-2.67014e-05,-0.000209478,-0.000222675,27.5357,0.690338,-1.24804,14.4047,27.5484,0.690494,-1.26091,27.8849,213,9.59318,0.075,0.15,9218
-1.17648e-08,1.00825e-06,-1.32528e-06,-2.63056e-05,-0.000208704,-0.000224991,27.4867,0.69694,-1.6953,14.6066,27.4985,0.704499,-1.71468,28.0819,213,10.5068,0.075,0.15,9219
-4.03052e-08,1.00485e-06,-1.33105e-06,-2.96498e-05,-0.000210578,-0.000220264,26.9496,0.375805,-1.04689,14.0214,26.9579,0.405486,-1.08491,27.3281,213,11.5068,0.075,0.15,9220
-6.84238e-08,1.00016e-06,-1.3331e-06,-3.2745e-05,-0.000208354,-0.000218503,26.5781,0.785504,-0.705029,13.6645,26.5994,0.788803,-0.729636,26.6023,213,12.4205,0.075,0.15,9221
-1.06067e-07,9.91577e-07,-1.33913e-06,-4.22117e-05,-0.000210491,-0.000206844,25.1929,0.476783,1.01243,12.3922,25.2007,1.06504,0.416384,24.4664,213,13.4205,0.075,0.15,9222
-1.48159e-07,9.79079e-07,-1.34028e-06,-5.01225e-05,-0.000203777,-0.000208906,23.7264,1.15833,0.405067,11.6668,23.7343,1.15481,0.400699,22.9658,213,14.3341,0.075,0.15,9223
-2.08381e-07,9.62917e-07,-1.33313e-06,-7.00287e-05,-0.000205551,-0.000197566,19.8362,-0.0685927,1.10416,10.0078,19.8732,1.14112,-0.142519,19.4057,213,15.3341,0.075,0.15,9224
-2.80909e-07,9.41708e-07,-1.32874e-06,-8.79904e-05,-0.000192422,-0.000200094,16.5102,1.17179,0.0450318,8.29071,16.5712,1.1661,-0.0102531,16.0257,213,16.2477,0.075,0.15,9225
-3.83349e-07,9.12147e-07,-1.3349e-06,-0.00011761,-0.00018998,-0.000184907,11.0389,0.409597,1.15467,5.53555,11.2631,1.14799,0.192037,10.6254,213,17.2477,0.075,0.15,9226
9.31097e-07,-3.78582e-07,-1.34004e-06,-0.000178255,-0.00012565,-0.000188362,2.1534,9.8798,0.668865,6.15806,11.4012,2.21584,-0.914949,11.0874,213,0.025,17.3468,0.15,9227
9.63386e-07,-2.8077e-07,-1.33182e-06,-0.000172845,-9.17349e-05,-0.000214405,4.18929,16.1024,-1.91471,9.53174,16.6051,4.23024,-2.45837,16.7525,213,0.025,16.3868,0.15,9228
1.01085e-06,-1.3975e-07,-1.31462e-06,-0.000190035,-5.4334e-05,-0.000211712,3.80539,23.7364,0.621611,11.7718,23.9369,3.83326,0.393256,22.026,213,0.025,14.4677,0.15,9229
9.90047e-07,-2.01092e-07,-1.34131e-06,-0.000193497,-7.32966e-05,-0.000192816,2.96712,20.6215,3.06712,9.94448,21.7156,3.11341,1.82668,19.2778,213,0.025,15.4277,0.15,9230
1.02639e-06,-6.22247e-08,-1.3102e-06,-0.000193637,-3.12724e-05,-0.000224004,3.94622,27.7935,-0.514017,14.3655,28.0027,3.95125,-0.728242,26.7005,213,0.025,12.5486,0.15,9231
1.02074e-06,-9.64775e-08,-1.30187e-06,-0.000202489,-3.88459e-05,-0.000204765,2.90895,26.9441,2.5747,12.9458,27.7085,2.90221,1.81702,25.3663,213,0.025,13.5086,0.15,9232
1.03719e-06,-9.42493e-09,-1.28583e-06,-0.000195704,-2.72379e-05,-0.000227441,3.50515,28.2487,-1.15617,15.0227,28.5595,3.52401,-1.48586,27.8801,213,0.025,10.6295,0.15,9233
1.03446e-06,-3.59732e-08,-1.30581e-06,-0.000204714,-2.58528e-05,-0.00020878,3.2134,29.4837,2.6163,13.7336,29.7888,3.20309,2.32155,27.0372,213,0.025,11.5895,0.15,9234
1.03278e-06,4.3606e-08,-1.29145e-06,-0.000197703,-2.91807e-05,-0.000229373,2.66273,27.4144,-1.9888,15.0177,27.7282,2.66746,-2.30731,27.8829,213,0.025,8.71045,0.15,9235
1.04117e-06,1.64209e-08,-1.28711e-06,-0.000202758,-2.71266e-05,-0.000208529,3.58778,29.3837,2.74017,13.6358,29.6586,3.66616,2.38693,26.655,213,0.025,9.67045,0.15,9236
1.01599e-06,1.09008e-07,-1.32107e-06,-0.000193021,-4.02049e-05,-0.000230098,2.68983,25.1347,-2.75581,14.1975,25.4069,2.64994,-2.98811,26.0379,213,0.025,6.79136,0.15,9237
1.02565e-06,7.28007e-08,-1.31147e-06,-0.000204973,-3.35466e-05,-0.000203544,2.92156,28.0998,3.13143,12.741,28.3528,2.92911,2.87085,25.4529,213,0.025,7.75136,0.15,9238
9.84758e-07,2.13236e-07,-1.33221e-06,-0.000178366,-7.46484e-05,-0.000218056,4.11811,19.3517,-1.71128,11.0801,19.8951,4.1286,-2.26514,19.7552,213,0.025,4.87227,0.15,9239
1.00153e-06,1.50754e-07,-1.35121e-06,-0.00020106,-5.10208e-05,-0.00019916,2.63836,24.6754,2.91743,11.6036,24.8873,3.66384,1.68005,22.2817,213,0.025,5.83227,0.15,9240
9.36817e-07,3.9407e-07,-1.31036e-06,-0.000172253,-0.000120253,-0.000192645,3.69993,11.3374,0.704789,6.2645,12.4032,3.46474,-0.125817,11.1751,213,0.025,2.95318,0.15,9241
9.67303e-07,2.93555e-07,-1.31338e-06,-0.000184594,-9.11283e-05,-0.000193706,3.35702,17.0847,2.01869,8.6392,18.193,3.35289,0.914562,16.1975,213,0.025,3.91318,0.15,9242
-2.23665e-07,-5.74953e-07,-1.52038e-06,-8.04955e-05,-0.000108432,-0.000235772,22.827,18.7238,0.0207763,12.936,25.8926,15.6585,0.0205416,22.5681,213,17.2477,20.225,0.15,9243
-1.61008e-07,-5.96838e-07,-1.51924e-06,-4.84698e-05,-0.000109899,-0.000248347,29.2117,20.1893,-0.145189,15.4269,30.7075,18.6945,-0.146217,26.9373,213,16.2477,20.225,0.15,9244
-3.07155e-07,-5.73619e-07,-1.52319e-06,-9.85295e-05,-0.000102979,-0.000232533,19.3051,18.6517,-0.376625,12.6393,24.894,13.0708,-0.38462,21.9071,213,18.1614,20.225,0.15,9245
-1.18916e-07,-6.17598e-07,-1.52173e-06,-4.307e-05,-0.000103784,-0.000249211,31.0003,22.0829,0.723294,15.5813,31.8805,21.2081,0.717946,27.4304,213,15.3341,20.225,0.15,9246
-8.38951e-08,-6.30224e-07,-1.52077e-06,-3.0703e-05,-0.000104604,-0.000258413,33.0358,22.1815,-0.409126,16.8447,33.2669,21.9638,-0.422516,29.6975,213,14.3341,20.225,0.15,9247
-5.833e-08,-6.32147e-07,-1.52036e-06,-2.31671e-05,-0.000115587,-0.000261095,33.5698,19.9957,-1.37583,17.5233,33.6597,19.917,-1.38695,30.5858,213,13.4205,20.225,0.15,9248
-3.71411e-08,-6.37207e-07,-1.52051e-06,-1.77758e-05,-0.000113507,-0.000249088,36.1823,22.1218,2.20833,17.0447,36.2718,22.0583,2.18237,29.6578,213,12.4205,20.225,0.15,9249
-2.2351e-08,-6.50121e-07,-1.52044e-06,-1.69407e-05,-0.00010871,-0.000253521,36.4169,22.9382,1.66921,17.3798,36.4283,22.9273,1.66875,30.3515,213,11.5068,20.225,0.15,9250
-7.07232e-09,-6.5514e-07,-1.52066e-06,-1.55244e-05,-0.000106866,-0.000254838,36.8066,23.3908,1.65741,17.5964,36.8359,23.3758,1.64315,30.7572,213,10.5068,20.225,0.15,9251
6.34901e-09,-6.48678e-07,-1.52396e-06,-1.37127e-05,-0.000113447,-0.000272709,34.9566,20.3081,-3.0835,19.049,34.9931,20.2929,-3.1048,33.2791,213,9.59318,20.225,0.15,9252
2.28092e-08,-6.46329e-07,-1.52493e-06,-1.65978e-05,-0.000112512,-0.000251646,36.3192,22.2317,1.79645,17.3017,36.3611,22.2285,1.75774,30.1345,213,8.59318,20.225,0.15,9253
3.73429e-08,-6.4283e-07,-1.52367e-06,-1.8486e-05,-0.00011143,-0.000246941,36.4062,22.755,2.85185,16.8482,36.5242,22.661,2.82784,29.3342,213,7.67955,20.225,0.15,9254
5.87753e-08,-6.33672e-07,-1.52268e-06,-2.35166e-05,-0.000116027,-0.000263737,33.1977,19.6103,-2.08457,17.6964,33.2944,19.5274,-2.0984,30.9019,213,6.67955,20.225,0.15,9255
8.4e-08,-6.30606e-07,-1.52185e-06,-3.01978e-05,-0.000105244,-0.000259837,32.9643,21.9419,-0.763994,16.9953,33.2138,21.7052,-0.776835,29.9437,213,5.76591,20.225,0.15,9256
1.18702e-07,-6.16539e-07,-1.52255e-06,-4.28894e-05,-0.00010401,-0.000249116,31.0314,22.0543,0.741791,15.5974,31.9311,21.1601,0.736287,27.4432,213,4.76591,20.225,0.15,9257
1.60724e-07,-5.95689e-07,-1.51923e-06,-4.86009e-05,-0.000110179,-0.000248141,29.1733,20.129,-0.134153,15.3747,30.6142,18.6891,-0.135181,26.8523,213,3.85227,20.225,0.15,9258
2.23546e-07,-5.75091e-07,-1.51873e-06,-8.03695e-05,-0.00010863,-0.000235775,22.8385,18.6877,0.0132578,12.9045,25.8221,15.7042,0.0131277,22.5243,213,2.85227,20.225,0.15,9259
3.06656e-07,-5.73234e-07,-1.51913e-06,-9.82741e-05,-0.000101641,-0.000233102,19.4383,18.9438,-0.364498,12.7373,25.1018,13.2887,-0.372828,22.081,213,1.93864,20.225,0.15,9260
-9.3613e-07,3.93939e-07,-1.30701e-06,-0.000170584,-0.000119735,-0.000196282,3.80958,11.2781,0.0351325,6.42737,12.1978,3.58192,-0.656928,11.3456,213,20.075,2.95318,0.15,9261
-9.66914e-07,2.9363e-07,-1.31457e-06,-0.000184184,-9.13597e-05,-0.000192791,3.51937,17.1529,2.25523,8.517,18.2222,3.51704,1.18823,15.9972,213,20.075,3.91318,0.15,9262
-9.84977e-07,2.13258e-07,-1.33626e-06,-0.000178554,-7.43347e-05,-0.000217145,4.18747,19.4947,-1.48067,11.0218,20.0259,4.19328,-2.01767,19.6871,213,20.075,4.87227,0.15,9263
-1.00154e-06,1.5134e-07,-1.35628e-06,-0.000199409,-5.11774e-05,-0.000199307,3.00677,24.7783,3.02175,11.5244,25.1398,3.57603,2.09101,22.3433,213,20.075,5.83227,0.15,9264
-1.01418e-06,1.09189e-07,-1.34005e-06,-0.000192468,-4.0261e-05,-0.000227056,3.10184,25.4572,-1.97832,13.9837,25.7315,3.08516,-2.23594,25.723,213,20.075,6.79136,0.15,9265
-1.02422e-06,7.33387e-08,-1.33797e-06,-0.000206026,-3.27519e-05,-0.000204597,2.64429,28.0939,2.85421,12.8822,28.3513,2.65422,2.58685,25.7309,213,20.075,7.75136,0.15,9266
-1.03316e-06,4.40448e-08,-1.31859e-06,-0.000196208,-2.99667e-05,-0.000229658,2.92183,27.3385,-1.9911,14.9567,27.6293,2.92405,-2.28409,27.6793,213,20.075,8.71045,0.15,9267
-1.03944e-06,1.55603e-08,-1.31344e-06,-0.000202831,-2.77464e-05,-0.000209037,3.46498,29.1805,2.55352,13.6897,29.544,3.49044,2.16456,26.7412,213,20.075,9.67045,0.15,9268
-1.03517e-06,-9.57294e-09,-1.32209e-06,-0.000194372,-2.70091e-05,-0.000228338,3.76292,28.3444,-1.22575,15.1272,28.6684,3.79925,-1.58606,27.9536,213,20.075,10.6295,0.15,9269
-1.03075e-06,-3.65402e-08,-1.35073e-06,-0.000205617,-2.61857e-05,-0.000208756,2.96748,29.3215,2.50655,13.6734,29.5669,3.00855,2.2201,26.9612,213,20.075,11.5895,0.15,9270
-1.02408e-06,-6.27634e-08,-1.3396e-06,-0.000194252,-3.09643e-05,-0.000228676,3.39051,27.3734,-1.66547,14.7973,27.6516,3.38984,-1.943,27.3214,213,20.075,12.5486,0.15,9271
-1.02175e-06,-9.63985e-08,-1.31199e-06,-0.000200182,-3.79684e-05,-0.00020492,3.53111,27.3562,2.83518,12.9812,28.0603,3.56422,2.09795,25.2612,213,20.075,13.5086,0.15,9272
-1.0105e-06,-1.39215e-07,-1.31269e-06,-0.000189663,-5.455e-05,-0.000212116,3.83666,23.6814,0.53888,11.759,23.8417,3.89149,0.323724,21.9526,213,20.075,14.4677,0.15,9273
-9.89986e-07,-2.01503e-07,-1.33741e-06,-0.000195113,-7.39535e-05,-0.000191432,2.64665,20.4419,3.18727,9.63577,21.377,2.79333,2.10547,18.937,213,20.075,15.4277,0.15,9274
-9.30098e-07,-3.78034e-07,-1.33063e-06,-0.000179176,-0.000124983,-0.000187854,2.04184,10.0015,0.767314,6.57446,11.9036,2.15248,-1.24538,11.8221,213,20.075,17.3468,0.15,9275
-9.65323e-07,-2.80705e-07,-1.32217e-06,-0.000174769,-9.11503e-05,-0.000213677,3.84953,16.131,-1.86511,9.38093,16.4884,3.9005,-2.27347,16.5617,213,20.075,16.3868,0.15,9276
-6.24698e-07,-6.64139e-07,-1.38775e-06,-0.000259782,-8.0066e-05,-0.000196453,-13.9367,12.4591,-4.63527,13.7966,13.4512,-5.42205,-14.142,24.4297,213,20.1,20.1409,0.075,9277
-8.5747e-07,-4.95548e-07,-1.35698e-06,-0.000209661,-0.000122064,-0.000153295,-1.78203,11.0837,6.49675,7.82491,12.6073,6.2337,-3.04255,13.6306,213,20.1,18.2227,0.075,9278
-1.00914e-06,4.76412e-08,-1.2964e-06,-0.000252192,-3.08238e-05,-0.000169229,-4.9655,27.548,7.21965,16.5205,28.074,6.69528,-4.96708,29.0239,213,20.1,8.63182,0.075,9279
-9.61107e-07,2.17321e-07,-1.31349e-06,-0.000248197,-7.50944e-05,-0.000137416,-5.1697,20.2548,11.1013,13.202,21.1621,10.2661,-5.24186,22.9825,213,20.1,4.79545,0.075,9280
-9.0687e-07,4.04079e-07,-1.28675e-06,-0.000225982,-0.0001249,-0.000128612,-3.66269,11.1837,10.6385,8.60382,13.2467,8.87373,-3.96094,15.4912,213,20.1,2.87727,0.075,9281
-8.42917e-07,6.85957e-07,-1.29843e-06,-0.000212429,-0.000170343,-0.000136664,-5.40532,0.776059,5.72265,7.10748,7.00979,1.28877,-7.20517,12.3883,213,20.1,0.959091,0.075,9282
-9.89385e-07,1.12866e-07,-1.31735e-06,-0.000247454,-3.98295e-05,-0.000174382,-5.15021,25.3447,5.58226,15.49,25.7502,5.25633,-5.22976,27.2921,213,20.1,6.71364,0.075,9283
-1.01271e-06,-8.86844e-09,-1.29784e-06,-0.000258101,-2.76977e-05,-0.000163358,-5.5448,28.2957,8.37053,17.0857,28.624,8.04481,-5.5474,29.7988,213,20.1,10.55,0.075,9284
-9.99428e-07,-5.86407e-08,-1.31744e-06,-0.000250425,-2.84719e-05,-0.000165929,-4.01254,28.5868,8.39782,16.5968,29.1365,7.89256,-4.05701,29.1197,213,20.1,12.4682,0.075,9285
-9.85578e-07,-1.35568e-07,-1.28736e-06,-0.000250393,-5.28986e-05,-0.000177396,-7.35961,21.6474,3.36187,14.5341,21.6647,3.38845,-7.40348,25.4504,213,20.1,14.3864,0.075,9286
-9.43593e-07,-2.72988e-07,-1.30043e-06,-0.000232491,-9.20744e-05,-0.000150717,-4.22495,16.3987,7.7856,11.357,18.2457,6.18184,-4.46822,19.6836,213,20.1,16.3045,0.075,9287
-8.49144e-07,7.81188e-07,-1.2178e-06,-0.000186146,-0.000190333,-0.000153211,-2.50351,-3.1184,2.33383,3.24061,3.05313,-2.91312,-3.42809,6.23969,213,20.1,0.479545,0.1125,9288
-8.1903e-07,7.60551e-07,-1.20684e-06,-0.000206362,-0.000176195,-0.000136812,-4.5079,-0.0771691,5.70723,6.9231,7.40763,0.153104,-6.43857,11.9957,213,20.1,0.479545,0.0375,9289
-8.38574e-07,6.04818e-07,-1.33254e-06,-0.000214493,-0.000147343,-0.000136865,-3.77039,6.09229,7.63123,6.80426,8.67055,6.22055,-4.93797,12.564,213,20.1,1.43864,0.0375,9290
-5.61446e-07,-7.08958e-07,-1.42817e-06,-0.000249506,-0.000119114,-0.000179084,-13.4931,5.65828,-3.14977,12.4032,9.81064,-5.7994,-14.9958,21.7211,213,20.1,20.6205,0.1125,9291
-5.51485e-07,-7.13932e-07,-1.41403e-06,-0.000227267,-0.000113621,-0.000187915,-8.46007,8.23169,-2.68038,8.81926,8.85328,-2.97679,-8.78525,15.5693,213,20.1,20.6205,0.0375,9292
-6.88532e-07,-6.28455e-07,-1.35433e-06,-0.000240772,-6.71966e-05,-0.00014572,-3.42304,22.0708,10.5377,14.4634,22.5261,13.0602,-6.4008,25.545,213,20.1,19.6614,0.0375,9293
-8.71578e-07,6.11121e-07,-1.34352e-06,-0.000195473,-0.00016263,-0.000161617,-2.94148,1.88229,2.03102,4.04587,3.35218,2.3592,-4.73955,7.64377,213,20.1,1.43864,0.1125,9294
-7.07783e-07,-6.33335e-07,-1.36567e-06,-0.000221976,-5.00113e-05,-0.000216549,-3.9195,21.3378,-3.12246,13.5943,21.5237,-1.56289,-5.66498,25.3874,213,20.1,19.6614,0.1125,9295
-9.08135e-07,3.46905e-07,-1.27799e-06,-0.000234703,-0.000111173,-0.000128741,-4.48784,13.6557,11.0753,9.40021,14.1319,10.7798,-4.66855,17.3687,213,20.1,3.35682,0.0375,9296
-8.72311e-07,4.67523e-07,-1.29714e-06,-0.000219966,-0.000140377,-0.000134629,-4.22587,7.46374,8.30796,7.64934,10.2126,6.41924,-5.08605,13.7988,213,20.1,2.39773,0.0375,9297
-9.05812e-07,4.67232e-07,-1.30775e-06,-0.000195595,-0.000138362,-0.000157731,-0.339301,8.06684,5.22195,4.58357,8.15783,5.80097,-1.00931,8.24534,213,20.1,2.39773,0.1125,9298
-8.71009e-07,5.37504e-07,-1.32959e-06,-0.000195784,-0.000146224,-0.000155208,-0.88395,6.39517,5.07572,5.00266,7.54608,5.50008,-2.45923,9.15541,213,20.1,1.91818,0.075,9299
-9.55244e-07,1.82528e-07,-1.31849e-06,-0.000246612,-6.48392e-05,-0.000139659,-4.03983,22.658,11.6688,13.8141,23.5448,10.8256,-4.08342,23.9518,213,20.1,5.275,0.0375,9300
-9.36433e-07,2.54157e-07,-1.29727e-06,-0.000239993,-8.47489e-05,-0.000139075,-4.2553,18.5462,10.5671,11.7531,19.1201,10.1241,-4.38615,20.5429,213,20.1,4.31591,0.0375,9301
-9.66253e-07,2.56982e-07,-1.3083e-06,-0.000216784,-8.50184e-05,-0.000165757,-1.19617,18.1568,6.29839,9.71673,18.1611,6.37028,-1.27236,16.9572,213,20.1,4.31591,0.1125,9302
-9.40219e-07,2.98817e-07,-1.29065e-06,-0.000218322,-9.48984e-05,-0.000152951,-1.29258,16.8353,8.30878,9.23336,17.087,8.14424,-1.37973,15.9953,213,20.1,3.83636,0.075,9303
-9.39588e-07,3.4863e-07,-1.28842e-06,-0.000211734,-0.000108281,-0.00016235,-1.83833,13.3564,5.41493,7.65826,13.3861,5.4774,-1.93046,13.2669,213,20.1,3.35682,0.1125,9304
-9.79138e-07,9.45029e-08,-1.30805e-06,-0.000247928,-3.70476e-05,-0.000157778,-3.45211,27.521,9.78873,15.5515,27.6497,9.66126,-3.45334,27.046,213,20.1,7.19318,0.0375,9305
-9.68959e-07,1.32264e-07,-1.31805e-06,-0.000240829,-4.24235e-05,-0.000174295,-3.79204,25.3487,5.98015,14.838,25.398,6.41685,-4.27801,26.032,213,20.1,6.23409,0.0375,9306
-9.84304e-07,1.84614e-07,-1.32952e-06,-0.000228348,-6.60419e-05,-0.000177222,-3.2736,20.5652,4.23562,12.0262,20.7777,4.02415,-3.27462,21.3596,213,20.1,5.275,0.1125,9307
-9.77855e-07,1.54479e-07,-1.33376e-06,-0.000229621,-5.1725e-05,-0.000164935,-1.09285,25.0356,8.4079,13.3337,25.3482,8.32167,-1.31922,23.388,213,20.1,5.75455,0.075,9308
-9.98338e-07,1.33041e-07,-1.3314e-06,-0.000222231,-4.41481e-05,-0.000185439,-0.525139,25.6309,4.87877,13.3434,25.655,5.36128,-1.03178,24.1339,213,20.1,6.23409,0.1125,9309
-9.97624e-07,3.29844e-08,-1.28519e-06,-0.000259271,-3.18188e-05,-0.000161465,-6.03417,27.3729,8.33104,16.8195,27.6042,8.10039,-6.03483,29.2557,213,20.1,9.11136,0.0375,9310
-9.89281e-07,6.27319e-08,-1.29852e-06,-0.00025565,-3.0127e-05,-0.000172203,-6.00927,27.1144,6.24703,16.6515,27.2696,6.11595,-6.03338,29.1905,213,20.1,8.15227,0.0375,9311
-1.01933e-06,6.1849e-08,-1.31162e-06,-0.000224266,-3.08432e-05,-0.00018371,0.391076,28.8,6.34763,14.2372,28.8065,6.40022,0.332023,25.9775,213,20.1,8.15227,0.1125,9312
-9.98805e-07,7.67844e-08,-1.31514e-06,-0.000236792,-3.28082e-05,-0.00016932,-1.45822,28.5019,8.45176,15.0729,28.6865,8.26822,-1.45924,26.6486,213,20.1,7.67273,0.075,9313
-1.00987e-06,9.41567e-08,-1.32048e-06,-0.000227852,-3.74025e-05,-0.0002007,-2.6719,25.3004,1.31602,14.1111,25.5025,1.16187,-2.71982,26.4956,213,20.1,7.19318,0.1125,9314
-9.9569e-07,-2.33121e-08,-1.30296e-06,-0.000256323,-2.87767e-05,-0.000159912,-4.89616,28.5247,9.26417,16.903,28.901,8.89654,-4.90488,29.4406,213,20.1,11.0295,0.0375,9315
-9.99365e-07,4.03095e-09,-1.28535e-06,-0.000254539,-2.83395e-05,-0.000166308,-5.02433,28.1987,7.93455,16.7554,28.4826,7.65451,-5.02823,29.3056,213,20.1,10.0705,0.0375,9316
-1.02767e-06,3.25605e-08,-1.29781e-06,-0.000230643,-3.0302e-05,-0.000196083,-2.2474,27.1776,2.82854,14.7882,27.3166,2.70187,-2.25974,27.4341,213,20.1,9.11136,0.1125,9317
-1.01527e-06,1.77842e-08,-1.28987e-06,-0.000232537,-2.97554e-05,-0.000175821,-0.757924,29.0256,7.5722,14.9364,29.1102,7.49232,-0.762637,26.7195,213,20.1,9.59091,0.075,9318
-1.02926e-06,4.72066e-09,-1.29808e-06,-0.000230122,-2.68685e-05,-0.000186139,-0.872029,28.9809,5.58808,14.9377,28.9811,5.6102,-0.894373,27.2126,213,20.1,10.0705,0.1125,9319
-9.79784e-07,-7.23435e-08,-1.30008e-06,-0.000245176,-3.36476e-05,-0.000158235,-2.51552,28.5527,10.2539,15.611,28.6847,10.1436,-2.53723,27.1973,213,20.1,12.9477,0.0375,9320
-9.87947e-07,-4.62953e-08,-1.31806e-06,-0.000244886,-2.06548e-05,-0.000171927,-2.51117,30.4228,8.20468,16.5076,30.4918,8.14785,-2.52334,29.1815,213,20.1,11.9886,0.0375,9321
-1.02526e-06,-2.14708e-08,-1.31545e-06,-0.00023683,-2.84412e-05,-0.000191791,-3.15949,27.4477,3.45561,15.3675,27.5302,3.41849,-3.20487,28.0169,213,20.1,11.0295,0.1125,9322
-1.00787e-06,-3.65292e-08,-1.32542e-06,-0.000235896,-2.41886e-05,-0.000175361,-1.00186,30.0926,7.88916,15.6367,30.2605,7.73239,-1.01295,27.9466,213,20.1,11.5091,0.075,9323
-1.01846e-06,-4.65731e-08,-1.33145e-06,-0.000228043,-2.55001e-05,-0.000188277,-0.444158,29.3043,5.39652,14.8919,29.3145,5.41145,-0.469309,27.3223,213,20.1,11.9886,0.1125,9324
-9.61799e-07,-1.63218e-07,-1.29204e-06,-0.000253368,-6.1919e-05,-0.000143065,-5.70895,22.4101,10.4919,14.3285,22.6503,10.5494,-6.00663,24.9174,213,20.1,14.8659,0.0375,9325
-9.74386e-07,-1.11128e-07,-1.27847e-06,-0.000252113,-4.81057e-05,-0.000166501,-6.30685,23.6568,6.26744,15.0546,23.7496,6.22742,-6.35961,26.1918,213,20.1,13.9068,0.0375,9326
-1.01281e-06,-7.47457e-08,-1.31227e-06,-0.000233596,-3.3518e-05,-0.000190133,-2.70181,26.6847,3.68187,14.7768,26.8119,3.59468,-2.7418,26.95,213,20.1,12.9477,0.1125,9327
-9.94005e-07,-9.09048e-08,-1.29012e-06,-0.000233213,-3.93601e-05,-0.000169105,-1.19023,27.2819,8.22557,14.2886,27.371,8.15228,-1.20607,25.2348,213,20.1,13.4273,0.075,9328
-1.0076e-06,-1.12176e-07,-1.29115e-06,-0.000221567,-4.42703e-05,-0.000194362,-1.21096,24.8295,2.78481,13.0489,24.8749,2.75134,-1.22288,24.3551,213,20.1,13.9068,0.1125,9329
-9.11824e-07,-3.19377e-07,-1.2944e-06,-0.000232644,-0.000104095,-0.000146443,-4.98598,13.8947,7.67476,9.5306,13.9356,7.77347,-5.12559,16.8476,213,20.1,16.7841,0.0375,9330
-9.41155e-07,-2.3106e-07,-1.30126e-06,-0.000236159,-7.95133e-05,-0.000144505,-3.35209,19.6553,10.1097,11.6067,19.8338,9.95884,-3.37971,20.1779,213,20.1,15.825,0.0375,9331
-9.93481e-07,-1.6326e-07,-1.30387e-06,-0.000221346,-6.31339e-05,-0.000188564,-2.37892,20.8585,2.43597,11.8747,20.8629,2.93919,-2.8865,21.4386,213,20.1,14.8659,0.1125,9332
-9.67008e-07,-1.96019e-07,-1.31506e-06,-0.000237767,-7.09237e-05,-0.000137419,-2.27335,22.2318,12.4653,12.5151,22.6521,12.1498,-2.37817,21.7701,213,20.1,15.3455,0.075,9333
-9.71596e-07,-2.32151e-07,-1.31269e-06,-0.000208879,-8.17946e-05,-0.000168602,0.73884,19.4044,6.65453,9.34458,19.4195,6.64795,0.730336,16.5441,213,20.1,15.825,0.1125,9334
-8.05703e-07,-5.4932e-07,-1.35309e-06,-0.000219578,-0.000109875,-0.000149967,-2.71506,13.3976,7.50901,8.66863,13.4102,8.70847,-3.92709,15.5297,213,20.1,18.7023,0.0375,9335
-8.71076e-07,-4.34861e-07,-1.33295e-06,-0.00022841,-0.000128845,-0.00012977,-4.72325,9.90034,9.76454,9.49931,13.1061,7.72807,-5.89253,16.9616,213,20.1,17.7432,0.0375,9336
-9.0216e-07,-4.34411e-07,-1.34341e-06,-0.00020069,-0.000130806,-0.000179965,-2.93574,7.32839,0.108148,6.70681,8.61874,0.676932,-4.79488,11.682,213,20.1,17.7432,0.1125,9337
-9.07857e-07,-3.70819e-07,-1.30476e-06,-0.000207003,-0.000124084,-0.000153019,-1.30625,10.8725,6.62272,6.51495,11.1162,6.98645,-1.91369,11.5335,213,20.1,17.2636,0.075,9338
-9.42809e-07,-3.19606e-07,-1.30561e-06,-0.000205019,-0.000100158,-0.000172288,-0.394096,15.0074,4.41318,7.72179,15.0443,4.38139,-0.399238,13.6941,213,20.1,16.7841,0.1125,9339
-7.71044e-07,-6.04891e-07,-1.341e-06,-0.000217483,-7.65834e-05,-0.000148144,1.07016,21.7649,11.2543,12.7007,22.1382,15.2144,-3.26325,22.7442,213,20.1,19.1818,0.075,9340
-8.31984e-07,-5.54723e-07,-1.36485e-06,-0.000206267,-0.000118474,-0.00015264,-0.569528,12.325,7.30681,8.37329,14.5947,6.61939,-2.15184,14.5084,213,20.1,18.7023,0.1125,9341
3.6365e-07,-7.1782e-07,-1.516e-06,-0.000122632,-0.000213024,-0.000179234,8.20856,-5.06776,-0.104971,6.68035,8.24699,-0.0974548,-5.11371,11.6898,213,0.913636,21.1,0.075,9342
-3.62015e-07,-7.19783e-07,-1.5216e-06,-0.000121374,-0.000212895,-0.000178902,8.55394,-4.8882,0.104442,6.78477,8.61139,0.116935,-4.95814,11.8753,213,19.1864,21.1,0.075,9343
-2.08724e-07,-7.1809e-07,-1.52021e-06,-5.8127e-05,-0.000219529,-0.000198967,21.2593,-2.44665,0.573354,12.4561,21.4188,1.46067,-3.49342,22.8417,213,17.3591,21.1,0.075,9344
-1.22757e-07,-7.60037e-07,-1.52804e-06,-4.36323e-05,-0.000227748,-0.000203119,23.5867,-3.45523,0.162175,13.5944,23.6251,0.232335,-3.56375,25.5035,213,15.5318,21.1,0.075,9345
-2.93583e-08,-7.9651e-07,-1.51663e-06,-1.65126e-05,-0.000238895,-0.000214243,28.023,-4.63946,-1.0187,16.3649,28.0258,-0.956808,-4.70412,31.0264,213,11.8773,21.1,0.075,9346
2.78502e-08,-7.99365e-07,-1.49829e-06,-1.63691e-05,-0.000246272,-0.000211707,27.6052,-6.16177,-1.08504,16.8848,27.6061,-1.08414,-6.16356,31.5382,213,8.22273,21.1,0.075,9347
2.08861e-07,-7.1852e-07,-1.52109e-06,-5.8666e-05,-0.000219366,-0.000198937,21.1478,-2.45497,0.545547,12.4199,21.3038,1.47067,-3.53606,22.7534,213,2.74091,21.1,0.075,9348
8.60576e-10,-8.0294e-07,-1.51377e-06,-1.57523e-05,-0.000238616,-0.000215516,28.1129,-4.62013,-1.22741,16.4098,28.1315,-1.17799,-4.68816,31.213,213,10.05,21.1,0.075,9349
-6.20998e-08,-7.82723e-07,-1.51989e-06,-2.36004e-05,-0.000234028,-0.00021696,26.5205,-4.38608,-1.87916,15.4911,26.566,-1.89456,-4.41619,29.8015,213,13.7045,21.1,0.075,9350
6.28057e-08,-7.83829e-07,-1.51666e-06,-2.40638e-05,-0.000234106,-0.000216832,26.4138,-4.43608,-1.89905,15.4632,26.4646,-1.92428,-4.4617,29.7389,213,6.39545,21.1,0.075,9351
1.22885e-07,-7.59259e-07,-1.52882e-06,-4.28863e-05,-0.000228553,-0.000203259,23.6777,-3.59206,0.122915,13.706,23.7151,0.190326,-3.69686,25.6899,213,4.56818,21.1,0.075,9352
4.27831e-07,-7.38554e-07,-1.4973e-06,-0.000150672,-0.000208168,-0.000168183,2.95615,-5.48856,0.384115,4.2869,3.06112,0.303271,-5.51268,7.58093,213,0.456818,21.1,0.1125,9353
4.21659e-07,-7.38247e-07,-1.48466e-06,-0.000141723,-0.000213061,-0.000169975,4.48211,-5.99569,0.33257,5.51681,4.51191,0.828794,-6.52171,9.72975,213,0.456818,21.1,0.0375,9354
3.11886e-07,-7.08788e-07,-1.51732e-06,-9.82741e-05,-0.000222319,-0.000187926,12.3816,-5.83747,-0.786018,9.47218,12.6536,-0.604707,-6.29077,16.8375,213,1.37045,21.1,0.0375,9355
-4.19509e-07,-7.42532e-07,-1.49216e-06,-0.000140344,-0.000211302,-0.000170099,4.96635,-5.45575,0.595963,5.54896,5.00584,1.1928,-6.09207,9.76658,213,19.6432,21.1,0.0375,9356
-4.25621e-07,-7.41115e-07,-1.50474e-06,-0.000149849,-0.000206588,-0.000168019,3.31677,-5.01667,0.648102,4.2353,3.39343,0.631941,-5.07717,7.48234,213,19.6432,21.1,0.1125,9357
-3.10991e-07,-7.10431e-07,-1.52081e-06,-9.69262e-05,-0.000224074,-0.000187426,12.5882,-6.08663,-0.704084,9.70726,12.8552,-0.498475,-6.55928,17.2043,213,18.7295,21.1,0.0375,9358
3.1399e-07,-7.07715e-07,-1.53155e-06,-0.00010008,-0.000213245,-0.000192008,12.414,-4.20705,-1.08782,8.42319,12.521,-1.07643,-4.32541,15.4797,213,1.37045,21.1,0.1125,9359
-3.12778e-07,-7.08871e-07,-1.53506e-06,-9.86866e-05,-0.000214338,-0.000191733,12.6724,-4.31394,-0.993824,8.64769,12.8183,-0.976606,-4.47707,15.838,213,18.7295,21.1,0.1125,9360
-1.84138e-07,-7.30164e-07,-1.51385e-06,-4.49242e-05,-0.000226015,-0.000199758,23.7523,-2.84541,1.01108,13.7921,23.9569,1.58841,-3.62735,25.3815,213,16.9023,21.1,0.0375,9361
-2.37253e-07,-7.12959e-07,-1.51142e-06,-7.1795e-05,-0.000217498,-0.000195848,18.4557,-2.94451,0.235374,11.2008,18.7576,0.633148,-3.64414,20.5989,213,17.8159,21.1,0.0375,9362
-2.72661e-07,-7.11411e-07,-1.51732e-06,-7.33409e-05,-0.000216676,-0.000196576,18.0929,-2.95938,-0.00719857,11.3622,18.4434,0.963926,-4.28096,20.6087,213,18.2727,21.1,0.075,9363
-2.38402e-07,-7.11315e-07,-1.52627e-06,-6.8329e-05,-0.000213741,-0.000199345,19.3131,-2.04424,0.0701461,10.8347,19.4509,0.106776,-2.21862,20.6054,213,17.8159,21.1,0.1125,9364
-1.03543e-07,-7.65077e-07,-1.52339e-06,-3.84971e-05,-0.000226647,-0.000205338,24.7163,-2.91826,0.211502,13.9598,24.9312,0.0668471,-2.98846,26.5243,213,15.075,21.1,0.0375,9365
-1.43158e-07,-7.55061e-07,-1.51748e-06,-4.81658e-05,-0.000234833,-0.000200681,22.0628,-5.35399,-0.337861,13.7844,22.1296,-0.319437,-5.43921,25.3989,213,15.9886,21.1,0.0375,9366
-1.66309e-07,-7.45351e-07,-1.52216e-06,-3.90541e-05,-0.000235348,-0.000202483,24.0362,-4.79443,0.032649,14.4556,24.0944,-0.00321096,-4.81679,26.8302,213,16.4455,21.1,0.075,9367
-1.85383e-07,-7.27896e-07,-1.5289e-06,-4.75206e-05,-0.000221979,-0.000201341,23.3576,-2.26596,0.765141,13.0417,23.4302,1.07971,-2.65315,24.4318,213,16.9023,21.1,0.1125,9368
-1.43986e-07,-7.52333e-07,-1.53264e-06,-4.72511e-05,-0.000230641,-0.000203604,22.4013,-4.53416,-0.563045,13.4753,22.4079,-0.560999,-4.54279,25.1968,213,15.9886,21.1,0.1125,9369
-5.24214e-08,-7.89346e-07,-1.50647e-06,-2.07169e-05,-0.000243977,-0.000211537,26.7905,-6.00079,-1.23619,16.399,26.7905,-1.22952,-6.0075,30.6893,213,13.2477,21.1,0.0375,9370
-7.39369e-08,-7.76762e-07,-1.51851e-06,-2.64355e-05,-0.000233536,-0.000213055,26.2501,-4.16779,-1.15957,15.3399,26.3371,-1.07163,-4.34274,29.1821,213,14.1614,21.1,0.0375,9371
-8.70063e-08,-7.65565e-07,-1.53442e-06,-2.92492e-05,-0.000213808,-0.000211654,27.5487,0.441575,0.757944,13.9256,27.8023,0.994863,-0.0488963,27.3442,213,14.6182,21.1,0.075,9372
-1.04108e-07,-7.62665e-07,-1.539e-06,-3.98915e-05,-0.000221546,-0.000208118,24.5982,-2.08238,-0.110077,13.373,24.6385,-0.125281,-2.10745,25.812,213,15.075,21.1,0.1125,9373
-7.33744e-08,-7.736e-07,-1.53462e-06,-2.81985e-05,-0.000223512,-0.000216658,26.4265,-2.26015,-1.25348,14.4087,26.4726,-1.21507,-2.34468,28.2694,213,14.1614,21.1,0.1125,9374
-2.14813e-08,-7.98241e-07,-1.51373e-06,-1.58961e-05,-0.000239317,-0.000217047,27.8698,-4.94524,-1.67423,16.4204,27.8804,-1.66958,-4.96049,31.3254,213,11.4205,21.1,0.0375,9375
-3.63991e-08,-7.95685e-07,-1.50478e-06,-1.67706e-05,-0.000248459,-0.000208791,27.5767,-6.45258,-0.626351,17.0303,27.5824,-0.606327,-6.47828,31.5374,213,12.3341,21.1,0.0375,9376
-3.7124e-08,-7.93678e-07,-1.52065e-06,-1.5147e-05,-0.000240948,-0.000213951,28.1867,-4.97774,-1.01268,16.5872,28.1868,-1.00309,-4.98747,31.3725,213,12.3341,21.1,0.1125,9377
-4.3933e-08,-7.91422e-07,-1.51013e-06,-1.51445e-05,-0.00024756,-0.0002098,27.9574,-6.17861,-0.632586,17.083,27.9854,-0.658596,-6.18062,31.767,213,12.7909,21.1,0.075,9378
-5.18338e-08,-7.86684e-07,-1.52243e-06,-1.8919e-05,-0.000235798,-0.000216321,27.54,-4.31408,-1.4534,15.9385,27.5569,-1.46411,-4.32023,30.5493,213,13.2477,21.1,0.1125,9379
7.26058e-09,-8.03986e-07,-1.50003e-06,-1.5314e-05,-0.00024854,-0.000210001,27.8061,-6.44902,-0.788555,17.1412,27.8085,-0.76608,-6.47389,31.8148,213,9.59318,21.1,0.0375,9380
-6.82408e-09,-8.01659e-07,-1.51242e-06,-1.54884e-05,-0.000239292,-0.000217951,27.8856,-4.98559,-1.85105,16.4736,27.899,-1.80182,-5.04818,31.4499,213,10.5068,21.1,0.0375,9381
-1.41641e-08,-7.95364e-07,-1.52857e-06,-1.51637e-05,-0.000215117,-0.000224772,29.5856,0.217414,-1.20065,15.4102,29.6022,0.218428,-1.21821,30.1277,213,10.9636,21.1,0.075,9382
-2.20939e-08,-7.95123e-07,-1.53023e-06,-1.75472e-05,-0.000230959,-0.000220669,27.9156,-3.42922,-1.91787,15.6969,27.94,-1.91758,-3.45389,30.6546,213,11.4205,21.1,0.1125,9383
-6.1245e-09,-7.98745e-07,-1.52895e-06,-1.76304e-05,-0.000230687,-0.000221149,27.8762,-3.41655,-2.01563,15.7013,27.9322,-2.01783,-3.47038,30.7021,213,10.5068,21.1,0.1125,9384
3.5608e-08,-7.9637e-07,-1.49182e-06,-1.77808e-05,-0.000250338,-0.000207956,27.2364,-6.92043,-0.695599,17.0973,27.2419,-0.668815,-6.95271,31.5259,213,7.76591,21.1,0.0375,9385
2.05638e-08,-8.01107e-07,-1.49165e-06,-1.52343e-05,-0.000251813,-0.000209067,27.6067,-7.14077,-0.862557,17.3756,27.608,-0.861262,-7.14333,32.075,213,8.67955,21.1,0.0375,9386
2.079e-08,-8.01486e-07,-1.50751e-06,-1.47572e-05,-0.000245781,-0.000213455,27.875,-6.05659,-1.30872,16.9684,27.875,-1.30362,-6.06171,31.8256,213,8.67955,21.1,0.1125,9387
1.4155e-08,-8.02103e-07,-1.50338e-06,-1.32622e-05,-0.000249859,-0.000210874,28.0945,-6.65568,-0.929716,17.3827,28.1088,-0.943085,-6.65658,32.29,213,9.13636,21.1,0.075,9388
8.3137e-09,-8.03008e-07,-1.516e-06,-1.37818e-05,-0.000240516,-0.0002152,28.4385,-4.86309,-1.1448,16.6639,28.4404,-1.12235,-4.88739,31.6138,213,9.59318,21.1,0.1125,9389
7.48386e-08,-7.77443e-07,-1.51667e-06,-2.64606e-05,-0.000233878,-0.000213144,26.2039,-4.26047,-1.21521,15.3723,26.2814,-1.08996,-4.46324,29.2045,213,5.93864,21.1,0.0375,9390
5.2986e-08,-7.89984e-07,-1.50171e-06,-2.14385e-05,-0.00024343,-0.000211108,26.7084,-5.89659,-1.14929,16.3047,26.7084,-1.1449,-5.90102,30.5107,213,6.85227,21.1,0.0375,9391
4.38839e-08,-7.92293e-07,-1.50362e-06,-1.70362e-05,-0.000245737,-0.000208608,27.7845,-5.80599,-0.352575,16.8071,27.8017,-0.363204,-5.81256,31.248,213,7.30909,21.1,0.075,9392
3.55376e-08,-7.96475e-07,-1.50757e-06,-1.7374e-05,-0.000244117,-0.0002123,27.5095,-5.79339,-1.12028,16.6597,27.5142,-1.11313,-5.80523,31.2388,213,7.76591,21.1,0.1125,9393
5.20842e-08,-7.8824e-07,-1.51761e-06,-1.98508e-05,-0.000235844,-0.000215531,27.3855,-4.33843,-1.35501,15.8746,27.4028,-1.36428,-4.34641,30.3681,213,6.85227,21.1,0.1125,9394
1.42978e-07,-7.54508e-07,-1.51898e-06,-4.73515e-05,-0.000235845,-0.000200494,22.1814,-5.50351,-0.311455,13.9212,22.2427,-0.276637,-5.59967,25.5994,213,4.11136,21.1,0.0375,9395
1.04058e-07,-7.64611e-07,-1.52346e-06,-3.78041e-05,-0.00022739,-0.000205482,24.8001,-3.04528,0.172407,14.0631,25.0135,0.0264719,-3.11276,26.6954,213,5.025,21.1,0.0375,9396
8.77926e-08,-7.65942e-07,-1.53381e-06,-2.86629e-05,-0.000214574,-0.000211712,27.6127,0.307073,0.727378,14.0034,27.8559,0.942237,-0.150965,27.4766,213,5.48182,21.1,0.075,9397
7.41307e-08,-7.74667e-07,-1.5328e-06,-2.8357e-05,-0.000224041,-0.0002166,26.3444,-2.39671,-1.30368,14.452,26.3967,-1.24554,-2.50718,28.2942,213,5.93864,21.1,0.1125,9398
1.04519e-07,-7.62273e-07,-1.53908e-06,-3.91379e-05,-0.000222235,-0.000208281,24.6997,-2.19276,-0.143187,13.4759,24.7379,-0.160172,-2.21394,25.9859,213,5.025,21.1,0.1125,9399
2.37447e-07,-7.12774e-07,-1.51135e-06,-7.20384e-05,-0.00021667,-0.000195911,18.4686,-2.7742,0.274781,11.1794,18.8062,0.715646,-3.55265,20.5597,213,2.28409,21.1,0.0375,9400
1.83952e-07,-7.30853e-07,-1.5155e-06,-4.55714e-05,-0.000226753,-0.000199458,23.5558,-3.05527,0.953728,13.7729,23.7435,1.51293,-3.80219,25.3102,213,3.19773,21.1,0.0375,9401
1.85262e-07,-7.28237e-07,-1.53052e-06,-4.83498e-05,-0.000222449,-0.00020102,23.1444,-2.42637,0.720924,13.0052,23.2112,1.0269,-2.79917,24.3241,213,3.19773,21.1,0.1125,9402
1.65783e-07,-7.45296e-07,-1.52437e-06,-3.93428e-05,-0.000236533,-0.000201839,23.9162,-5.04607,0.0496363,14.5155,23.9676,0.0155937,-5.06346,26.8542,213,3.65455,21.1,0.075,9403
1.43754e-07,-7.51588e-07,-1.53412e-06,-4.66104e-05,-0.000231502,-0.000203395,22.4942,-4.66181,-0.533562,13.5882,22.5003,-0.525268,-4.67616,25.3571,213,4.11136,21.1,0.1125,9404
2.73083e-07,-7.09639e-07,-1.51611e-06,-7.45431e-05,-0.000214367,-0.000196791,17.9997,-2.53696,0.0446201,11.1233,18.3497,1.05455,-3.8969,20.2306,213,1.82727,21.1,0.075,9405
2.38862e-07,-7.10832e-07,-1.5262e-06,-6.86981e-05,-0.000212767,-0.000199518,19.2991,-1.86095,0.0848929,10.7618,19.4507,0.14524,-2.07295,20.5048,213,2.28409,21.1,0.1125,9406
-6.07831e-08,1.34045e-07,-2.09712e-06,-3.3946e-05,-5.15458e-05,-0.0153242,21.4844,21.4597,-0.0351603,10.76,21.4847,21.4595,-0.035304,21.5074,213,12.1398,6.31869,0.35,9407
-6.16942e-08,1.36342e-07,-2.51943e-06,-3.44635e-05,-5.22195e-05,-0.00349361,10.2915,10.2385,-0.034296,5.16338,10.2922,10.2381,-0.0345856,10.2998,213,12.1398,6.31869,0.38625,9408
-1.59994e-07,7.99958e-08,-7.69298e-07,-5.72864e-05,-2.91034e-05,-0.0153412,21.4222,21.4619,-0.0884421,11.0586,21.7432,21.4265,-0.374056,21.9606,213,16.4989,5.46573,-0.05,9409
5.05094e-07,-1.59428e-07,-1.16984e-06,-0.000184787,-5.25936e-05,-0.0155103,20.7171,20.9032,-0.852149,11.9475,21.9717,20.7198,-1.92337,23.2944,213,1.21141,15.9285,-0.025,9410
5.26646e-07,-2.17686e-07,-1.15377e-06,-0.000211894,-7.13976e-05,-0.0153075,20.9367,21.1344,-0.308944,12.0947,22.4954,20.9608,-1.69402,23.4598,213,0.872357,16.787,-0.025,9411
2.36478e-07,-8.93008e-08,-7.81932e-07,-7.43314e-05,-2.46899e-05,-0.0155966,20.9581,21.028,-0.887993,11.5237,21.5936,20.9584,-1.45388,22.7365,213,2.42281,15.5525,-0.05,9412
2.56825e-07,-1.19818e-07,-7.92782e-07,-5.82209e-05,-4.53212e-05,-0.0157643,20.698,20.7162,-1.40681,11.764,21.4171,20.7012,-2.11089,23.1783,213,2.08376,16.411,-0.05,9413
1.68906e-07,-5.20779e-08,-3.92248e-07,-9.88788e-05,-2.03881e-05,-0.0155169,21.0212,21.1317,-0.678123,11.9742,22.2022,21.0187,-1.74613,23.3791,213,1.21141,15.9285,-0.075,9414
3.37442e-07,-9.15417e-08,-7.79019e-07,-0.000103539,-3.19921e-05,-0.0154811,21.0467,21.1474,-0.595831,12.0595,22.3317,21.0538,-1.78722,23.506,213,1.21141,15.449,-0.05,9415
-1.75436e-07,6.96956e-08,-7.70491e-07,-5.5598e-05,-2.75284e-05,-0.0153741,21.3759,21.4155,-0.183378,11.1218,21.7373,21.3769,-0.506217,22.0655,213,16.7418,5.80737,-0.05,9416
-1.33913e-07,6.37212e-08,-7.68766e-07,-5.07838e-05,-2.5316e-05,-0.0153479,21.4372,21.473,-0.0921121,10.9809,21.6698,21.4402,-0.291899,21.8478,213,15.9607,6.12915,-0.05,9417
-9.52378e-08,3.94463e-08,-3.8606e-07,-2.94463e-05,-1.40888e-05,-0.0154304,21.3853,21.4069,-0.290138,11.2279,21.7858,21.3864,-0.670086,22.2588,213,17.0109,5.47567,-0.075,9418
-7.30962e-08,3.54908e-08,-3.8459e-07,-2.86067e-05,-1.40649e-05,-0.0153683,21.4898,21.5103,-0.0994368,11.0441,21.7487,21.4915,-0.339551,21.9608,213,16.2298,5.79744,-0.075,9419
-2.19504e-07,1.07276e-07,-1.15185e-06,-7.89861e-05,-3.92989e-05,-0.0153,21.4069,21.4628,-0.0152183,10.975,21.6974,21.4097,-0.252662,21.8077,213,16.2298,5.79744,-0.025,9420
-1.88028e-07,2.73205e-07,-7.96473e-07,-5.79796e-05,-4.00095e-05,-0.0158411,20.5814,20.6067,-1.63186,12.0719,21.5558,20.5883,-2.58791,23.6748,213,17.2716,1.836,-0.05,9421
-2.51858e-07,5.21476e-07,-1.15132e-06,-8.12711e-05,-0.000217274,-0.0152137,21.2493,21.0579,-0.0482071,12.0893,22.6815,21.0746,-1.49707,23.4165,213,16.9079,0.832639,-0.025,9422
-1.10597e-07,1.67471e-07,-3.9478e-07,-3.43425e-05,-0.000111827,-0.015679,20.8016,20.6925,-1.2169,12.3133,22.0813,20.7411,-2.54522,23.9845,213,17.7229,1.00336,-0.075,9423
-2.51595e-07,2.55237e-07,-8.04206e-07,-7.92932e-05,-6.45054e-05,-0.0160286,20.1682,20.189,-2.27898,12.3063,21.2562,20.1785,-3.35646,24.0919,213,18.0866,2.00672,-0.05,9424
-3.28218e-07,4.98761e-07,-1.18145e-06,-0.000109107,-0.000184383,-0.0156612,20.4838,20.3779,-1.40422,12.2626,21.7854,20.412,-2.7399,23.8682,213,17.7229,1.00336,-0.025,9425
-2.43234e-07,-2.01646e-07,-8.12975e-07,-4.48329e-05,-4.82035e-05,-0.0161282,20.1366,20.1318,-2.49927,12.1723,20.9987,20.1164,-3.34597,23.9157,213,18.155,18.1186,-0.05,9426
-4.97991e-07,-2.94141e-07,-1.17806e-06,-0.000218008,-7.58016e-05,-0.0157526,20.1799,20.3801,-1.68354,12.4084,21.7424,20.2086,-3.07449,24.0866,213,19.2276,17.7461,-0.025,9427
-1.49573e-07,-1.14093e-07,-3.96026e-07,-0.000103942,-1.84858e-05,-0.0158299,20.4948,20.6151,-1.63807,12.2855,21.7444,20.5539,-2.82652,23.9978,213,19.0274,18.5952,-0.075,9428
-2.03123e-07,-2.3857e-07,-7.78996e-07,-6.50474e-05,-2.59411e-05,-0.0155397,21.0778,21.1328,-0.701347,11.766,21.9721,21.097,-1.55983,23.1068,213,17.9547,18.9677,-0.05,9429
-4.46547e-07,-3.44803e-07,-1.18425e-06,-0.000178203,-5.84058e-05,-0.0156596,20.4826,20.6512,-1.30601,12.1477,21.7945,20.5341,-2.50085,23.6903,213,19.0274,18.5952,-0.025,9430
1.70381e-07,-7.33085e-08,-3.80059e-07,-0.000139608,-2.10919e-05,-0.0153789,21.1224,21.2892,-0.32555,11.9296,22.3911,21.163,-1.46813,23.2695,213,0.872357,16.787,-0.075,9431
2.71944e-07,-1.60671e-07,-8.0552e-07,-6.7736e-06,-4.82046e-05,-0.016058,20.3678,20.3095,-2.22287,12.1305,21.1776,20.3603,-3.08345,23.8629,213,1.74471,17.2695,-0.05,9432
-3.5972e-07,-9.09617e-09,-7.75357e-07,-0.00011925,-1.22548e-05,-0.0155261,20.9572,21.1078,-0.726546,11.9243,22.1147,20.9578,-1.73401,23.2918,213,18.9734,11.0295,-0.05,9433
-1.437e-07,-1.39242e-09,-3.9877e-07,-0.000137936,-6.1953e-06,-0.0154621,21.0153,21.2007,-0.552079,11.8608,22.1851,21.0153,-1.53654,23.1589,213,18.9734,10.55,-0.075,9434
-5.13127e-07,-4.84037e-09,-1.15563e-06,-0.000233098,-1.93665e-05,-0.0152811,21.0007,21.3015,-0.178055,12.1216,22.6833,21.0007,-1.55986,23.4472,213,18.9734,10.55,-0.025,9435
-2.63994e-07,-2.65516e-09,-7.87832e-07,-3.74805e-05,-9.80456e-06,-0.0157202,20.8919,20.9309,-1.18008,11.6735,21.549,20.8919,-1.79813,23.0256,213,17.8468,10.55,-0.05,9436
-3.59857e-07,1.98544e-09,-7.7528e-07,-0.000122302,-1.23651e-05,-0.0154449,21.0812,21.2359,-0.48389,11.8705,22.2465,21.0812,-1.49451,23.1804,213,18.9734,10.0705,-0.05,9437
-4.45372e-08,1.55675e-07,-7.70188e-07,-1.90355e-05,-5.90235e-05,-0.0153609,21.4573,21.401,-0.135037,11.0285,21.6888,21.4027,-0.368244,21.9154,213,13.1869,3.79004,-0.05,9438
-3.31963e-08,1.38462e-07,-7.69821e-07,-1.62156e-05,-5.64855e-05,-0.0153695,21.456,21.3993,-0.152371,10.9893,21.6402,21.4012,-0.338493,21.8602,213,12.5118,4.11301,-0.05,9439
-3.77091e-08,1.09119e-07,-7.70147e-07,-1.91457e-05,-3.63254e-05,-0.015375,21.4711,21.4469,-0.140958,10.9264,21.5905,21.4489,-0.26233,21.7824,213,12.7612,4.79756,-0.05,9440
-5.07693e-08,1.20774e-07,-7.69868e-07,-2.15408e-05,-4.10082e-05,-0.0153727,21.4599,21.4325,-0.14551,10.9578,21.614,21.4344,-0.301554,21.8263,213,13.4363,4.47459,-0.05,9441
-3.13062e-10,1.4264e-07,-4.00292e-07,-4.95253e-06,-0.000150863,-0.0155054,21.1122,20.9069,-0.703226,11.9004,22.1049,20.9069,-1.69589,23.225,213,10.05,1.03798,-0.075,9442
-5.14391e-09,3.64685e-07,-7.76409e-07,-1.20823e-05,-0.000116297,-0.0155271,21.1116,20.965,-0.724286,11.945,22.1385,20.9652,-1.75147,23.3255,213,10.5068,1.03798,-0.05,9443
4.39287e-09,3.63535e-07,-7.75852e-07,-1.43754e-05,-0.000118707,-0.0154656,21.2016,21.0548,-0.54459,11.8983,22.2268,21.055,-1.56995,23.233,213,9.59318,1.03798,-0.05,9444
-6.69559e-10,5.17323e-07,-1.15788e-06,-1.84032e-05,-0.00024252,-0.0153104,21.2409,20.9255,-0.281115,12.1929,22.6728,20.9255,-1.71305,23.5609,213,10.05,1.03798,-0.025,9445
2.69845e-10,2.81847e-07,-7.93659e-07,-1.05763e-05,-3.05728e-05,-0.0158364,20.749,20.7209,-1.52439,11.8348,21.4471,20.7209,-2.22245,23.3149,213,10.05,2.07595,-0.05,9446
-2.71957e-07,-2.45844e-07,-7.65954e-07,-0.000103449,-4.10307e-05,-0.0152155,21.4683,21.5561,0.199527,12.0413,22.923,21.4605,-1.15963,23.3857,213,19.0274,19.0747,-0.05,9447
-2.52559e-07,3.19996e-07,-7.92747e-07,-7.03602e-05,-0.00010203,-0.0159022,20.3414,20.2968,-1.94045,12.7198,21.9239,20.2895,-3.51572,24.6631,213,18.1797,1.00336,-0.05,9448
-3.81927e-07,2.89108e-08,-7.64457e-07,-0.000112926,-1.29304e-05,-0.0151653,21.5679,21.7087,0.383162,12.141,23.1857,21.5703,-1.09628,23.5159,213,19.25,8.16441,-0.05,9449
-5.40518e-07,3.20582e-08,-1.13129e-06,-0.000302461,-2.15492e-05,-0.0149343,21.3551,21.7504,0.762073,12.086,23.341,21.3576,-0.831045,23.2439,213,19.25,8.64396,-0.025,9450
2.62116e-08,-1.8978e-07,-7.84629e-07,-1.44235e-05,-5.62421e-05,-0.0157007,20.9181,20.8593,-1.15881,11.3615,21.2411,20.8593,-1.48185,22.5345,213,7.82349,17.5346,-0.05,9451
2.02398e-08,-2.43499e-07,-7.82306e-07,-1.12516e-05,-5.42078e-05,-0.0156754,20.9727,20.9122,-1.07311,11.5576,21.5072,20.9127,-1.60811,22.8239,213,8.0972,18.4799,-0.05,9452
1.76425e-08,-1.52612e-07,-7.72706e-07,-1.36208e-05,-5.74882e-05,-0.015429,21.3646,21.3028,-0.331164,11.0615,21.5781,21.3029,-0.544834,21.9867,213,8.54576,16.8465,-0.05,9453
1.34905e-08,-2.06934e-07,-7.87833e-07,-1.06608e-05,-5.31784e-05,-0.0157231,20.8977,20.8378,-1.21619,11.4381,21.2788,20.8379,-1.59735,22.6589,213,8.81947,17.7918,-0.05,9454
-1.46608e-07,1.17655e-08,-3.88141e-07,-0.000207253,-6.71889e-06,-0.0150945,21.4068,21.689,0.454372,11.6917,22.7646,21.4045,-0.618878,22.7339,213,19.25,8.64396,-0.075,9455
-3.08071e-07,1.98449e-08,-7.98032e-07,-1.50177e-05,-1.24247e-05,-0.0159219,20.6249,20.6285,-1.76263,12.0176,21.4504,20.6253,-2.58485,23.6335,213,18.3999,8.6561,-0.05,9456
2.75095e-07,5.80395e-08,-7.96032e-07,-8.5122e-05,-2.28163e-05,-0.0157759,20.6339,20.7216,-1.44931,11.786,21.4209,20.6364,-2.15114,23.1898,213,2.0211,6.25998,-0.05,9457
3.35309e-07,7.7358e-08,-7.8215e-07,-0.000113718,-2.39651e-05,-0.0156654,20.7262,20.8525,-1.16143,11.9517,21.7932,20.7342,-2.11015,23.3918,213,1.28275,5.61924,-0.05,9458
3.26497e-07,4.27787e-08,-7.89926e-07,9.36365e-06,-1.86095e-05,-0.015756,20.9616,20.9223,-1.22658,12.016,21.8644,20.9604,-2.16753,23.593,213,1.4767,7.03602,-0.05,9459
3.92776e-07,5.79985e-08,-7.49132e-07,-0.000100249,-2.32438e-05,-0.0151052,21.6883,21.7967,0.570247,11.8719,23.0511,21.6968,-0.69274,23.0965,213,0.73835,6.39528,-0.05,9460
-1.23582e-08,1.44022e-07,-3.91678e-07,-6.23347e-06,-0.000209356,-0.0151928,21.5256,21.2397,0.151868,11.7783,22.6165,21.2407,-0.940023,22.8996,213,11.8921,0.819491,-0.075,9461
-3.08083e-08,3.82452e-07,-7.60683e-07,-1.66429e-05,-0.00012634,-0.0152235,21.5797,21.4253,0.17748,11.8128,22.6896,21.4289,-0.936022,23.0212,213,12.3489,0.819491,-0.05,9462
2.27951e-07,-7.89908e-09,-7.76997e-07,-8.26869e-05,-1.11478e-05,-0.0155047,21.1058,21.2065,-0.59924,11.3677,21.6713,21.1059,-1.06408,22.458,213,2.73299,11.0715,-0.05,9463
2.32116e-07,3.93258e-09,-7.7893e-07,-8.27397e-05,-1.09324e-05,-0.0155301,21.0642,21.1653,-0.67649,11.3966,21.641,21.0642,-1.15224,22.5104,213,2.69953,10.0003,-0.05,9464
1.60182e-07,-1.41922e-08,-7.68353e-07,-5.81868e-05,-1.16648e-05,-0.0153401,21.4499,21.5154,-0.0579774,11.0201,21.7486,21.4503,-0.29164,21.8926,213,3.73685,11.564,-0.05,9465
1.63171e-07,-1.74181e-09,-7.67445e-07,-5.46311e-05,-1.16831e-05,-0.0153126,21.5058,21.5663,0.0316384,11.0053,21.8043,21.5058,-0.206369,21.863,213,3.70339,10.4928,-0.05,9466
3.52367e-08,-2.2821e-07,-7.86575e-07,-1.72819e-05,-6.47865e-05,-0.0157037,20.8903,20.8235,-1.18687,11.5083,21.3599,20.8238,-1.65678,22.7534,213,7.10122,18.2227,-0.05,9467
9.29212e-09,-2.56771e-07,-7.77642e-07,-9.92775e-06,-5.05551e-05,-0.0155295,21.2223,21.1651,-0.620042,11.5075,21.8086,21.1651,-1.20635,22.7001,213,9.09319,18.7371,-0.05,9468
-2.99564e-08,1.85498e-08,-7.69324e-07,-1.5326e-05,-1.41265e-05,-0.0153746,21.5199,21.5216,-0.0967705,10.8205,21.5329,21.52,-0.108108,21.6345,213,12.1292,8.86525,-0.05,9469
-4.29029e-08,1.64048e-08,-7.69311e-07,-2.17249e-05,-1.32231e-05,-0.0153711,21.5076,21.5196,-0.095248,10.8264,21.5382,21.5084,-0.114655,21.638,213,12.8682,9.02396,-0.05,9470
-3.11661e-08,2.85594e-08,-7.69628e-07,-1.57575e-05,-1.48166e-05,-0.0153801,21.5084,21.5097,-0.115461,10.829,21.5262,21.5083,-0.131801,21.649,213,12.2189,8.15515,-0.05,9471
-4.48177e-08,2.59395e-08,-7.69538e-07,-2.19191e-05,-1.29268e-05,-0.0153773,21.4973,21.51,-0.113965,10.8353,21.5324,21.4992,-0.138238,21.654,213,12.9579,8.31386,-0.05,9472
1.64852e-07,1.03588e-08,-7.67207e-07,-5.69379e-05,-1.16947e-05,-0.0153169,21.4917,21.5554,0.0147796,11.0167,21.8017,21.4919,-0.231728,21.8802,213,3.66993,9.42161,-0.05,9473
3.10125e-07,-2.53853e-09,-8.0187e-07,-1.35642e-05,-1.1485e-05,-0.0160014,20.5004,20.5033,-2.00101,12.0741,21.3253,20.5004,-2.82301,23.7466,213,1.72913,10.5791,-0.05,9474
-2.86302e-07,8.67703e-09,-7.97948e-07,-7.25023e-05,-1.22367e-05,-0.0158651,20.5433,20.6281,-1.68332,11.8778,21.3501,20.5434,-2.40544,23.3626,213,18.1234,9.60305,-0.05,9475
-3.88426e-07,1.5209e-08,-7.46998e-07,-0.000127019,-1.50322e-05,-0.0150837,21.6554,21.813,0.605163,11.7604,22.9705,21.6533,-0.550271,22.8906,213,19.25,9.1235,-0.05,9476
-1.82902e-08,3.86928e-07,-7.5402e-07,-1.3041e-05,-0.000119027,-0.0152238,21.6021,21.453,0.194338,11.8373,22.7368,21.4505,-0.93789,23.0585,213,11.4353,0.819491,-0.05,9477
-1.08594e-08,2.98754e-07,-7.99082e-07,-1.26748e-05,-7.26242e-05,-0.0159057,20.5599,20.4755,-1.80802,11.966,21.3419,20.4757,-2.59018,23.5109,213,10.9785,1.85747,-0.05,9478
-2.24704e-08,3.1612e-07,-7.96845e-07,-1.28897e-05,-5.04405e-06,-0.0158976,20.6836,20.6946,-1.67264,12.0497,21.5552,20.6945,-2.54421,23.6808,213,11.907,1.63898,-0.05,9479
-2.72662e-07,-1.61019e-07,-8.05336e-07,-5.57999e-06,-4.63647e-05,-0.0160573,20.3756,20.3182,-2.21575,12.14,21.2091,20.34,-3.07104,23.8575,213,18.3553,17.2695,-0.05,9480
-1.61665e-07,-9.96104e-08,-3.91317e-07,-0.000134848,-2.41872e-05,-0.0157339,20.5489,20.7047,-1.40534,12.1953,21.8298,20.5792,-2.56081,23.79,213,19.2276,17.7461,-0.075,9481
-2.41391e-08,-4.59084e-07,-1.11639e-06,-1.09369e-05,-0.000351827,-0.0147126,22.0657,21.5859,1.3744,11.7229,23.443,21.5858,-0.00282438,22.5746,213,12.0639,20.4638,-0.025,9482
-1.84441e-08,-2.98436e-07,-7.42646e-07,-1.02176e-05,9.19726e-05,-0.0148324,22.6,22.7438,1.73916,11.2508,23.4212,22.7421,0.919634,22.1698,213,12.2505,19.8277,-0.05,9483
-8.43754e-09,-1.19974e-07,-3.75011e-07,-3.87304e-06,-0.000277854,-0.0148608,21.9654,21.5798,1.05562,11.2961,22.8063,21.5803,0.214187,22.0048,213,12.0639,20.4638,-0.075,9484
-1.11133e-08,-3.40942e-07,-7.46153e-07,-9.13029e-06,-9.06808e-05,-0.0148553,22.2658,22.151,1.37116,11.3334,23.1533,22.1482,0.486453,22.1814,213,11.6071,20.4638,-0.05,9485
8.06229e-09,2.39219e-07,-7.7666e-07,-1.24733e-05,-7.97162e-05,-0.0154712,21.2623,21.1677,-0.494398,11.3876,21.7715,21.1677,-1.00364,22.4793,213,9.38382,2.6101,-0.05,9486
-9.73936e-10,1.9373e-07,-7.69138e-07,-1.14199e-05,-7.70256e-05,-0.0153619,21.4494,21.3571,-0.154966,11.147,21.7942,21.3571,-0.499768,22.0787,213,10.05,3.21001,-0.05,9487
1.80011e-08,1.96745e-07,-7.66942e-07,-1.35107e-05,-6.74191e-05,-0.0153069,21.5491,21.4732,0.0250515,11.1134,21.9003,21.4736,-0.326482,22.0165,213,8.71765,3.14424,-0.05,9488
7.99047e-09,1.58706e-07,-7.62783e-07,-1.51797e-05,-6.034e-05,-0.0152377,21.6693,21.6057,0.245028,10.9428,21.8999,21.6059,0.0142512,21.7401,213,9.38382,3.74415,-0.05,9489
-3.61033e-08,5.38173e-07,-1.13773e-06,-2.16242e-05,-0.000309723,-0.0150125,21.6098,21.2044,0.51153,12.2168,23.2769,21.2054,-1.15661,23.4665,213,11.8921,0.819491,-0.025,9490
-1.41469e-07,2.90817e-07,-7.99447e-07,-4.63011e-05,1.23571e-05,-0.0159394,20.5416,20.6241,-1.82646,12.1095,21.4857,20.5869,-2.73333,23.7823,213,16.4567,1.66528,-0.05,9491
-8.39506e-08,1.66896e-07,-3.79328e-07,-3.05864e-05,-0.000152323,-0.0153165,21.3418,21.1704,-0.171788,11.9225,22.5031,21.1792,-1.34189,23.2114,213,16.9079,0.832639,-0.075,9492
3.81154e-07,2.78871e-08,-7.67096e-07,-0.000107001,-1.26276e-05,-0.0152141,21.5063,21.6391,0.244408,12.1668,23.1073,21.5089,-1.22637,23.5751,213,0.838594,8.19862,-0.05,9493
5.36452e-07,3.13108e-08,-1.13551e-06,-0.000297681,-2.19902e-05,-0.0149991,21.2625,21.6505,0.571638,12.0736,23.1842,21.2634,-0.962951,23.2463,213,0.838594,8.67816,-0.025,9494
1.1721e-08,2.99086e-07,-8.03024e-07,-1.25125e-05,-6.89452e-05,-0.0159847,20.4367,20.3573,-2.04259,12.021,21.218,20.3575,-2.82405,23.6235,213,9.1205,1.83367,-0.05,9495
2.29332e-08,3.17777e-07,-8.0337e-07,-1.24569e-05,5.89142e-07,-0.016029,20.4783,20.4966,-2.06355,12.1435,21.3508,20.4966,-2.93608,23.8713,213,8.191,1.59139,-0.05,9496
1.95328e-08,3.87784e-07,-7.48048e-07,-1.44147e-05,-0.000122321,-0.0151148,21.7716,21.6197,0.519233,11.7705,22.9172,21.6171,-0.623765,22.9186,213,8.66368,0.795696,-0.05,9497
6.67032e-08,1.25756e-07,-7.69807e-07,-2.83799e-05,-4.46977e-05,-0.0153495,21.4711,21.4481,-0.0919787,10.9626,21.6511,21.4502,-0.274124,21.8255,213,5.97922,4.31292,-0.05,9498
5.03898e-08,1.16495e-07,-7.69611e-07,-1.97653e-05,-3.67803e-05,-0.0153682,21.4797,21.4557,-0.12181,10.9467,21.6248,21.4572,-0.268494,21.81,213,6.69726,4.58662,-0.05,9499
4.5521e-08,1.53366e-07,-7.71297e-07,-1.61954e-05,-6.01334e-05,-0.0153754,21.4403,21.3785,-0.17639,11.0348,21.6654,21.3813,-0.404291,21.929,213,6.85454,3.82844,-0.05,9500
1.69848e-07,-2.6707e-08,-7.70601e-07,-6.46536e-05,-1.23831e-05,-0.0153914,21.3447,21.4183,-0.226271,11.0892,21.6847,21.3456,-0.493612,22.0107,213,3.54411,12.5737,-0.05,9501
1.2452e-07,-3.69858e-08,-7.70021e-07,-3.80065e-05,-1.547e-05,-0.0153868,21.4285,21.4602,-0.173514,10.9702,21.6131,21.4295,-0.327354,21.8492,213,4.4252,13.2609,-0.05,9502
1.17973e-07,-2.24588e-08,-7.69674e-07,-3.68245e-05,-1.42612e-05,-0.0153694,21.4626,21.4943,-0.116653,10.9347,21.6231,21.4635,-0.246329,21.7901,213,4.61795,12.2512,-0.05,9503
8.47999e-08,-3.26577e-08,-7.70187e-07,-3.47127e-05,-1.57415e-05,-0.0153853,21.4406,21.4673,-0.163893,10.8899,21.5406,21.4426,-0.239198,21.731,213,5.49904,12.9384,-0.05,9504
1.79629e-07,-4.2109e-08,-7.7133e-07,-6.52617e-05,-1.51736e-05,-0.0153957,21.3312,21.4017,-0.244959,11.1279,21.7052,21.3334,-0.550618,22.0722,213,3.35136,13.5834,-0.05,9505
1.18796e-07,1.10242e-08,-7.66285e-07,-3.75658e-05,-1.21804e-05,-0.0153119,21.5582,21.5939,0.0609254,10.8997,21.7271,21.5583,-0.072388,21.7156,213,4.58424,9.38718,-0.05,9506
8.58617e-08,1.17287e-08,-7.6809e-07,-3.20311e-05,-1.22622e-05,-0.0153446,21.5213,21.5492,-0.029639,10.858,21.6177,21.5216,-0.0983797,21.6682,213,5.49854,9.35274,-0.05,9507
9.15958e-08,2.22029e-08,-7.68438e-07,-2.90693e-05,-1.28976e-05,-0.0153435,21.5311,21.5539,-0.0225075,10.8658,21.6313,21.5315,-0.100348,21.6819,213,5.31462,8.52749,-0.05,9508
3.12393e-08,3.84591e-07,-7.58559e-07,-1.54335e-05,-0.000135593,-0.0152075,21.5945,21.4254,0.213158,11.7633,22.6649,21.4298,-0.861653,22.934,213,7.75005,0.795696,-0.05,9509
1.29477e-08,1.43222e-07,-3.89263e-07,-5.45158e-06,-0.000220754,-0.0151299,21.6125,21.3095,0.326189,11.742,22.7108,21.3106,-0.773272,22.8162,213,8.20686,0.795696,-0.075,9510
3.81019e-07,-3.38082e-08,-7.70285e-07,-0.000122418,-1.87312e-05,-0.0153819,21.1738,21.3197,-0.302452,11.9137,22.4206,21.1773,-1.40684,23.2308,213,0.866429,12.9406,-0.05,9511
1.4588e-07,-1.32909e-08,-3.97712e-07,-0.000195118,-4.30325e-06,-0.0154228,20.9086,21.1771,-0.522987,11.8828,22.2078,20.9127,-1.55776,23.1452,213,0.866429,12.461,-0.075,9512
6.8562e-08,2.60306e-08,-7.69871e-07,-2.977e-05,-1.49914e-05,-0.0153784,21.4682,21.489,-0.133475,10.8592,21.5362,21.4697,-0.182174,21.6852,213,6.10164,8.27244,-0.05,9513
6.93055e-08,3.99413e-08,-7.70119e-07,-2.99503e-05,-1.52373e-05,-0.0153841,21.4578,21.4785,-0.151768,10.8716,21.5335,21.4608,-0.209781,21.707,213,6.04765,7.39069,-0.05,9514
4.68435e-08,3.1164e-08,-7.70078e-07,-1.85151e-05,-1.71675e-05,-0.0153859,21.4866,21.4885,-0.14156,10.8437,21.5171,21.4867,-0.17034,21.6723,213,7.01859,7.96089,-0.05,9515
4.74354e-08,4.64015e-08,-7.70233e-07,-1.87831e-05,-1.7313e-05,-0.0153889,21.4806,21.4827,-0.151474,10.8574,21.5232,21.4803,-0.191674,21.6935,213,6.9646,7.07915,-0.05,9516
5.35323e-07,-4.21257e-08,-1.15176e-06,-0.000285616,-1.82118e-05,-0.0152397,20.9105,21.2868,-0.135971,12.2453,22.8214,20.9091,-1.66915,23.5926,213,0.866429,12.461,-0.025,9517
3.80656e-07,-2.21131e-08,-7.7498e-07,-0.000108434,-1.3647e-05,-0.0153338,21.3037,21.4371,-0.124622,12.2518,22.9087,21.3025,-1.59503,23.7414,213,0.866429,11.9815,-0.05,9518
-4.68889e-08,8.765e-08,-7.70418e-07,-2.31091e-05,-2.95675e-05,-0.0153911,21.4437,21.4346,-0.185351,10.9027,21.5313,21.4357,-0.274111,21.7578,213,13.1899,5.40494,-0.05,9519
-2.7377e-08,9.81589e-08,-7.69848e-07,-1.39651e-05,-3.16244e-05,-0.0153774,21.4906,21.4658,-0.132036,10.9053,21.584,21.4669,-0.226591,21.7523,213,12.0861,5.12052,-0.05,9520
6.3526e-08,1.52276e-08,-7.6942e-07,-2.81412e-05,-1.2064e-05,-0.0153692,21.493,21.5156,-0.0982093,10.8458,21.5541,21.4937,-0.137441,21.6614,213,6.28556,9.09769,-0.05,9521
3.1247e-07,1.82502e-08,-8.02685e-07,-1.1559e-05,-1.2717e-05,-0.0160168,20.4792,20.4775,-2.04675,12.0992,21.3146,20.4792,-2.88384,23.7917,213,1.67719,8.72451,-0.05,9522
1.4499e-07,1.0346e-08,-3.90635e-07,-0.000217094,-8.68934e-06,-0.0151844,21.2258,21.5191,0.160707,11.6652,22.5046,21.2267,-0.825701,22.7183,213,0.838594,8.67816,-0.075,9523
6.1054e-08,6.03119e-08,-7.70568e-07,-2.61637e-05,-2.51506e-05,-0.0153909,21.4419,21.4433,-0.1826,10.8796,21.5102,21.4415,-0.24905,21.725,213,6.30227,6.40376,-0.05,9524
2.31933e-07,1.44646e-08,-7.79366e-07,-8.2431e-05,-1.18997e-05,-0.0155652,21.0059,21.1052,-0.784646,11.4294,21.5896,21.006,-1.26913,22.5726,213,2.67356,9.07306,-0.05,9525
3.11557e-07,7.8681e-09,-8.02805e-07,-8.05932e-05,-1.09502e-05,-0.0160284,20.2526,20.3506,-2.19244,12.0951,21.1741,20.2526,-3.01598,23.7428,213,1.70316,9.65178,-0.05,9526
3.80009e-07,2.02297e-09,-7.68089e-07,-0.000103249,-1.08888e-05,-0.0152092,21.5287,21.6587,0.268534,12.1332,23.0968,21.5288,-1.16965,23.5217,213,0.864564,10.085,-0.05,9527
5.35207e-07,-4.84415e-09,-1.13784e-06,-0.000287743,-1.96548e-05,-0.0150326,21.2416,21.6189,0.48953,12.0766,23.1309,21.2416,-1.02243,23.2663,213,0.864564,10.5645,-0.025,9528
3.73732e-08,5.38953e-07,-1.13361e-06,-2.03848e-05,-0.000324194,-0.014953,21.6875,21.2599,0.671171,12.2033,23.382,21.2611,-1.02453,23.4182,213,8.20686,0.795696,-0.025,9529
2.11194e-07,-2.55357e-07,-7.61035e-07,-6.60239e-05,-2.55658e-05,-0.0152403,21.567,21.624,0.210644,11.6639,22.5827,21.5641,-0.745141,22.8356,213,1.65064,19.4388,-0.05,9530
2.71192e-07,-2.45008e-07,-7.77721e-07,-9.15394e-05,-4.18405e-05,-0.0152231,21.4908,21.5607,0.194496,11.989,22.8713,21.4815,-1.10681,23.3143,213,1.07263,19.0747,-0.05,9531
2.80691e-07,-2.81737e-07,-7.2963e-07,-9.90265e-05,-3.85501e-05,-0.0143967,22.8302,22.9153,2.70748,11.6613,24.4763,22.8229,1.15379,22.5413,213,0.578007,19.5459,-0.05,9532
2.1116e-07,-2.72697e-07,-7.57562e-07,8.86352e-05,9.75128e-05,-0.0151096,22.4553,22.4677,1.06508,11.7681,23.5459,22.4324,0.00973151,22.9997,213,1.15601,19.91,-0.05,9533
1.52361e-08,3.46166e-08,-7.69588e-07,-1.48933e-05,-1.4734e-05,-0.0153797,21.5118,21.512,-0.112852,10.8254,21.525,21.5119,-0.125892,21.6443,213,8.91996,7.79149,-0.05,9534
1.33937e-08,4.68132e-08,-7.69753e-07,-1.42068e-05,-2.13368e-05,-0.0153792,21.5038,21.4938,-0.121041,10.834,21.5252,21.4943,-0.142849,21.6526,213,9.04499,7.09489,-0.05,9535
2.62801e-08,3.47388e-08,-7.69796e-07,-1.53689e-05,-1.53037e-05,-0.0153833,21.5036,21.5037,-0.125363,10.8321,21.5216,21.5031,-0.142703,21.655,213,8.17991,7.77003,-0.05,9536
2.40339e-08,4.75152e-08,-7.69874e-07,-1.4592e-05,-2.13174e-05,-0.0153838,21.4952,21.4857,-0.135612,10.8405,21.5196,21.487,-0.161287,21.6646,213,8.30494,7.07344,-0.05,9537
3.79024e-08,-7.67557e-08,-7.69299e-07,-1.60862e-05,-2.84699e-05,-0.0153589,21.5197,21.5023,-0.0738965,10.8614,21.5837,21.5036,-0.13913,21.6829,213,7.36369,14.98,-0.05,9538
5.03992e-08,-9.81098e-08,-7.69037e-07,-1.90345e-05,-4.03451e-05,-0.0153609,21.4881,21.4581,-0.1041,10.9054,21.5962,21.4606,-0.214706,21.7434,213,6.6378,15.6798,-0.05,9539
2.96481e-08,-1.00992e-07,-7.68644e-07,-1.49238e-05,-3.28057e-05,-0.015352,21.5275,21.5024,-0.0579958,10.8926,21.627,21.5031,-0.158226,21.7236,213,7.8188,15.7029,-0.05,9540
3.99084e-08,-1.28876e-07,-7.72104e-07,-1.65836e-05,-4.34411e-05,-0.0154179,21.3969,21.3591,-0.278989,11.0017,21.5599,21.3607,-0.443561,21.9045,213,7.0929,16.4027,-0.05,9541
2.84647e-09,2.00488e-08,-7.69275e-07,-1.33222e-05,-1.47193e-05,-0.0153743,21.5255,21.5235,-0.0936559,10.8133,21.5292,21.5235,-0.0974062,21.6238,213,9.83668,8.77727,-0.05,9542
9.89381e-09,1.25691e-08,-7.6926e-07,-1.42762e-05,-1.2366e-05,-0.0153743,21.5264,21.5291,-0.0914733,10.8122,21.5305,21.5274,-0.0938271,21.6228,213,9.31696,9.33997,-0.05,9543
1.97688e-08,1.7762e-08,-7.69397e-07,-1.41781e-05,-1.23487e-05,-0.015377,21.5224,21.5249,-0.0993988,10.8183,21.5307,21.5231,-0.105859,21.6327,213,8.62056,8.93834,-0.05,9544
1.23394e-08,2.56022e-08,-7.69426e-07,-1.33404e-05,-1.51291e-05,-0.015377,21.5203,21.5178,-0.102584,10.8188,21.5276,21.5179,-0.109942,21.6327,213,9.14028,8.37564,-0.05,9545
-1.42462e-08,-2.19059e-07,-7.86047e-07,-9.84429e-06,-5.49265e-05,-0.0157149,20.9109,20.8475,-1.19245,11.481,21.3401,20.8476,-1.62178,22.7197,213,11.3723,18.0107,-0.05,9546
-2.6481e-08,-1.98605e-07,-7.87181e-07,-1.53207e-05,-6.08221e-05,-0.0157167,20.8815,20.8175,-1.2167,11.4058,21.2383,20.8173,-1.57327,22.604,213,12.3351,17.6695,-0.05,9547
-1.8522e-08,-1.62318e-07,-7.77366e-07,-1.19848e-05,-6.02265e-05,-0.0155213,21.2135,21.1456,-0.61443,11.1543,21.4536,21.146,-0.854922,22.1563,213,11.6732,17.0542,-0.05,9548
2.26464e-07,-1.92484e-08,-7.77239e-07,-6.62037e-05,-1.19432e-05,-0.0155082,21.1489,21.2253,-0.58425,11.3604,21.6809,21.1491,-1.03998,22.4597,213,2.73486,12.0089,-0.05,9549
3.10586e-07,-1.29562e-08,-8.00646e-07,-8.63016e-05,-1.11839e-05,-0.0158918,20.459,20.5647,-1.7858,11.9828,21.3722,20.459,-2.59331,23.5222,213,1.73099,11.5164,-0.05,9550
3.0864e-07,-2.47659e-08,-7.92366e-07,-2.36247e-05,-1.34848e-05,-0.0158081,20.7839,20.7981,-1.4313,11.9518,21.6353,20.7836,-2.2682,23.4892,213,1.73286,12.4538,-0.05,9551
-2.08985e-08,-2.52983e-07,-7.79984e-07,-1.40506e-05,-5.34e-05,-0.0155418,21.1847,21.1293,-0.669164,11.505,21.763,21.1289,-1.24706,22.6997,213,12.0342,18.6261,-0.05,9552
-3.52895e-08,-2.32356e-07,-7.86989e-07,-1.35112e-05,-6.10281e-05,-0.015712,20.8943,20.8275,-1.1999,11.5323,21.3791,20.8285,-1.68564,22.7944,213,12.997,18.2849,-0.05,9553
-3.57824e-08,6.95659e-08,-7.70379e-07,-1.7638e-05,-2.29218e-05,-0.0153918,21.4702,21.4627,-0.1675,10.8746,21.5257,21.4633,-0.223569,21.7181,213,12.5778,6.05051,-0.05,9554
-5.83981e-08,6.16082e-08,-7.70326e-07,-2.51653e-05,-2.56233e-05,-0.0153857,21.4527,21.4521,-0.165816,10.8761,21.5202,21.4507,-0.231901,21.7174,213,13.6816,6.33493,-0.05,9555
-4.60004e-08,4.84564e-08,-7.70053e-07,-1.97481e-05,-1.91681e-05,-0.0153852,21.4807,21.4815,-0.144813,10.8547,21.5238,21.4792,-0.18558,21.6871,213,13.0695,6.9805,-0.05,9556
-6.329e-08,2.9155e-07,-8.02226e-07,-2.05406e-05,-7.67989e-05,-0.0158886,20.557,20.4779,-1.77583,11.9466,21.3367,20.4789,-2.55652,23.4761,213,14.1283,1.84849,-0.05,9557
-8.15823e-08,3.42503e-07,-7.8147e-07,-2.6504e-05,-0.000113029,-0.0156694,20.8394,20.7176,-1.17656,11.9916,21.8186,20.7264,-2.16462,23.4562,213,14.7283,1.14503,-0.05,9558
-4.97262e-08,3.31228e-07,-7.97242e-07,-1.72844e-05,3.24608e-05,-0.0159031,20.7226,20.7926,-1.6353,12.1491,21.6942,20.7898,-2.60407,23.8589,213,13.4184,1.40691,-0.05,9559
-6.11341e-08,3.8947e-07,-7.45498e-07,-2.55269e-05,-0.000100022,-0.015053,21.8758,21.7709,0.725983,11.8091,23.1052,21.7804,-0.512934,22.9844,213,14.0183,0.703454,-0.05,9560
1.2097e-08,-2.78361e-08,-7.69464e-07,-1.28532e-05,-1.40848e-05,-0.0153792,21.5199,21.5182,-0.106811,10.8216,21.528,21.5185,-0.115163,21.6384,213,9.14492,12.5405,-0.05,9561
1.7408e-08,-3.94502e-08,-7.69455e-07,-1.40971e-05,-1.68704e-05,-0.0153766,21.5159,21.512,-0.105406,10.8275,21.5325,21.5124,-0.122424,21.6449,213,8.75502,13.2687,-0.05,9562
2.7448e-08,-2.90722e-08,-7.69677e-07,-1.70296e-05,-1.42301e-05,-0.0153812,21.5036,21.5076,-0.120078,10.8278,21.521,21.5048,-0.134619,21.6475,213,8.10502,12.6497,-0.05,9563
-1.33995e-08,-2.82843e-07,-7.51239e-07,-1.05031e-05,-2.12979e-05,-0.0150398,22.0725,22.0573,0.920189,11.3109,22.8072,22.0575,0.185306,22.2565,213,11.6609,19.3975,-0.05,9564
-7.56174e-09,-3.15154e-07,-7.42797e-07,-6.42669e-06,-9.5813e-05,-0.0148839,22.2186,22.0928,1.27992,11.2742,23.0235,22.0928,0.475035,22.0978,213,11.0175,20.0336,-0.05,9565
3.79033e-07,-9.79235e-09,-7.70422e-07,-0.000101371,-1.17256e-05,-0.0152701,21.433,21.5591,0.0843518,12.1595,22.9809,21.4337,-1.33814,23.5835,213,0.864564,11.0441,-0.05,9566
1.59025e-08,-8.34235e-09,-7.69317e-07,-1.46337e-05,-1.18249e-05,-0.015376,21.5234,21.5274,-0.0963504,10.8147,21.5301,21.5237,-0.0993226,21.6262,213,8.88632,11.0789,-0.05,9567
3.69853e-09,-4.63401e-09,-7.69184e-07,-1.32095e-05,-1.19679e-05,-0.015374,21.5309,21.5326,-0.08798,10.8105,21.5327,21.5311,-0.0883026,21.6202,213,9.77409,10.7769,-0.05,9568
6.89176e-09,-1.75085e-08,-7.69377e-07,-1.27536e-05,-1.36036e-05,-0.015377,21.5246,21.5234,-0.0991589,10.8151,21.5277,21.5235,-0.102398,21.628,213,9.53483,11.8123,-0.05,9569
1.03253e-07,-1.64903e-07,-7.80102e-07,-4.4194e-05,-5.37762e-05,-0.0155366,21.1007,21.0872,-0.703447,11.2407,21.4411,21.0837,-1.04036,22.3049,213,4.53204,17.2598,-0.05,9570
1.35043e-07,-1.25105e-07,-7.6911e-07,-5.34038e-05,-4.95211e-05,-0.0153462,21.3923,21.3978,-0.1308,11.0702,21.7066,21.3865,-0.433748,21.982,213,3.91843,16.4931,-0.05,9571
7.31937e-08,-1.52409e-07,-7.7585e-07,-2.60446e-05,-5.26653e-05,-0.015486,21.241,21.2036,-0.517395,11.1357,21.4964,21.2058,-0.775012,22.1276,213,5.50959,16.9835,-0.05,9572
9.62464e-08,-1.14887e-07,-7.67578e-07,-3.04887e-05,-4.61911e-05,-0.0153208,21.5094,21.4873,-0.0102816,10.9615,21.7096,21.4903,-0.213477,21.8143,213,4.89598,16.2167,-0.05,9573
3.24845e-08,1.51934e-07,-7.69286e-07,-1.55208e-05,-6.01485e-05,-0.015376,21.4414,21.3786,-0.177038,11.0266,21.658,21.3801,-0.39513,21.9155,213,7.64861,3.8549,-0.05,9574
3.54724e-08,1.1693e-07,-7.70358e-07,-1.85393e-05,-3.78129e-05,-0.0153757,21.4694,21.4423,-0.144346,10.9399,21.6017,21.4438,-0.278164,21.8014,213,7.49134,4.61308,-0.05,9575
8.71671e-08,5.23974e-08,-7.70147e-07,-2.8259e-05,-2.37095e-05,-0.0153841,21.4491,21.4555,-0.162819,10.9017,21.5478,21.4496,-0.255621,21.7545,213,5.38533,6.7153,-0.05,9576
7.77005e-08,7.62729e-08,-7.70742e-07,-2.74495e-05,-2.41035e-05,-0.0153929,21.4364,21.4411,-0.189063,10.9234,21.5497,21.4358,-0.297069,21.79,213,5.63995,5.72837,-0.05,9577
-4.53066e-08,6.54639e-09,-7.69118e-07,-1.80292e-05,-1.15586e-05,-0.0153718,21.5205,21.5296,-0.0885273,10.8281,21.5485,21.5206,-0.107616,21.6422,213,12.9673,9.82422,-0.05,9578
-6.36674e-08,1.30198e-08,-7.68329e-07,-2.50773e-05,-1.32239e-05,-0.0153545,21.5247,21.5414,-0.0499995,10.8332,21.5786,21.5252,-0.087753,21.6397,213,13.796,9.27283,-0.05,9579
-6.62568e-08,3.44385e-09,-7.68127e-07,-2.77426e-05,-1.13258e-05,-0.0153478,21.5305,21.5537,-0.0310848,10.8327,21.594,21.5305,-0.0714111,21.6337,213,13.8951,10.0731,-0.05,9580
-6.9736e-08,-2.06499e-07,-7.89862e-07,-2.57898e-05,-5.02841e-05,-0.0157881,20.7496,20.7151,-1.43441,11.5108,21.1694,20.7131,-1.85219,22.7969,213,14.6498,17.9211,-0.05,9581
-9.81713e-08,-2.15017e-07,-7.86943e-07,-3.27421e-05,-4.93555e-05,-0.0157486,20.7948,20.7715,-1.32376,11.5587,21.2952,20.7695,-1.82214,22.859,213,15.6777,18.2027,-0.05,9582
-6.6535e-08,-2.52484e-07,-7.74542e-07,-2.4884e-05,-3.58564e-05,-0.0154644,21.3075,21.2921,-0.422221,11.4724,21.9184,21.2854,-1.02642,22.635,213,14.8098,18.8691,-0.05,9583
-2.81452e-07,2.83201e-07,-8.20118e-07,-6.64807e-05,-6.2052e-05,-0.0165356,19.3789,19.3851,-3.79989,12.8756,20.6711,19.3731,-5.08011,25.1274,213,18.5707,1.54562,-0.05,9584
-3.09571e-07,3.11264e-07,-8.01378e-07,0.000124017,0.000113883,-0.0159712,21.1753,21.1611,-1.47723,12.9236,22.7711,21.1642,-3.07607,25.0823,213,19.0547,1.08451,-0.05,9585
-2.8345e-07,3.52449e-07,-7.64747e-07,-6.52654e-05,-0.000108078,-0.0150583,21.7327,21.6725,0.631463,12.592,23.7866,21.6474,-1.39732,24.1854,213,18.6637,0.542257,-0.05,9586
-5.12503e-08,-3.03598e-07,-7.44563e-07,-1.32902e-05,-9.06199e-05,-0.0148659,22.2357,22.1269,1.33206,11.2091,22.9912,22.1305,0.572964,22.0005,213,14.714,19.9846,-0.05,9587
-4.69193e-08,-2.7118e-07,-7.55449e-07,-1.50109e-05,-2.42365e-05,-0.0151337,21.8999,21.8869,0.621764,11.3328,22.5959,21.8824,-0.0697546,22.3175,213,14.1197,19.2777,-0.05,9588
-3.28331e-08,-2.896e-07,-7.46346e-07,-1.34186e-05,7.25452e-05,-0.0149051,22.4389,22.5599,1.48024,11.2571,23.2188,22.5556,0.70455,22.1901,213,13.4296,19.6862,-0.05,9589
-3.66046e-08,-3.26045e-07,-7.466e-07,-1.82095e-05,-8.55824e-05,-0.0148564,22.2446,22.1497,1.36111,11.2924,23.0927,22.1548,0.507882,22.1308,213,14.0239,20.3931,-0.05,9590
-9.81572e-09,-2.72046e-07,-7.68482e-07,-8.90424e-06,-3.16185e-05,-0.0153483,21.5539,21.522,-0.0348436,11.4544,22.214,21.5219,-0.694866,22.5708,213,11.0714,18.9673,-0.05,9591
-5.30129e-08,-4.41697e-09,-7.68956e-07,-2.45674e-05,-1.15687e-05,-0.0153651,21.5114,21.5297,-0.0789927,10.8302,21.5554,21.5115,-0.104863,21.6384,213,13.3341,10.7569,-0.05,9592
-3.49084e-08,-1.45596e-09,-7.69248e-07,-1.67798e-05,-1.19527e-05,-0.0153779,21.5136,21.5204,-0.105825,10.8239,21.5312,21.5136,-0.11656,21.6389,213,12.4063,10.5081,-0.05,9593
1.24472e-07,-8.58996e-08,-7.66576e-07,-4.67034e-05,-2.68924e-05,-0.0153013,21.5236,21.5515,0.0542566,10.9542,21.7547,21.5284,-0.153755,21.7962,213,4.28237,15.4499,-0.05,9594
2.37709e-07,-3.31321e-08,-7.77219e-07,-7.05888e-05,-1.69384e-05,-0.0155321,21.0882,21.1637,-0.672436,11.4263,21.6714,21.0893,-1.18128,22.5673,213,2.54211,13.0186,-0.05,9595
-6.07835e-08,2.36639e-08,-7.69085e-07,-2.40088e-05,-1.29172e-05,-0.0153669,21.508,21.5236,-0.0856941,10.843,21.5613,21.5092,-0.124613,21.6599,213,13.6969,8.47257,-0.05,9596
5.81745e-08,7.74847e-08,-7.70667e-07,-2.52289e-05,-2.48568e-05,-0.0153915,21.4443,21.4448,-0.182369,10.8996,21.5313,21.4433,-0.267828,21.7552,213,6.42684,5.71818,-0.05,9597
4.44446e-08,6.08409e-08,-7.70545e-07,-1.85096e-05,-2.58955e-05,-0.0153918,21.4626,21.4522,-0.173912,10.8693,21.5127,21.4541,-0.22588,21.7093,213,7.08916,6.39357,-0.05,9598
4.13723e-08,7.89563e-08,-7.70506e-07,-1.79754e-05,-2.69277e-05,-0.0153916,21.4628,21.4502,-0.174193,10.8904,21.5342,21.4512,-0.246637,21.7395,213,7.21373,5.70799,-0.05,9599
-5.13489e-09,-2.28198e-07,-7.86404e-07,-1.08253e-05,-5.39024e-05,-0.0157107,20.9164,20.8558,-1.17973,11.5108,21.3792,20.8558,-1.64247,22.7644,213,10.5661,18.1541,-0.05,9600
4.75733e-09,-2.20921e-07,-7.88571e-07,-1.00934e-05,-5.26079e-05,-0.0157481,20.8594,20.7995,-1.29043,11.5071,21.2916,20.7995,-1.72262,22.7722,213,9.57701,18.0391,-0.05,9601
-7.21241e-11,-1.81828e-07,-7.8202e-07,-1.09977e-05,-6.15808e-05,-0.0156138,21.0623,20.9911,-0.89722,11.2757,21.3582,20.9911,-1.19317,22.3701,213,10.0608,17.341,-0.05,9602
2.16424e-08,-1.89655e-08,-7.69525e-07,-1.64635e-05,-1.35405e-05,-0.0153788,21.5105,21.5146,-0.11056,10.8196,21.5212,21.5115,-0.118096,21.6344,213,8.49493,11.9214,-0.05,9603
-8.94749e-09,-1.72521e-07,-7.8048e-07,-1.11049e-05,-6.27596e-05,-0.0155661,21.1384,21.0657,-0.753849,11.2127,21.4049,21.0658,-1.02047,22.2578,213,10.867,17.1976,-0.05,9604
-3.87411e-07,-2.18987e-08,-7.61345e-07,-0.000121977,-1.12293e-05,-0.0153381,21.2594,21.4153,-0.155781,11.9242,22.5551,21.2571,-1.2933,23.2266,213,19.2336,11.9815,-0.05,9605
-2.84169e-07,-1.28917e-08,-7.91191e-07,-7.60424e-05,-1.29234e-05,-0.0157724,20.6835,20.7723,-1.40767,11.8006,21.4828,20.6838,-2.11844,23.212,213,18.107,11.5019,-0.05,9606
-3.05942e-07,-2.52803e-08,-7.88454e-07,-2.01593e-05,-1.46063e-05,-0.0157298,20.9211,20.9289,-1.18879,11.8809,21.7507,20.9216,-2.01109,23.3583,213,18.3671,12.4538,-0.05,9607
-6.26596e-08,1.33944e-07,-3.90655e-07,-1.89193e-05,-0.000224719,-0.0152835,21.3127,21.0231,-0.170748,11.7653,22.3148,21.066,-1.21573,22.9316,213,15.9942,0.832639,-0.075,9608
-1.44767e-07,3.51125e-07,-7.72606e-07,-4.84196e-05,-0.00017649,-0.0152379,21.3769,21.1966,-0.000844325,11.6047,22.2644,21.2532,-0.944911,22.7206,213,16.4511,0.832639,-0.05,9609
1.42716e-07,3.50871e-07,-7.66896e-07,-4.6413e-05,-0.000177535,-0.0152,21.4435,21.259,0.116304,11.591,22.3567,21.2872,-0.825171,22.6661,213,3.64893,0.832639,-0.05,9610
6.32905e-08,1.33799e-07,-3.90171e-07,-1.98222e-05,-0.000199883,-0.0152225,21.4508,21.1974,0.05442,11.7657,22.5064,21.2211,-1.0249,22.9157,213,4.10575,0.832639,-0.075,9611
3.93591e-08,-3.17918e-08,-7.69947e-07,-1.91077e-05,-1.46049e-05,-0.0153855,21.4897,21.496,-0.137034,10.8391,21.518,21.491,-0.160247,21.6647,213,7.39844,12.8371,-0.05,9612
5.88223e-08,-2.62914e-08,-7.701e-07,-2.09419e-05,-1.34051e-05,-0.0153905,21.4779,21.4885,-0.153291,10.8582,21.5254,21.4788,-0.191075,21.6932,213,6.47703,12.4845,-0.05,9613
5.9225e-08,-3.87192e-08,-7.70267e-07,-2.10713e-05,-1.92302e-05,-0.0153906,21.4677,21.4703,-0.163424,10.8631,21.5166,21.4675,-0.209581,21.7017,213,6.42045,13.291,-0.05,9614
3.96975e-08,-4.579e-08,-7.6993e-07,-1.97782e-05,-1.91257e-05,-0.0153837,21.4832,21.4841,-0.14003,10.8456,21.5177,21.4832,-0.173586,21.674,213,7.34187,13.6436,-0.05,9615
-1.3109e-07,8.12032e-08,-3.91223e-07,-0.000211007,-3.20225e-05,-0.0152351,21.1228,21.3747,-0.0222405,11.7743,22.4368,21.1502,-1.11175,22.9323,213,19.2303,3.37037,-0.075,9616
-3.52449e-07,1.37883e-07,-7.67397e-07,-0.000174861,-4.50106e-05,-0.015209,21.2547,21.4374,0.0955352,11.6095,22.3627,21.2814,-0.856415,22.6978,213,19.2303,3.84992,-0.05,9617
9.67695e-08,3.41929e-08,-7.69364e-07,-2.87081e-05,-1.47684e-05,-0.0153674,21.4899,21.5095,-0.097901,10.899,21.6043,21.491,-0.193795,21.7417,213,5.13071,7.70224,-0.05,9618
1.26483e-07,2.14597e-08,-7.66692e-07,-5.09455e-05,-1.24817e-05,-0.0153066,21.5257,21.5798,0.0548449,10.9106,21.7276,21.5265,-0.0936851,21.7214,213,4.40032,8.56192,-0.05,9619
1.3764e-07,3.47754e-08,-7.68396e-07,-5.6495e-05,-1.52403e-05,-0.0153439,21.4429,21.5009,-0.0728159,10.9706,21.6837,21.4447,-0.257403,21.8226,213,4.13576,7.6233,-0.05,9620
-3.07567e-08,4.69807e-08,-7.70017e-07,-1.80222e-05,-2.03945e-05,-0.015385,21.4843,21.4809,-0.143373,10.8423,21.5127,21.4812,-0.172008,21.6689,213,12.2173,7.07826,-0.05,9621
-3.93797e-08,1.96263e-07,-7.7241e-07,-1.68187e-05,-6.0437e-05,-0.0154154,21.3723,21.311,-0.29969,11.1936,21.7293,21.3122,-0.657916,22.1816,213,12.9374,3.10549,-0.05,9622
2.00141e-08,2.57963e-07,-7.86711e-07,-1.30395e-05,-8.19368e-05,-0.0156902,20.8972,20.8003,-1.16697,11.6154,21.4805,20.8005,-1.75043,22.8985,213,8.45432,2.36782,-0.05,9623
2.88702e-08,1.98485e-07,-7.74706e-07,-1.47601e-05,-6.46308e-05,-0.0154457,21.322,21.2518,-0.395552,11.2175,21.6805,21.2523,-0.754562,22.2241,213,7.86473,3.10725,-0.05,9624
3.3877e-07,-1.68644e-07,-7.82752e-07,-0.000169807,-5.71004e-05,-0.0154466,20.86,21.0187,-0.640625,11.7885,21.9751,20.8649,-1.60189,23.0419,213,0.872357,17.2666,-0.05,9625
-4.91751e-07,-2.19365e-07,-1.14695e-06,-0.000273176,-7.36173e-05,-0.0151554,20.9959,21.2768,0.0506,12.0654,22.7168,21.0206,-1.41403,23.329,213,19.2276,16.787,-0.025,9626
-3.40826e-07,-1.72018e-07,-7.65373e-07,-0.000149339,-5.26945e-05,-0.0153484,21.0909,21.2269,-0.300342,12.3768,22.8201,21.131,-1.93363,23.9539,213,19.2276,17.2666,-0.05,9627
1.36655e-07,-4.81462e-08,-7.6952e-07,-4.43019e-05,-1.82516e-05,-0.0153748,21.4244,21.4611,-0.151824,10.9999,21.6531,21.4273,-0.346733,21.8878,213,4.09011,13.9077,-0.05,9628
-2.85826e-08,9.6944e-09,-7.69243e-07,-1.64388e-05,-1.15641e-05,-0.0153736,21.5224,21.5292,-0.0914073,10.8186,21.5374,21.5226,-0.0997465,21.6297,213,12.0395,9.57535,-0.05,9629
-2.01521e-08,-4.69061e-08,-7.69597e-07,-1.38188e-05,-1.96151e-05,-0.0153795,21.5074,21.4992,-0.118486,10.8358,21.5301,21.4996,-0.141571,21.6564,213,11.5603,13.6744,-0.05,9630
-3.78269e-09,-4.99458e-08,-7.69379e-07,-1.2537e-05,-1.88699e-05,-0.0153744,21.521,21.5121,-0.0993953,10.8331,21.5439,21.5122,-0.122349,21.6504,213,10.3529,13.8132,-0.05,9631
-1.39304e-08,-6.61977e-08,-7.69196e-07,-1.34064e-05,-2.19653e-05,-0.0153696,21.5211,21.5091,-0.0912274,10.8478,21.5626,21.5095,-0.133089,21.6692,213,11.1312,14.5367,-0.05,9632
1.4407e-07,-1.75367e-07,-7.84339e-07,-5.61948e-05,-5.48759e-05,-0.0156463,20.8821,20.884,-1.05955,11.4329,21.349,20.8743,-1.51674,22.6321,213,3.55449,17.5362,-0.05,9633
-7.30429e-08,7.76591e-08,-7.7071e-07,-2.76524e-05,-2.87552e-05,-0.0153925,21.4288,21.4273,-0.195847,10.9165,21.5337,21.4259,-0.299359,21.7794,213,14.2936,5.68936,-0.05,9634
1.25276e-07,-9.65168e-08,-3.99515e-07,-0.000177906,-2.5492e-05,-0.015714,20.4482,20.6628,-1.41731,12.1427,21.7353,20.5086,-2.55017,23.6959,213,0.872357,17.7461,-0.075,9635
5.44091e-07,7.39719e-08,-1.1298e-06,-0.000351213,-2.83206e-05,-0.0149148,21.2274,21.6818,0.73053,12.162,23.3681,21.2274,-0.955778,23.3273,213,0.73835,6.87483,-0.025,9636
1.45224e-07,2.30332e-08,-3.88609e-07,-0.000238666,-9.80803e-06,-0.0150453,21.3866,21.7087,0.547522,11.6742,22.7967,21.3978,-0.551661,22.6813,213,0.73835,6.87483,-0.075,9637
-2.19073e-07,-2.08243e-08,-7.78709e-07,-8.22416e-05,-1.35718e-05,-0.0155466,21.0344,21.131,-0.730226,11.3633,21.5634,21.035,-1.16323,22.4671,213,17.302,12.1723,-0.05,9638
-2.35645e-07,-3.37428e-08,-7.78725e-07,-8.53383e-05,-1.53339e-05,-0.0155174,21.07,21.1685,-0.649201,11.4036,21.6625,21.0716,-1.1448,22.5177,213,17.5253,13.0898,-0.05,9639
-1.53206e-07,-1.80308e-08,-7.72126e-07,-5.02453e-05,-1.17054e-05,-0.0154168,21.3481,21.4024,-0.278861,11.0551,21.6167,21.3484,-0.493481,21.9773,213,16.237,11.8908,-0.05,9640
-1.64103e-07,-2.96741e-08,-7.72273e-07,-5.32373e-05,-1.30093e-05,-0.0154223,21.3278,21.3844,-0.302754,11.0927,21.6331,21.3288,-0.552433,22.0349,213,16.4603,12.8083,-0.05,9641
8.32312e-08,1.29208e-07,-3.89805e-07,-3.16006e-05,-0.000222955,-0.0152257,21.3719,21.1026,-0.0123119,11.7683,22.4325,21.1337,-1.104,22.9147,213,3.19212,0.832639,-0.075,9642
2.55254e-08,-2.73399e-07,-7.66632e-07,-1.19622e-05,-3.40991e-05,-0.015319,21.5887,21.5575,0.045426,11.4477,22.2652,21.5566,-0.630161,22.5494,213,7.57719,19.0683,-0.05,9643
7.08895e-08,-2.05084e-07,-7.88375e-07,-2.66447e-05,-5.15628e-05,-0.0157342,20.8334,20.7984,-1.27349,11.4701,21.2504,20.7976,-1.68977,22.7172,213,5.39977,17.9226,-0.05,9644
4.61756e-08,1.85573e-08,-7.69759e-07,-1.8009e-05,-1.20346e-05,-0.0153819,21.5032,21.5116,-0.120058,10.8382,21.5338,21.5037,-0.142712,21.6615,213,7.07258,8.84263,-0.05,9645
1.88993e-07,-1.25798e-07,-7.76821e-07,-5.90291e-05,-4.91803e-05,-0.0154832,21.1508,21.1647,-0.557237,11.3144,21.62,21.1471,-1.00879,22.3961,213,2.98865,16.5444,-0.05,9646
-3.76059e-08,-1.80056e-07,-7.83581e-07,-1.48034e-05,-5.09474e-05,-0.015609,21.0761,21.0253,-0.871269,11.2708,21.3724,21.0269,-1.16917,22.3708,213,13.017,17.395,-0.05,9647
-4.99293e-08,-1.92248e-07,-7.85244e-07,-2.37483e-05,-5.76316e-05,-0.0157003,20.8879,20.8402,-1.17545,11.3773,21.233,20.8413,-1.52164,22.5613,213,13.7434,17.629,-0.05,9648
-3.98714e-08,-1.33811e-07,-7.71824e-07,-1.6729e-05,-4.88406e-05,-0.0154113,21.3984,21.3532,-0.267978,11.0082,21.5724,21.3553,-0.444047,21.9087,213,13.037,16.5052,-0.05,9649
-5.39153e-08,-1.4288e-07,-7.72835e-07,-2.37679e-05,-5.00935e-05,-0.0154259,21.3508,21.3138,-0.32631,11.0482,21.5598,21.3149,-0.536497,21.9749,213,13.7634,16.7392,-0.05,9650
1.33838e-09,-3.19177e-08,-7.69475e-07,-1.31615e-05,-1.47543e-05,-0.0153784,21.5192,21.517,-0.105933,10.8221,21.5287,21.517,-0.115421,21.6383,213,9.94388,12.8127,-0.05,9651
6.30531e-09,-4.47348e-08,-7.69261e-07,-1.37532e-05,-1.75347e-05,-0.0153739,21.5202,21.5149,-0.0978077,10.8276,21.5388,21.5149,-0.116358,21.6432,213,9.55397,13.541,-0.05,9652
-4.46019e-08,-4.47637e-07,-1.11651e-06,-1.7565e-05,-0.000300786,-0.0147295,22.1015,21.7029,1.39581,11.6419,23.3898,21.7044,0.105989,22.4885,213,13.5671,20.3931,-0.025,9653
-1.42118e-08,-1.18134e-07,-3.7422e-07,-6.0623e-06,-0.000235418,-0.0148646,22.0221,21.6993,1.11006,11.2626,22.8274,21.7017,0.302306,21.9839,213,13.5671,20.3931,-0.075,9654
-4.01833e-09,-2.88172e-07,-7.49239e-07,-8.35906e-06,-2.62873e-05,-0.0149846,22.1615,22.1363,1.08389,11.3022,22.9251,22.136,0.32064,22.2204,213,10.4903,19.473,-0.05,9655
-3.34209e-09,-3.50056e-07,-7.47506e-07,-9.24838e-06,-9.78931e-05,-0.014887,22.2014,22.0767,1.26232,11.3999,23.1319,22.0764,0.332096,22.2908,213,10.4364,20.5393,-0.05,9656
1.32658e-09,-3.10996e-07,-7.42689e-07,-8.01193e-06,0.000115687,-0.0148333,22.6441,22.8182,1.7788,11.318,23.5294,22.8182,0.893507,22.2888,213,9.90917,19.9787,-0.05,9657
-1.02738e-07,2.8903e-08,-7.67904e-07,-4.18234e-05,-1.36896e-05,-0.015342,21.4933,21.5329,-0.0403211,10.8902,21.6355,21.4951,-0.144779,21.7104,213,15.1206,8.05521,-0.05,9658
-1.44826e-07,2.61924e-08,-7.69288e-07,-4.44977e-05,-1.33025e-05,-0.0153619,21.4532,21.4971,-0.104648,10.997,21.6929,21.4537,-0.300992,21.8753,213,16.0931,8.20541,-0.05,9659
-1.11079e-07,1.78348e-08,-7.66828e-07,-4.35368e-05,-1.30862e-05,-0.0153161,21.5316,21.5744,0.0368028,10.8842,21.6895,21.5322,-0.0789143,21.6902,213,15.3079,8.85484,-0.05,9660
-2.80357e-08,-3.30373e-08,-7.69725e-07,-1.53762e-05,-1.51518e-05,-0.015385,21.501,21.5013,-0.13025,10.8332,21.519,21.5004,-0.147383,21.6571,213,12.0503,12.8948,-0.05,9661
-3.97924e-08,-4.37937e-08,-7.70007e-07,-2.00479e-05,-1.85003e-05,-0.0153855,21.4804,21.4826,-0.145046,10.8455,21.514,21.481,-0.177031,21.6745,213,12.7677,13.5357,-0.05,9662
2.2956e-07,7.87022e-08,-7.76297e-07,-7.68294e-05,-2.62891e-05,-0.015485,21.1311,21.2023,-0.554418,11.4055,21.7265,21.137,-1.08446,22.522,213,2.5655,5.48394,-0.05,9663
-5.98008e-10,1.29205e-07,-7.6714e-07,-1.22873e-05,-4.06948e-05,-0.0153197,21.5757,21.5358,0.03203,10.923,21.7269,21.5358,-0.11914,21.7511,213,10.05,4.34406,-0.05,9664
-2.02128e-07,-1.00611e-08,-7.7742e-07,-7.24861e-05,-1.00213e-05,-0.01551,21.13,21.218,-0.596785,11.2751,21.5858,21.1298,-0.964372,22.3257,213,17.0419,11.2204,-0.05,9665
-1.20603e-08,-9.46134e-08,-7.68718e-07,-1.21692e-05,-3.74408e-05,-0.0153568,21.5204,21.4849,-0.0757102,10.8791,21.6013,21.4851,-0.156817,21.7003,213,11.0279,15.4952,-0.05,9666
-1.01769e-08,-1.30334e-07,-7.71366e-07,-1.15597e-05,-4.14449e-05,-0.0154028,21.4403,21.3982,-0.221408,10.984,21.5935,21.3982,-0.374557,21.871,213,10.9097,16.3922,-0.05,9667
-1.36271e-09,-1.0348e-07,-7.68144e-07,-1.17161e-05,-3.90515e-05,-0.0153434,21.5412,21.5027,-0.0366949,10.8866,21.6389,21.5027,-0.134356,21.7055,213,10.1462,15.7302,-0.05,9668
-2.15336e-08,-1.1906e-07,-7.70542e-07,-1.39493e-05,-3.72013e-05,-0.0154005,21.4437,21.411,-0.211339,10.962,21.578,21.4113,-0.345919,21.841,213,11.7914,16.1572,-0.05,9669
1.45074e-07,-1.78337e-09,-3.92213e-07,-0.000207841,-8.50649e-06,-0.0152161,21.2023,21.4829,0.0796398,11.6826,22.4639,21.2023,-0.901346,22.7607,213,0.864564,10.5645,-0.075,9670
-3.85763e-07,-7.16411e-08,-7.48402e-07,-0.000102699,-3.04224e-05,-0.0150822,21.7067,21.8084,0.624396,11.8201,23.0306,21.7186,-0.609698,23.0124,213,19.3417,14.7256,-0.05,9671
-1.42867e-07,-2.88346e-08,-3.8722e-07,-0.00023328,-1.19442e-05,-0.0150029,21.4692,21.7807,0.682272,11.632,22.8562,21.4839,-0.407889,22.6092,213,19.3417,14.246,-0.075,9672
-5.37732e-07,-9.08672e-08,-1.12671e-06,-0.000341481,-3.33555e-05,-0.0148517,21.3524,21.786,0.930577,12.092,23.4503,21.3524,-0.7337,23.2063,213,19.3417,14.246,-0.025,9673
-3.21899e-07,-5.49274e-08,-7.97403e-07,1.40892e-05,-1.81076e-05,-0.0159064,20.7299,20.6846,-1.67666,12.1,21.6056,20.7266,-2.59437,23.7727,213,18.5834,14.1057,-0.05,9674
-2.27854e-07,7.85046e-08,-7.76635e-07,-7.48088e-05,-2.66973e-05,-0.0154916,21.1257,21.1934,-0.572053,11.4011,21.7091,21.1311,-1.09315,22.5188,213,17.5229,5.4856,-0.05,9675
-2.8738e-07,1.18337e-07,-1.15685e-06,-0.00010112,-4.22923e-05,-0.0153636,21.23,21.3128,-0.250592,11.1628,21.6903,21.2371,-0.635275,22.1025,213,17.0109,5.47567,-0.025,9676
-3.2094e-07,2.56166e-07,-8.11134e-07,-9.05605e-05,-7.45424e-05,-0.01596,20.2301,20.2526,-2.10462,12.6971,21.7738,20.2247,-3.62044,24.6562,213,19.0933,1.96245,-0.05,9677
-3.52532e-07,2.909e-07,-7.62915e-07,-8.76653e-05,-6.55528e-05,-0.0150945,21.6747,21.7058,0.55392,12.5312,23.6705,21.6557,-1.39186,24.1182,213,19.5774,1.50135,-0.05,9678
3.18729e-07,2.56283e-07,-8.08335e-07,-9.18915e-05,-7.23367e-05,-0.0158825,20.3569,20.3845,-1.86681,12.6504,21.914,20.3474,-3.3868,24.555,213,1.00669,1.96245,-0.05,9679
3.55116e-07,2.93516e-07,-7.71145e-07,-8.27118e-05,-6.55082e-05,-0.0152561,21.4247,21.4489,0.0695758,12.6567,23.4283,21.4,-1.88509,24.3626,213,0.52265,1.50135,-0.05,9680
3.12948e-07,3.14776e-07,-8.07089e-07,0.000130152,0.00012057,-0.0160885,21.0124,20.9989,-1.81392,13.0402,22.6403,20.9972,-3.44005,25.2988,213,1.0453,1.08451,-0.05,9681
2.82406e-07,2.85735e-07,-8.10694e-07,-6.68513e-05,-6.45368e-05,-0.016358,19.6653,19.6686,-3.26297,12.7702,20.9754,19.6605,-4.56493,24.9089,213,1.52934,1.54562,-0.05,9682
-1.37042e-07,6.07746e-08,-3.89282e-07,-0.000188241,-1.88458e-05,-0.0152198,21.239,21.4775,0.0835332,11.7779,22.5482,21.2594,-1.00757,22.9385,213,19.2303,4.32947,-0.075,9683
-2.72127e-08,-2.69787e-07,-7.65354e-07,-1.4057e-05,-5.09952e-05,-0.0153032,21.5805,21.5285,0.0624111,11.428,22.2497,21.5281,-0.606396,22.504,213,12.6237,19.0563,-0.05,9684
6.02305e-08,1.65361e-07,-7.69087e-07,-2.7726e-05,-5.23275e-05,-0.0153053,21.5332,21.4985,0.0314248,11.0267,21.8083,21.5,-0.245139,21.9009,213,6.13649,3.55474,-0.05,9685
8.5927e-08,1.35578e-07,-7.69236e-07,-2.70744e-05,-4.89742e-05,-0.0153533,21.4618,21.431,-0.108502,11.0168,21.6913,21.4353,-0.342359,21.9068,213,5.26117,4.03922,-0.05,9686
2.51359e-07,2.55656e-08,-7.86402e-07,-8.49387e-05,-1.24476e-05,-0.0156597,20.8422,20.9442,-1.07791,11.5669,21.4998,20.8426,-1.63397,22.8123,213,2.409,8.13444,-0.05,9687
-7.90936e-08,5.40745e-07,-1.12718e-06,-2.876e-05,-0.000368656,-0.0148498,21.7585,21.2801,0.899264,12.2244,23.5508,21.2851,-0.898047,23.3984,213,13.5615,0.703454,-0.025,9688
-2.56696e-08,1.40971e-07,-3.8714e-07,-7.46389e-06,-0.000262207,-0.0150317,21.6995,21.341,0.55425,11.6971,22.8208,21.3474,-0.573422,22.6934,213,13.5615,0.703454,-0.075,9689
-1.87428e-07,1.31531e-08,-7.73308e-07,-6.35661e-05,-1.19858e-05,-0.0154368,21.2741,21.3467,-0.36227,11.1704,21.6625,21.2742,-0.678191,22.1491,213,16.8092,9.20711,-0.05,9690
-2.45219e-07,1.65726e-08,-7.83749e-07,-8.19395e-05,-1.20895e-05,-0.0156499,20.8681,20.9664,-1.04229,11.5382,21.5002,20.8682,-1.57625,22.7671,213,17.6046,8.9316,-0.05,9691
-2.23948e-07,5.26494e-09,-7.79133e-07,-7.51023e-05,-1.16101e-05,-0.0155384,21.0728,21.1621,-0.690398,11.3732,21.609,21.0728,-1.1373,22.483,213,17.328,9.87856,-0.05,9692
3.55351e-11,-2.63514e-07,-7.73068e-07,-9.47259e-06,-5.29193e-05,-0.0153746,21.4741,21.4129,-0.150899,11.441,22.1026,21.4129,-0.779422,22.5451,213,10.0823,18.8522,-0.05,9693
2.28059e-08,8.81522e-09,-7.69365e-07,-1.43829e-05,-1.26703e-05,-0.0153765,21.522,21.5244,-0.0987215,10.8169,21.5296,21.5222,-0.104116,21.63,213,8.42918,9.64196,-0.05,9694
4.51279e-08,2.61725e-07,-7.82877e-07,-2.01415e-05,-8.43463e-05,-0.01565,20.9377,20.8474,-1.05979,11.6237,21.5617,20.8494,-1.6858,22.8997,213,6.82894,2.22972,-0.05,9695
4.96108e-08,3.31137e-07,-7.95442e-07,-1.99228e-05,3.3908e-05,-0.0158668,20.7766,20.8524,-1.52638,12.1231,21.7496,20.8497,-2.49669,23.8091,213,6.64605,1.38917,-0.05,9696
3.14599e-08,2.56045e-07,-7.87359e-07,-1.3688e-05,-8.27015e-05,-0.0156889,20.8962,20.799,-1.1653,11.6156,21.4808,20.7996,-1.75047,22.8983,213,7.60141,2.33083,-0.05,9697
3.43356e-08,3.25194e-07,-7.97993e-07,-1.48707e-05,-7.41837e-05,-0.0159295,20.5116,20.4281,-1.88678,12.1193,21.4313,20.429,-2.80738,23.7534,213,7.41853,1.49028,-0.05,9698
4.12582e-08,1.98366e-07,-7.73581e-07,-1.53566e-05,-6.3347e-05,-0.0154383,21.3344,21.2668,-0.372021,11.2192,21.6998,21.268,-0.738619,22.2257,213,7.01182,3.07026,-0.05,9699
-7.59547e-09,1.47615e-09,-7.69151e-07,-1.34824e-05,-1.19348e-05,-0.015373,21.5317,21.5339,-0.0853555,10.8102,21.5344,21.5317,-0.0858974,21.619,213,10.6068,10.2587,-0.05,9700
4.62578e-10,7.67435e-09,-7.69156e-07,-1.34311e-05,-1.17437e-05,-0.015373,21.5322,21.5345,-0.085036,10.8101,21.5345,21.5327,-0.0855769,21.6192,213,10.0134,9.7416,-0.05,9701
-2.64433e-08,1.93826e-07,-7.7269e-07,-1.57937e-05,-5.97073e-05,-0.015413,21.3806,21.3188,-0.289588,11.1778,21.7231,21.3194,-0.6326,22.1566,213,12.1088,3.16387,-0.05,9702
-1.74827e-07,-4.44076e-08,-7.71029e-07,-6.07446e-05,-1.66088e-05,-0.0153901,21.3519,21.414,-0.222802,11.1095,21.7038,21.3545,-0.515257,22.0465,213,16.6836,13.7257,-0.05,9703
9.92049e-08,-2.15809e-07,-7.86688e-07,-3.27476e-05,-4.93859e-05,-0.0157568,20.7814,20.758,-1.34871,11.57,21.2881,20.7546,-1.85201,22.878,213,4.42222,18.199,-0.05,9704
6.66755e-08,-2.53039e-07,-7.73973e-07,-2.75638e-05,-3.4475e-05,-0.0154528,21.3207,21.311,-0.388884,11.4661,21.9357,21.3036,-0.99647,22.6227,213,5.28995,18.8617,-0.05,9705
1.94619e-08,-7.85808e-08,-7.68263e-07,-1.45082e-05,-2.94888e-05,-0.0153481,21.5406,21.5195,-0.0400702,10.85,21.6,21.52,-0.100024,21.6602,213,8.5447,15.0032,-0.05,9706
6.22501e-08,-7.47645e-08,-7.70297e-07,-2.21362e-05,-2.57882e-05,-0.0153856,21.4619,21.4567,-0.160837,10.898,21.549,21.4557,-0.246913,21.7494,213,6.18269,14.9568,-0.05,9707
-1.32063e-08,8.72828e-09,-7.69196e-07,-1.36868e-05,-1.20202e-05,-0.0153738,21.5296,21.5319,-0.0883925,10.8123,21.5339,21.5299,-0.0907157,21.6226,213,11.0264,9.65848,-0.05,9708
-1.97656e-08,1.60071e-08,-7.69275e-07,-1.45508e-05,-1.3499e-05,-0.0153745,21.5235,21.525,-0.0941594,10.8153,21.5306,21.5238,-0.10007,21.6273,213,11.4814,9.07333,-0.05,9709
-1.70523e-07,-8.77218e-08,-7.69659e-07,-6.8488e-05,-3.1824e-05,-0.0153487,21.3712,21.4228,-0.134252,11.1051,21.746,21.378,-0.464284,22.0286,213,16.7027,15.5214,-0.05,9710
-1.88388e-07,-1.24706e-07,-7.76502e-07,-7.03103e-05,-3.67619e-05,-0.0154597,21.1753,21.2225,-0.483879,11.3013,21.6665,21.1834,-0.935983,22.3648,213,17.1059,16.5562,-0.05,9711
-2.35718e-07,-8.96682e-08,-7.82172e-07,-7.17904e-05,-3.00011e-05,-0.0156009,20.9501,21.0089,-0.90574,11.522,21.5725,20.9524,-1.47162,22.7404,213,17.6663,15.5762,-0.05,9712
-2.58937e-09,-7.24125e-08,-7.68682e-07,-1.17665e-05,-3.19429e-05,-0.0153533,21.5364,21.508,-0.0553605,10.844,21.5846,21.508,-0.103524,21.6499,213,10.2496,14.7717,-0.05,9713
-4.89166e-08,-2.42666e-07,-7.82367e-07,-2.14091e-05,-5.1478e-05,-0.0157138,20.8831,20.8408,-1.20242,11.5873,21.4287,20.8386,-1.74583,22.8852,213,13.9034,18.577,-0.05,9714
8.44006e-08,1.86455e-07,-7.6621e-07,-2.63652e-05,-5.86838e-05,-0.0153007,21.5344,21.4889,0.0371954,11.1273,21.9104,21.4944,-0.344251,22.0496,213,5.24885,3.16171,-0.05,9715
6.76416e-08,-1.07581e-07,-7.68866e-07,-2.68607e-05,-4.47252e-05,-0.0153478,21.4784,21.4533,-0.0844488,10.9254,21.6209,21.4563,-0.22997,21.769,213,5.84614,15.9702,-0.05,9716
2.45574e-07,-4.78079e-08,-7.79219e-07,-8.4657e-05,-1.59129e-05,-0.0155727,20.9803,21.0771,-0.817631,11.5056,21.6336,20.9837,-1.37762,22.6933,213,2.42638,13.8279,-0.05,9717
2.08595e-07,-6.23455e-08,-7.75619e-07,-7.72178e-05,-2.72931e-05,-0.0154728,21.1483,21.2186,-0.51956,11.2845,21.6325,21.1514,-0.936548,22.3324,213,2.88709,14.5679,-0.05,9718
2.79389e-07,-6.79189e-08,-7.90627e-07,-8.09039e-05,-2.92796e-05,-0.0158456,20.5217,20.5943,-1.66568,11.8415,21.3048,20.5236,-2.37814,23.3022,213,1.96211,14.8125,-0.05,9719
3.22774e-07,-5.40643e-08,-8.00284e-07,1.86209e-05,-1.78873e-05,-0.0159636,20.6501,20.5988,-1.84331,12.1416,21.5197,20.6494,-2.76347,23.8599,213,1.50141,14.0725,-0.05,9720
4.92353e-08,-2.41964e-07,-7.83035e-07,-1.69653e-05,-5.87662e-05,-0.0156193,21.0398,20.981,-0.919075,11.5165,21.5771,20.9804,-1.45581,22.7404,213,6.19558,18.5422,-0.05,9721
5.17225e-08,-1.90884e-07,-7.87801e-07,-1.80375e-05,-5.79774e-05,-0.0157332,20.8507,20.7945,-1.26694,11.4047,21.1957,20.7961,-1.61361,22.6122,213,6.3054,17.6031,-0.05,9722
3.87766e-08,-2.01248e-08,-7.69857e-07,-1.88575e-05,-1.34804e-05,-0.0153846,21.4938,21.5014,-0.132002,10.8337,21.5179,21.4947,-0.149444,21.6558,213,7.45502,12.0306,-0.05,9723
8.25047e-08,-2.97046e-07,-7.39914e-07,-2.36783e-05,-0.000167247,-0.0148458,22.1113,21.9092,1.25055,11.023,22.6983,21.9204,0.652393,21.6674,213,3.65897,20.2967,-0.05,9724
4.6669e-08,-1.07225e-07,-3.73862e-07,-1.80827e-05,-0.000213432,-0.014867,22.0178,21.7428,1.11933,11.146,22.7098,21.7523,0.417864,21.8289,213,3.20215,20.2967,-0.075,9725
5.98067e-08,2.24987e-07,-7.75859e-07,-2.6564e-05,-8.08209e-05,-0.0154539,21.2459,21.1695,-0.466635,11.3382,21.7261,21.173,-0.950311,22.405,213,6.12418,2.67723,-0.05,9726
7.52747e-09,-6.29558e-08,-7.68771e-07,-1.35152e-05,-2.6468e-05,-0.0153568,21.5344,21.5161,-0.0599119,10.833,21.5701,21.5163,-0.0958526,21.6391,213,9.44881,14.4082,-0.05,9727
1.84182e-08,-5.69168e-08,-7.68957e-07,-1.446e-05,-2.54354e-05,-0.0153642,21.521,21.5056,-0.0823169,10.8337,21.5526,21.5063,-0.114686,21.6442,213,8.64986,14.136,-0.05,9728
-2.42195e-08,-8.63248e-08,-7.69216e-07,-1.52344e-05,-3.31406e-05,-0.0153663,21.5025,21.4773,-0.102782,10.8755,21.5749,21.4783,-0.176145,21.7029,213,11.9095,15.2601,-0.05,9729
-8.427e-08,-8.39908e-08,-7.68032e-07,-3.6429e-05,-3.08422e-05,-0.0153122,21.5306,21.5385,0.0313875,10.8803,21.6645,21.532,-0.0960767,21.6947,213,14.7343,15.3511,-0.05,9730
-1.20494e-07,-8.64046e-08,-7.66929e-07,-3.85358e-05,-3.26397e-05,-0.0153086,21.5271,21.5354,0.0358364,10.9504,21.7366,21.5259,-0.164206,21.7962,213,15.7391,15.4667,-0.05,9731
-9.18599e-08,-1.1606e-07,-7.67683e-07,-3.89237e-05,-3.75255e-05,-0.015321,21.4976,21.4996,-0.0104565,10.9564,21.7025,21.4945,-0.210232,21.8095,213,15.1144,16.2199,-0.05,9732
-5.9836e-08,-2.12371e-08,-7.69634e-07,-2.12737e-05,-1.26932e-05,-0.0153841,21.4884,21.5005,-0.133358,10.8534,21.5366,21.4891,-0.170141,21.683,213,13.6691,12.1061,-0.05,9733
-4.08766e-08,-2.64913e-08,-7.69878e-07,-1.96828e-05,-1.35665e-05,-0.0153839,21.4923,21.5009,-0.13145,10.837,21.5211,21.4936,-0.152953,21.6603,213,12.7704,12.4882,-0.05,9734
-4.14007e-08,-1.25027e-08,-7.69474e-07,-1.99768e-05,-1.25803e-05,-0.0153769,21.5044,21.5148,-0.109085,10.8287,21.5313,21.505,-0.126191,21.6444,213,12.7731,11.4408,-0.05,9735
2.25882e-08,8.53519e-08,-7.69639e-07,-1.43622e-05,-2.75191e-05,-0.0153765,21.4977,21.4792,-0.123044,10.8823,21.5694,21.4798,-0.195327,21.7201,213,8.35769,5.50819,-0.05,9736
1.08022e-08,9.13278e-08,-7.69024e-07,-1.30517e-05,-2.89053e-05,-0.01537,21.5101,21.4878,-0.103303,10.8829,21.5863,21.4879,-0.179591,21.7169,213,9.19395,5.34369,-0.05,9737
2.34628e-08,1.16436e-07,-7.68236e-07,-1.3529e-05,-3.86551e-05,-0.0153435,21.5362,21.5008,-0.0393208,10.9157,21.6636,21.5019,-0.167825,21.751,213,8.28541,4.63955,-0.05,9738
2.11576e-08,1.50925e-07,-7.66318e-07,-1.36579e-05,-5.99083e-05,-0.0152854,21.5962,21.5311,0.102645,10.9584,21.8073,21.5321,-0.109524,21.7806,213,8.50153,3.89189,-0.05,9739
3.60516e-08,-1.13127e-07,-3.73885e-07,-1.11514e-05,-0.000188442,-0.014877,22.0634,21.8138,1.14099,11.2137,22.8112,21.8232,0.383855,21.95,213,4.11579,20.2967,-0.075,9740
-4.4309e-08,2.60012e-07,-7.80267e-07,-1.88193e-05,-8.63017e-05,-0.0156013,21.0185,20.9235,-0.912457,11.5816,21.6335,20.9256,-1.52964,22.8175,213,13.1779,2.2562,-0.05,9741
2.92029e-08,-6.04731e-08,-7.69253e-07,-1.52416e-05,-2.58668e-05,-0.0153688,21.5104,21.4955,-0.0982676,10.8445,21.5498,21.4969,-0.139092,21.6625,213,7.94328,14.3234,-0.05,9742
5.22795e-09,3.42604e-08,-7.69478e-07,-1.29529e-05,-1.45997e-05,-0.0153778,21.521,21.5187,-0.103595,10.8233,21.532,21.5187,-0.114579,21.6399,213,9.66001,7.81294,-0.05,9743
2.18935e-08,6.23024e-08,-7.70003e-07,-1.50844e-05,-2.36546e-05,-0.0153851,21.4877,21.4757,-0.144127,10.8554,21.5268,21.4764,-0.183945,21.6856,213,8.42997,6.37684,-0.05,9744
6.19007e-08,3.90317e-07,-7.42685e-07,-2.60445e-05,-0.000101875,-0.0149917,21.9718,21.8651,0.90902,11.7748,23.2103,21.8749,-0.339272,22.9111,213,6.06394,0.694585,-0.05,9745
2.57787e-08,1.41288e-07,-3.85539e-07,-8.27516e-06,-0.00026807,-0.014985,21.7641,21.3984,0.685671,11.6702,22.8918,21.405,-0.448605,22.6337,213,6.52075,0.694585,-0.075,9746
7.93891e-08,5.41629e-07,-1.12384e-06,-2.93842e-05,-0.000377218,-0.0148,21.8244,21.3348,1.03616,12.2068,23.6345,21.34,-0.779123,23.3511,213,6.52075,0.694585,-0.025,9747
-5.03875e-09,-2.05163e-08,-7.69371e-07,-1.33612e-05,-1.32351e-05,-0.0153783,21.5213,21.5215,-0.103434,10.8164,21.5254,21.5213,-0.107314,21.6307,213,10.4338,12.0331,-0.05,9748
8.89421e-08,-7.95584e-08,-7.67999e-07,-3.81645e-05,-2.77369e-05,-0.0153354,21.4922,21.5069,-0.0372047,10.8996,21.6325,21.496,-0.166599,21.7312,213,5.23253,15.2034,-0.05,9749
-7.01909e-08,-1.52149e-07,-7.74238e-07,-2.56997e-05,-5.56025e-05,-0.0154539,21.2899,21.2479,-0.423821,11.1086,21.5397,21.2516,-0.677412,22.0745,213,14.4897,16.9732,-0.05,9750
-3.19119e-09,2.83758e-08,-7.69359e-07,-1.32556e-05,-1.57079e-05,-0.0153757,21.5218,21.5183,-0.0994742,10.818,21.5292,21.5183,-0.10684,21.6306,213,10.2916,8.19212,-0.05,9751
3.5324e-08,9.30633e-09,-7.69586e-07,-1.87458e-05,-1.24527e-05,-0.0153788,21.5054,21.5142,-0.112444,10.8252,21.526,21.5057,-0.124529,21.6404,213,7.65519,9.59411,-0.05,9752
3.21953e-08,1.81457e-08,-7.69575e-07,-1.82728e-05,-1.22664e-05,-0.0153789,21.507,21.5154,-0.111638,10.8253,21.5266,21.5082,-0.124048,21.6415,213,7.84657,8.89048,-0.05,9753
-1.33069e-08,8.39528e-08,-7.70094e-07,-1.28037e-05,-2.74843e-05,-0.015392,21.477,21.4564,-0.167812,10.8861,21.5407,21.4565,-0.231605,21.7303,213,11.0943,5.58418,-0.05,9754
-9.01538e-09,5.70622e-08,-7.69897e-07,-1.27998e-05,-2.47523e-05,-0.0153824,21.4973,21.4805,-0.133935,10.846,21.5276,21.4808,-0.164465,21.6687,213,10.7338,6.61193,-0.05,9755
-8.46928e-10,7.10195e-08,-7.6979e-07,-1.29245e-05,-2.68061e-05,-0.0153803,21.497,21.4775,-0.131173,10.8602,21.5431,21.4775,-0.177247,21.6876,213,10.1025,6.04783,-0.05,9756
-1.44873e-07,1.52472e-08,-7.68218e-07,-4.44058e-05,-1.27323e-05,-0.01534,21.4903,21.5349,-0.0367825,10.978,21.7269,21.4906,-0.229034,21.8387,213,16.0586,9.03098,-0.05,9757
-1.21544e-07,-3.69578e-08,-7.70857e-07,-3.71111e-05,-1.52352e-05,-0.0153924,21.4224,21.4532,-0.18877,10.9681,21.5997,21.4235,-0.336372,21.8485,213,15.6243,13.2486,-0.05,9758
-5.91528e-08,-3.66561e-08,-7.70296e-07,-2.12792e-05,-1.78281e-05,-0.0153924,21.4664,21.4712,-0.167073,10.863,21.5147,21.467,-0.211257,21.7022,213,13.6664,13.1535,-0.05,9759
-8.38862e-08,-3.02891e-08,-7.70206e-07,-3.47386e-05,-1.5382e-05,-0.0153861,21.4397,21.467,-0.165904,10.8881,21.5378,21.4414,-0.23842,21.7282,213,14.565,12.7714,-0.05,9760
2.55312e-07,3.84286e-08,-7.88399e-07,-7.16357e-05,-1.73489e-05,-0.0156886,20.8272,20.9036,-1.15225,11.6019,21.4774,20.8276,-1.72646,22.8859,213,2.30876,7.29019,-0.05,9761
2.12925e-07,5.31316e-08,-7.74953e-07,-6.69514e-05,-1.79092e-05,-0.0155128,21.1294,21.1984,-0.609137,11.3165,21.6103,21.1311,-1.02274,22.3973,213,2.85316,6.51416,-0.05,9762
-8.29793e-08,2.53422e-07,-7.82562e-07,-2.84871e-05,-7.09906e-05,-0.0156085,21.0023,20.9425,-0.925062,11.5959,21.6334,20.9447,-1.55835,22.8552,213,14.8383,2.29006,-0.05,9763
-1.74572e-08,-2.35452e-08,-7.69476e-07,-1.39872e-05,-1.40508e-05,-0.0153782,21.5181,21.5181,-0.1056,10.8196,21.5258,21.5183,-0.113457,21.6355,213,11.3328,12.2539,-0.05,9764
-1.67341e-08,-1.35964e-08,-7.6932e-07,-1.38958e-05,-1.22986e-05,-0.0153763,21.5244,21.5266,-0.0968173,10.8157,21.5305,21.5247,-0.100981,21.6286,213,11.2666,11.5148,-0.05,9765
-2.8528e-08,-1.79408e-08,-7.6953e-07,-1.76125e-05,-1.31903e-05,-0.0153789,21.5075,21.5137,-0.112066,10.8228,21.5231,21.5085,-0.122433,21.6382,213,12.053,11.8473,-0.05,9766
5.85894e-08,-1.63648e-08,-7.69856e-07,-2.08905e-05,-1.29663e-05,-0.0153844,21.4887,21.4999,-0.134043,10.8503,21.5331,21.4891,-0.167575,21.6787,213,6.52276,11.7616,-0.05,9767
-3.15376e-07,3.01708e-08,-7.9547e-07,-8.90995e-05,-1.24604e-05,-0.0158722,20.4806,20.5885,-1.73257,12.0077,21.4354,20.4811,-2.57995,23.5527,213,18.5001,7.84054,-0.05,9768
2.03122e-07,-2.38164e-07,-7.77698e-07,-7.06774e-05,-3.50846e-05,-0.0155147,21.0866,21.1367,-0.649489,11.7548,21.9988,21.0857,-1.5107,23.0665,213,2.14526,18.9677,-0.05,9769
6.94985e-08,-6.9215e-09,-7.69353e-07,-2.5811e-05,-1.12656e-05,-0.0153731,21.4951,21.5156,-0.104764,10.8547,21.5601,21.4951,-0.149335,21.677,213,6.07515,10.9554,-0.05,9770
8.30954e-08,-1.30654e-08,-7.69398e-07,-3.31936e-05,-1.12053e-05,-0.0153714,21.4755,21.5064,-0.111624,10.8734,21.5705,21.476,-0.176213,21.6996,213,5.59049,11.4926,-0.05,9771
4.44691e-08,3.92665e-07,-7.47547e-07,-1.70983e-05,-0.000134718,-0.0150464,21.8554,21.6898,0.703054,11.7649,23.0456,21.6869,-0.484245,22.8808,213,6.97757,0.694585,-0.05,9772
1.15082e-07,-1.36858e-08,-7.68504e-07,-3.58376e-05,-1.08688e-05,-0.0153572,21.4913,21.5264,-0.0720898,10.9241,21.651,21.4918,-0.197149,21.769,213,4.66367,11.5283,-0.05,9773
-5.41714e-10,9.66116e-08,-7.69484e-07,-1.27084e-05,-2.98771e-05,-0.0153753,21.5009,21.4767,-0.120518,10.8956,21.5858,21.4767,-0.205405,21.7369,213,10.0763,5.19595,-0.05,9774
2.82642e-08,-1.40734e-07,-7.7221e-07,-1.41448e-05,-5.31769e-05,-0.0154543,21.3285,21.2736,-0.402106,11.0477,21.5105,21.2745,-0.585007,21.9785,213,7.81933,16.6246,-0.05,9775
8.19912e-08,1.02455e-07,-7.70811e-07,-2.80645e-05,-3.91841e-05,-0.015388,21.418,21.4023,-0.199672,10.9638,21.5713,21.4058,-0.356404,21.8454,213,5.45056,4.8838,-0.05,9776
6.34166e-08,9.41551e-08,-7.70611e-07,-2.2173e-05,-3.66889e-05,-0.0153871,21.4414,21.421,-0.183323,10.9286,21.5559,21.4244,-0.301229,21.7917,213,6.16861,5.1575,-0.05,9777
-2.44241e-07,2.62547e-08,-7.87326e-07,-8.30967e-05,-1.20521e-05,-0.0156925,20.7947,20.8947,-1.17406,11.5655,21.4256,20.7952,-1.70546,22.8224,213,17.6391,8.10604,-0.05,9778
-4.49787e-08,3.92797e-07,-7.48538e-07,-1.69469e-05,-0.000140132,-0.015067,21.8131,21.6398,0.631596,11.7296,22.9542,21.6352,-0.504912,22.8282,213,13.1046,0.703454,-0.05,9779
-2.84186e-08,-1.48112e-07,-7.73733e-07,-1.57628e-05,-5.08368e-05,-0.0154851,21.2769,21.2275,-0.494778,11.0875,21.478,21.2287,-0.697079,22.0515,213,12.3551,16.7797,-0.05,9780
8.60532e-09,-9.02332e-08,-7.67736e-07,-1.33085e-05,-3.15879e-05,-0.0153348,21.5627,21.537,-0.000855855,10.8569,21.6378,21.5371,-0.0760396,21.6637,213,9.34547,15.3667,-0.05,9781
1.16469e-07,2.03943e-07,-7.71087e-07,-4.65129e-05,-6.53291e-05,-0.0153792,21.3332,21.3067,-0.246172,11.2771,21.8199,21.3081,-0.734281,22.3027,213,4.33204,2.8634,-0.05,9782
8.37877e-08,2.53728e-07,-7.82209e-07,-2.6399e-05,-7.84331e-05,-0.0156015,21.008,20.9347,-0.912527,11.5962,21.6422,20.9383,-1.55025,22.8486,213,5.23654,2.28419,-0.05,9783
-8.57161e-08,-2.01254e-08,-7.69231e-07,-3.45477e-05,-1.22167e-05,-0.0153681,21.475,21.5065,-0.105563,10.8759,21.5759,21.4761,-0.176008,21.7022,213,14.5908,12.0452,-0.05,9784
-5.79023e-08,2.23755e-07,-7.75163e-07,-2.61441e-05,-7.50108e-05,-0.0154485,21.2656,21.1968,-0.4399,11.3276,21.7387,21.2003,-0.916527,22.3909,213,13.8879,2.69778,-0.05,9785
-8.31429e-08,1.88581e-07,-7.67712e-07,-3.15682e-05,-7.50777e-05,-0.0153068,21.4815,21.4203,-0.0169754,11.128,21.857,21.4268,-0.399035,22.0441,213,14.8172,3.15244,-0.05,9786
-1.15148e-07,2.03318e-07,-7.71368e-07,-3.46956e-05,-7.79617e-05,-0.0153608,21.3786,21.3177,-0.191497,11.267,21.856,21.3268,-0.677958,22.2741,213,15.7554,2.86633,-0.05,9787
-3.38298e-07,-9.17662e-08,-7.76485e-07,-0.000112974,-2.97217e-05,-0.0155608,20.8907,21.0079,-0.850669,11.9116,21.9841,20.9028,-1.83899,23.3013,213,18.8832,15.4608,-0.05,9788
-7.89539e-09,1.57765e-07,-7.66849e-07,-1.20266e-05,-5.65194e-05,-0.0153229,21.5453,21.4827,-0.00331466,10.9993,21.7702,21.483,-0.228491,21.8565,213,10.6651,3.78315,-0.05,9789
7.06485e-08,5.52743e-09,-7.6885e-07,-2.98179e-05,-1.19538e-05,-0.0153623,21.4995,21.5246,-0.0795843,10.848,21.5705,21.4995,-0.125467,21.6605,213,6.02918,9.88546,-0.05,9790
9.96543e-08,4.76647e-09,-7.67494e-07,-3.40694e-05,-1.17278e-05,-0.0153336,21.534,21.5655,0.00137702,10.8713,21.6547,21.5341,-0.0879484,21.6826,213,5.10012,9.93243,-0.05,9791
-3.1436e-07,-3.9681e-08,-7.89244e-07,-8.49418e-05,-1.62791e-05,-0.0157874,20.6262,20.7228,-1.4736,11.9614,21.5854,20.6276,-2.33753,23.4587,213,18.4753,13.2798,-0.05,9792
4.01041e-08,-1.04559e-10,-7.69637e-07,-2.10318e-05,-1.09791e-05,-0.015379,21.5003,21.5145,-0.114637,10.8293,21.5292,21.5003,-0.129355,21.6441,213,7.39881,10.3819,-0.05,9793
5.77394e-08,-6.19893e-10,-7.69494e-07,-2.33731e-05,-1.12763e-05,-0.0153762,21.4974,21.5144,-0.110319,10.8428,21.5449,21.4974,-0.140801,21.662,213,6.55982,10.4182,-0.05,9794
5.17521e-08,8.79093e-09,-7.69536e-07,-1.89607e-05,-1.24117e-05,-0.0153778,21.5064,21.5156,-0.109783,10.838,21.5409,21.5064,-0.135048,21.6587,213,6.8162,9.63041,-0.05,9795
3.16817e-07,-3.89139e-08,-7.96432e-07,-8.27974e-05,-1.90281e-05,-0.0158167,20.5802,20.6699,-1.56384,11.9906,21.5428,20.5817,-2.43827,23.5153,213,1.61713,13.2632,-0.05,9796
1.14952e-07,4.68918e-08,-7.68664e-07,-4.24522e-05,-2.11862e-05,-0.0153508,21.4646,21.4946,-0.0804841,10.9271,21.6328,21.4673,-0.22136,21.7719,213,4.60816,6.93972,-0.05,9797
1.14874e-07,-1.99551e-09,-7.6731e-07,-4.19542e-05,-1.13432e-05,-0.0153266,21.5221,21.5652,0.0104224,10.8979,21.6858,21.5221,-0.110126,21.7145,213,4.7017,10.5121,-0.05,9798
8.21228e-08,-1.26507e-09,-7.68468e-07,-2.68534e-05,-1.1567e-05,-0.0153567,21.5184,21.5399,-0.0569271,10.8608,21.6023,21.5184,-0.119358,21.6798,213,5.63076,10.4651,-0.05,9799
-1.84404e-07,-2.12807e-09,-7.72583e-07,-7.16048e-05,-1.12282e-05,-0.0154175,21.2826,21.3676,-0.315265,11.149,21.6752,21.2826,-0.622865,22.1044,213,16.7299,10.4843,-0.05,9800
8.08888e-08,3.44266e-07,-7.79951e-07,-2.84662e-05,-0.000109973,-0.0155844,20.978,20.8633,-0.915523,11.9563,21.9849,20.8687,-1.92779,23.3746,213,5.35918,1.1421,-0.05,9801
-4.8495e-08,-6.12992e-08,-7.70018e-07,-2.1527e-05,-2.07833e-05,-0.0153861,21.4711,21.4722,-0.153099,10.8687,21.5289,21.4697,-0.208471,21.7079,213,13.2486,14.3856,-0.05,9802
-5.70866e-08,-8.29419e-08,-7.69518e-07,-2.21036e-05,-2.78886e-05,-0.0153694,21.4852,21.4771,-0.114642,10.8927,21.5785,21.4761,-0.206941,21.7344,213,13.7296,15.2355,-0.05,9803
-3.86738e-08,-8.47238e-08,-7.69164e-07,-1.63735e-05,-3.10458e-05,-0.0153598,21.5132,21.4926,-0.0811794,10.8736,21.5892,21.4934,-0.157971,21.6994,213,12.8195,15.2478,-0.05,9804
1.94991e-07,3.52487e-08,-7.73788e-07,-6.47106e-05,-1.71516e-05,-0.015444,21.2503,21.3173,-0.39461,11.2061,21.6667,21.2518,-0.745467,22.2076,213,3.14081,7.54437,-0.05,9805
8.46433e-09,-3.0654e-07,-7.44857e-07,-8.43174e-06,-3.19606e-05,-0.0148694,22.3411,22.308,1.42569,11.2922,23.1755,22.3081,0.591189,22.1633,213,8.98116,19.9463,-0.05,9806
4.12602e-09,-3.47355e-07,-7.4416e-07,-7.12295e-06,-0.000139736,-0.0148883,22.1372,21.9506,1.1934,11.2969,22.9625,21.9501,0.368604,22.1051,213,9.52276,20.5393,-0.05,9807
5.20119e-09,-2.87838e-07,-7.52652e-07,-9.13079e-06,-5.03912e-05,-0.0150556,22.0031,21.945,0.826644,11.3459,22.7608,21.9449,0.0690485,22.295,213,9.50118,19.3579,-0.05,9808
1.08908e-08,1.22488e-07,-7.67095e-07,-1.31068e-05,-4.14671e-05,-0.0153174,21.5757,21.5357,0.0362639,10.9077,21.7135,21.5359,-0.101791,21.7271,213,9.1677,4.4918,-0.05,9809
-6.324e-08,-4.9574e-08,-7.70474e-07,-2.19886e-05,-1.87532e-05,-0.0153966,21.4559,21.4604,-0.182461,10.8799,21.5188,21.4561,-0.241011,21.7285,213,13.8624,13.8766,-0.05,9810
3.88409e-07,-5.02772e-08,-7.49821e-07,-0.000137215,-2.00883e-05,-0.015131,21.5384,21.7032,0.436032,11.7621,22.8338,21.5342,-0.690411,22.9021,213,0.750703,13.7499,-0.05,9811
3.19382e-07,2.92533e-08,-7.98905e-07,-8.63913e-05,-1.28343e-05,-0.0159252,20.4013,20.5048,-1.89029,12.063,21.3701,20.4017,-2.75596,23.6567,213,1.57694,7.88026,-0.05,9812
-8.24553e-08,2.07377e-08,-7.67558e-07,-2.72043e-05,-1.40613e-05,-0.0153356,21.5478,21.5663,0.00256376,10.8485,21.6327,21.5482,-0.0642484,21.6548,213,14.5024,8.66371,-0.05,9813
-8.63887e-08,1.04922e-08,-7.66875e-07,-2.9312e-05,-1.16185e-05,-0.0153222,21.5674,21.5923,0.0441566,10.8433,21.6615,21.5675,-0.0251674,21.6398,213,14.6015,9.46397,-0.05,9814
2.57075e-08,3.5808e-10,-7.69366e-07,-1.46493e-05,-1.13448e-05,-0.0153765,21.5234,21.5281,-0.0969306,10.8186,21.5341,21.5234,-0.10298,21.6318,213,8.2378,10.3456,-0.05,9815
1.05996e-07,1.16566e-07,-7.70569e-07,-4.15136e-05,-3.52381e-05,-0.0153834,21.391,21.3998,-0.201288,11.0256,21.6249,21.3909,-0.426271,21.9351,213,4.69954,4.46543,-0.05,9816
1.01203e-07,8.72332e-08,-7.70771e-07,-4.09004e-05,-3.22204e-05,-0.0153906,21.3859,21.3981,-0.217385,10.9682,21.5574,21.3883,-0.379032,21.8523,213,4.88893,5.31001,-0.05,9817
1.31054e-07,9.94517e-08,-7.70141e-07,-4.57381e-05,-3.20977e-05,-0.0153715,21.4028,21.422,-0.166731,11.0387,21.6654,21.4047,-0.412037,21.9483,213,4.13792,4.89164,-0.05,9818
-1.48067e-07,-1.4495e-08,-3.95249e-07,-0.000195289,-5.71807e-06,-0.0153352,21.0496,21.3164,-0.258383,11.8457,22.3759,21.0472,-1.31545,23.0557,213,19.2336,12.461,-0.075,9819
-5.38962e-07,-4.00363e-08,-1.14809e-06,-0.00028973,-1.89203e-05,-0.0152103,20.9451,21.3262,-0.0542045,12.2365,22.8709,20.9484,-1.60221,23.5707,213,19.2336,12.461,-0.025,9820
1.86507e-08,-1.10411e-07,-7.68207e-07,-1.41216e-05,-3.50167e-05,-0.0153466,21.5352,21.5058,-0.0438636,10.9048,21.6504,21.506,-0.159218,21.7378,213,8.54523,15.9249,-0.05,9821
4.57103e-08,9.60578e-08,-7.7005e-07,-2.03507e-05,-3.72554e-05,-0.0153819,21.4547,21.4309,-0.165227,10.9114,21.5549,21.4335,-0.268015,21.7625,213,6.95549,5.14731,-0.05,9822
-1.82672e-08,2.50336e-07,-7.81417e-07,-1.34598e-05,-8.65456e-05,-0.0155932,21.0477,20.9448,-0.879453,11.5197,21.6037,20.945,-1.43571,22.7172,213,11.5936,2.43061,-0.05,9823
3.52974e-08,-2.67184e-07,-7.7064e-07,-1.47812e-05,-3.28691e-05,-0.0153751,21.4899,21.4645,-0.128318,11.4554,22.1371,21.4627,-0.773697,22.5811,213,6.88508,18.9693,-0.05,9824
4.63385e-08,-2.71799e-07,-7.55307e-07,-1.53733e-05,-2.1745e-05,-0.0151602,21.8592,21.8503,0.544286,11.3608,22.5648,21.8458,-0.1568,22.3708,213,5.97944,19.2888,-0.05,9825
3.22762e-08,-2.90978e-07,-7.47633e-07,-1.35162e-05,7.5438e-05,-0.014931,22.4009,22.5261,1.40592,11.2809,23.1862,22.5221,0.624539,22.2371,213,6.66893,19.7159,-0.05,9826
-8.87539e-08,-4.18253e-08,-7.70533e-07,-3.52384e-05,-1.61659e-05,-0.0153954,21.4217,21.4485,-0.196313,10.909,21.534,21.4239,-0.283985,21.7631,213,14.7611,13.4944,-0.05,9827
-1.28762e-07,-2.2488e-07,-7.88129e-07,-4.17454e-05,-4.19188e-05,-0.0156013,21.0214,21.0211,-0.87733,11.5414,21.6217,21.0045,-1.46105,22.7804,213,16.4911,18.5148,-0.05,9828
-8.33668e-08,-2.59258e-07,-7.55592e-07,-3.55929e-05,-3.64473e-05,-0.0150475,21.9586,21.9573,0.830706,11.2177,22.6167,21.9486,0.181342,22.1089,213,15.6232,19.1813,-0.05,9829
-3.1775e-08,-1.07983e-07,-7.70094e-07,-1.51938e-05,-3.58947e-05,-0.0153815,21.4732,21.4441,-0.153431,10.9278,21.5873,21.4449,-0.268316,21.7848,213,12.4733,15.8827,-0.05,9830
-1.44063e-07,-1.75232e-07,-7.8367e-07,-5.32131e-05,-6.09669e-05,-0.0156334,20.9025,20.8916,-1.02519,11.4241,21.3652,20.8867,-1.48299,22.6127,213,16.5455,17.5362,-0.05,9831
2.5069e-07,2.55948e-07,-8.01334e-07,-8.00811e-05,-7.29402e-05,-0.0159711,20.2464,20.2565,-2.11875,12.2708,21.3399,20.246,-3.2017,24.0133,213,2.01339,2.00672,-0.05,9832
3.63206e-08,4.03761e-08,-7.69952e-07,-1.88268e-05,-1.7452e-05,-0.015384,21.4883,21.4902,-0.136764,10.8403,21.5168,21.4887,-0.163717,21.6665,213,7.57225,7.42459,-0.05,9833
1.37302e-07,4.27748e-09,-7.65971e-07,-4.62334e-05,-1.13466e-05,-0.0153045,21.5453,21.5944,0.0707577,10.9354,21.768,21.5453,-0.102828,21.7603,213,4.18582,9.96686,-0.05,9834
2.29704e-08,2.5733e-08,-7.69606e-07,-1.56319e-05,-1.5536e-05,-0.0153798,21.5081,21.5083,-0.115469,10.8226,21.5191,21.5081,-0.126234,21.6398,213,8.40023,8.35418,-0.05,9835
8.44889e-08,-2.61382e-07,-7.62922e-07,-2.93255e-05,-2.73174e-05,-0.0151592,21.8093,21.8121,0.515415,11.3302,22.4971,21.8031,-0.163364,22.3215,213,4.47668,19.1776,-0.05,9836
-7.59559e-08,-3.88598e-09,-7.67866e-07,-2.76248e-05,-1.15474e-05,-0.0153439,21.537,21.5596,-0.0193353,10.8418,21.6119,21.537,-0.071646,21.6462,213,14.2558,10.696,-0.05,9837
9.81558e-08,-7.5165e-09,-7.6846e-07,-3.25201e-05,-1.1476e-05,-0.0153496,21.5129,21.5425,-0.0444836,10.8798,21.6287,21.5131,-0.13092,21.7021,213,5.1461,11.0024,-0.05,9838
-3.81522e-08,3.79876e-08,-7.69876e-07,-1.88772e-05,-1.86503e-05,-0.0153837,21.4867,21.487,-0.137935,10.8388,21.5134,21.4865,-0.16411,21.6641,213,12.6442,7.56783,-0.05,9839
-9.1663e-08,1.22841e-09,-7.66565e-07,-3.01246e-05,-1.14701e-05,-0.015316,21.5753,21.6016,0.0618434,10.8477,21.6795,21.5753,-0.0160178,21.6436,213,14.754,10.2459,-0.05,9840
1.28274e-07,-2.24721e-07,-7.87489e-07,-4.38893e-05,-4.11864e-05,-0.0156184,20.9881,20.9919,-0.931531,11.5569,21.5946,20.973,-1.51916,22.8093,213,3.60894,18.5148,-0.05,9841
-9.38912e-08,-5.54173e-08,-7.70433e-07,-3.61273e-05,-2.03305e-05,-0.0153876,21.4249,21.4472,-0.180809,10.921,21.5529,21.4274,-0.289084,21.7795,213,14.9572,14.2174,-0.05,9842
1.33984e-07,7.94776e-08,-7.68725e-07,-4.79992e-05,-3.08446e-05,-0.0153457,21.4403,21.4644,-0.0898103,10.9923,21.6776,21.4444,-0.307114,21.869,213,4.11177,5.53442,-0.05,9843
-2.80885e-07,-2.80172e-07,-7.30863e-07,-0.000117578,-3.83881e-05,-0.0143469,22.8557,22.9671,2.82921,11.7285,24.632,22.8451,1.17492,22.6166,213,19.522,19.5459,-0.05,9844
-1.87734e-07,5.0323e-07,-1.1395e-06,-6.00182e-05,-0.000269131,-0.0150142,21.5566,21.2623,0.509888,12.0658,23.0968,21.2668,-1.03479,23.2706,213,15.9942,0.832639,-0.025,9845
1.41939e-07,2.89864e-07,-8.0074e-07,-5.33028e-05,4.79049e-05,-0.0159638,20.5386,20.681,-1.85394,12.1129,21.4725,20.6464,-2.75331,23.8235,213,3.64332,1.66528,-0.05,9846
1.86268e-07,5.02636e-07,-1.13805e-06,-6.23707e-05,-0.000296544,-0.0150002,21.5275,21.198,0.503986,12.1152,23.1215,21.2169,-1.10893,23.3365,213,4.10575,0.832639,-0.025,9847
-1.94159e-07,1.12151e-07,-7.74965e-07,-6.02832e-05,-4.63456e-05,-0.0154549,21.198,21.2176,-0.468495,11.2863,21.6604,21.1989,-0.912166,22.3454,213,17.0977,4.4641,-0.05,9848
-1.61552e-07,1.60686e-07,-7.69657e-07,-5.53109e-05,-4.94132e-05,-0.01535,21.3804,21.3887,-0.14543,11.2332,21.8571,21.3758,-0.609244,22.2296,213,16.6725,3.4426,-0.05,9849
-1.46488e-07,1.2934e-07,-7.70016e-07,-5.77131e-05,-4.8457e-05,-0.015363,21.3534,21.3664,-0.187378,11.1211,21.7109,21.3528,-0.531339,22.0654,213,16.3428,4.11253,-0.05,9850
-1.32692e-07,-7.37784e-08,-3.93044e-07,-0.000196835,-2.44785e-05,-0.0153317,21.0198,21.2624,-0.281084,11.7607,22.2326,21.0573,-1.28881,22.9563,213,19.2276,16.787,-0.075,9851
-2.85146e-07,1.35508e-07,-7.98266e-07,3.74001e-05,-5.06151e-05,-0.0159151,20.7333,20.6094,-1.7183,12.0421,21.5022,20.7042,-2.58204,23.6953,213,18.3605,3.86348,-0.05,9852
-4.89435e-07,2.43951e-07,-1.13891e-06,-0.000258387,-8.67653e-05,-0.0149874,21.2951,21.5367,0.56536,12.0353,23.066,21.3358,-1.00467,23.2539,213,19.2303,3.37037,-0.025,9853
-3.04881e-08,2.51983e-07,-7.81782e-07,-1.49775e-05,-8.66833e-05,-0.0155773,21.069,20.9681,-0.833436,11.5231,21.6405,20.9688,-1.40568,22.7178,213,12.4222,2.37224,-0.05,9854
-2.4652e-08,-3.26684e-07,-7.42266e-07,-9.56082e-06,-0.000147388,-0.0148433,22.1911,21.9971,1.31403,11.1696,22.9236,21.9943,0.584342,21.8894,213,13.1102,20.3931,-0.05,9855
-6.01282e-09,3.98301e-08,-7.69604e-07,-1.33067e-05,-1.59315e-05,-0.0153803,21.5137,21.51,-0.113858,10.8284,21.5282,21.5101,-0.128488,21.6477,213,10.5126,7.49448,-0.05,9856
4.67192e-07,-2.95135e-07,-1.1694e-06,-0.000276598,-7.8516e-05,-0.0154323,20.5228,20.8016,-0.8074,12.3665,22.3377,20.5744,-2.39517,23.9001,213,0.872357,17.7461,-0.025,9857
2.18295e-07,1.45496e-07,-7.82137e-07,-6.42852e-05,-5.13188e-05,-0.0154957,21.1106,21.1289,-0.607677,11.4667,21.7281,21.1089,-1.20522,22.6301,213,2.58352,3.65304,-0.05,9858
2.01985e-07,2.03839e-07,-7.73849e-07,-6.35872e-05,-6.36432e-05,-0.0154568,21.1565,21.1564,-0.507945,11.5543,21.8833,21.1469,-1.22523,22.7493,213,2.72046,2.72466,-0.05,9859
2.71321e-07,1.86403e-07,-7.87807e-07,-7.28503e-05,-7.62891e-05,-0.0161457,19.9762,19.9714,-2.64492,12.1993,20.8675,19.9662,-3.53102,23.9606,213,1.87644,2.9351,-0.05,9860
2.50098e-07,4.87517e-07,-1.13698e-06,-9.01258e-05,-0.000265744,-0.0149422,21.5887,21.3415,0.68578,12.0213,23.1365,21.3855,-0.906043,23.2166,213,3.19212,0.832639,-0.025,9861
-3.57142e-08,-2.66644e-07,-7.70726e-07,-1.24633e-05,-3.34531e-05,-0.0153673,21.5089,21.4794,-0.101513,11.4517,22.1563,21.4776,-0.747133,22.5717,213,13.2133,18.9855,-0.05,9862
-2.0457e-07,-6.36776e-08,-7.75581e-07,-7.31118e-05,-2.71273e-05,-0.0154429,21.2102,21.2749,-0.421392,11.25,21.6744,21.2147,-0.82547,22.2736,213,17.1749,14.651,-0.05,9863
-1.03237e-07,-2.66858e-07,-7.45166e-07,-3.19296e-05,3.85725e-05,-0.0148729,22.3796,22.4788,1.49233,11.2206,23.1816,22.4288,0.740335,22.0745,213,16.4366,19.4934,-0.05,9864
-1.17791e-07,8.17195e-09,-7.6618e-07,-4.02213e-05,-1.23394e-05,-0.0152903,21.5853,21.6245,0.122158,10.875,21.7483,21.5855,-0.00182018,21.6692,213,15.4604,9.63674,-0.05,9865
1.94846e-07,1.12668e-07,-7.74525e-07,-6.24907e-05,-4.50022e-05,-0.0154457,21.2087,21.2333,-0.441672,11.2812,21.6761,21.2106,-0.88634,22.3333,213,2.99652,4.46327,-0.05,9866
1.72828e-07,8.75445e-08,-7.69516e-07,-5.41076e-05,-3.05263e-05,-0.01536,21.3987,21.4319,-0.142894,11.1289,21.7717,21.4021,-0.486145,22.0754,213,3.35171,5.18779,-0.05,9867
-2.08872e-07,5.26535e-08,-7.76087e-07,-6.45223e-05,-1.77301e-05,-0.015542,21.0891,21.1549,-0.694019,11.3216,21.5512,21.0909,-1.09207,22.4166,213,17.2006,6.52079,-0.05,9868
-2.72364e-07,5.812e-08,-7.94152e-07,-8.65606e-05,-2.2137e-05,-0.0157476,20.677,20.7676,-1.36456,11.7545,21.4546,20.68,-2.05452,23.1315,213,18.0616,6.25529,-0.05,9869
2.0223e-07,-1.66129e-07,-7.93198e-07,-6.15475e-05,-5.47137e-05,-0.0157904,20.6296,20.6392,-1.50728,11.6651,21.2309,20.63,-2.09933,23.0356,213,2.6496,17.4029,-0.05,9870
1.03056e-07,-2.66576e-07,-7.44679e-07,-4.12087e-05,9.53329e-05,-0.0148637,22.4596,22.6518,1.59832,11.2064,23.2613,22.5999,0.848572,22.0894,213,3.6634,19.4934,-0.05,9871
-2.01882e-07,2.0379e-07,-7.77316e-07,-7.70479e-05,-7.91169e-05,-0.0154507,21.1,21.0971,-0.53696,11.5483,21.8337,21.0894,-1.26297,22.7337,213,17.3795,2.72466,-0.05,9872
-1.50549e-07,2.19956e-07,-7.73176e-07,-4.92962e-05,-7.91857e-05,-0.0154403,21.2017,21.1596,-0.459671,11.4589,21.8266,21.1662,-1.09114,22.5948,213,16.5646,2.55394,-0.05,9873
1.8875e-07,2.73097e-07,-8.00721e-07,-5.7691e-05,-8.10663e-05,-0.0158725,20.4632,20.4303,-1.79469,12.075,21.4059,20.4369,-2.74406,23.6804,213,2.82835,1.836,-0.05,9874
-5.07048e-07,1.78979e-07,-1.13825e-06,-0.00028733,-5.96004e-05,-0.0150046,21.2233,21.5438,0.510146,12.1061,23.1243,21.2407,-1.08776,23.3274,213,19.2303,4.32947,-0.025,9875
-7.64916e-08,3.23283e-08,-7.69292e-07,-2.60752e-05,-1.41139e-05,-0.0153689,21.4965,21.5133,-0.0970864,10.8668,21.5742,21.4979,-0.159383,21.6955,213,14.315,7.86407,-0.05,9876
-9.49258e-08,4.18741e-08,-7.69543e-07,-3.75133e-05,-1.7636e-05,-0.0153706,21.4531,21.4811,-0.126775,10.9007,21.5764,21.4559,-0.224916,21.7413,213,14.9332,7.25558,-0.05,9877
2.4693e-08,-3.28336e-07,-7.42941e-07,-8.96251e-06,-0.000138051,-0.0148661,22.1707,21.989,1.26059,11.2373,22.9539,21.987,0.479353,22.0071,213,6.98901,20.4079,-0.05,9878
1.42637e-08,-1.17971e-07,-3.74847e-07,-5.9751e-06,-0.000243313,-0.014879,21.9858,21.6518,1.05335,11.2765,22.7948,21.6543,0.241841,22.0049,213,6.53219,20.4079,-0.075,9879
4.47298e-08,-4.48879e-07,-1.11761e-06,-1.74269e-05,-0.000310712,-0.0147417,22.0657,21.653,1.34274,11.6644,23.3678,21.6546,0.0389932,22.5212,213,6.53219,20.4079,-0.025,9880
-2.01052e-07,-1.67208e-07,-7.88625e-07,-7.49771e-05,-5.37395e-05,-0.0158196,20.5422,20.5721,-1.61693,11.6977,21.1727,20.5473,-2.22265,23.089,213,17.4504,17.4029,-0.05,9881
1.44914e-07,-4.06362e-07,-1.11619e-06,-5.17013e-05,-0.000210706,-0.0147524,22.1078,21.884,1.41785,11.4014,23.158,21.8965,0.355197,22.1989,213,3.20215,20.2967,-0.025,9882
5.38806e-07,-8.915e-08,-1.12744e-06,-0.000329527,-3.51313e-05,-0.0148143,21.4473,21.8617,1.06138,12.0702,23.5253,21.4602,-0.61512,23.177,213,0.750703,14.2294,-0.025,9883
1.4226e-07,-2.99934e-08,-3.87488e-07,-0.000253728,-1.22012e-05,-0.0150634,21.307,21.6469,0.463754,11.6748,22.7301,21.3071,-0.619518,22.6716,213,0.750703,14.2294,-0.075,9884
-2.75056e-08,-8.62617e-09,-7.69387e-07,-1.53181e-05,-1.19219e-05,-0.0153769,21.5197,21.5245,-0.100322,10.82,21.532,21.5199,-0.108052,21.634,213,11.9867,11.1083,-0.05,9885
-1.51286e-08,1.91432e-07,-7.7086e-07,-1.1941e-05,-5.94555e-05,-0.0153873,21.4349,21.368,-0.204507,11.1504,21.7655,21.3682,-0.535273,22.1048,213,11.2803,3.22224,-0.05,9886
1.10778e-07,-4.22298e-07,-1.11698e-06,-3.64534e-05,-0.00024234,-0.0147483,22.1091,21.8193,1.40348,11.5141,23.2706,21.8189,0.242456,22.3377,213,4.11579,20.2967,-0.025,9887
-1.06383e-07,1.18787e-07,-7.69999e-07,-3.38821e-05,-4.43667e-05,-0.0153602,21.4373,21.4225,-0.133076,11.0129,21.6633,21.4259,-0.362445,21.908,213,15.4046,4.39864,-0.05,9888
-1.33179e-07,1.03097e-07,-7.70016e-07,-5.07607e-05,-3.46522e-05,-0.0153688,21.3877,21.4104,-0.170917,11.0453,21.6625,21.3929,-0.428153,21.9571,213,16.0131,4.78246,-0.05,9889
-2.40312e-08,3.66135e-08,-7.69762e-07,-1.56199e-05,-1.62562e-05,-0.0153831,21.5016,21.5007,-0.126648,10.8319,21.5195,21.5004,-0.144222,21.6542,213,11.792,7.66559,-0.05,9890
-1.1479e-07,-1.5167e-08,-7.68302e-07,-3.56725e-05,-1.13999e-05,-0.0153562,21.4926,21.5267,-0.0696115,10.922,21.6503,21.493,-0.193627,21.7657,213,15.4268,11.6048,-0.05,9891
-8.67561e-08,-1.13995e-08,-7.68046e-07,-3.42906e-05,-1.21195e-05,-0.015344,21.5157,21.5469,-0.0312939,10.859,21.6166,21.516,-0.101324,21.6678,213,14.6166,11.3189,-0.05,9892
-2.17266e-07,1.45886e-07,-7.78589e-07,-8.04228e-05,-4.36265e-05,-0.0154834,21.0943,21.1461,-0.583872,11.467,21.7425,21.1055,-1.19145,22.6222,213,17.5165,3.65304,-0.05,9893
3.16248e-08,9.60268e-08,-7.69969e-07,-1.71048e-05,-3.20998e-05,-0.0153802,21.4758,21.4547,-0.146309,10.9039,21.568,21.456,-0.239839,21.7521,213,7.74957,5.17377,-0.05,9894
1.5035e-07,2.22295e-07,-7.806e-07,-5.37567e-05,-6.47107e-05,-0.0155003,21.1133,21.0978,-0.626321,11.4954,21.7402,21.0953,-1.25071,22.6753,213,3.53543,2.55394,-0.05,9895
1.6153e-07,1.60675e-07,-7.70213e-07,-5.61314e-05,-5.73565e-05,-0.0153601,21.3483,21.3466,-0.19059,11.2382,21.8199,21.3409,-0.656492,22.2408,213,3.42753,3.4426,-0.05,9896
-1.0709e-07,2.75776e-07,-8.00071e-07,-4.18315e-05,-7.41236e-05,-0.0162418,19.9166,19.8711,-2.88342,12.1165,20.6309,19.8753,-3.60196,23.8641,213,15.6475,1.97767,-0.05,9897
1.75794e-07,-2.09873e-07,-7.93392e-07,-7.02168e-05,-4.16753e-05,-0.0158281,20.5626,20.6028,-1.61518,11.7622,21.2559,20.5628,-2.26843,23.1855,213,2.84987,18.2519,-0.05,9898
1.46107e-07,-2.50017e-07,-7.55254e-07,-4.67756e-05,-3.89037e-05,-0.0151294,21.7859,21.797,0.558479,11.3896,22.5746,21.7714,-0.204578,22.3884,213,2.90433,19.2305,-0.05,9899
-8.34773e-08,5.80422e-08,-7.70304e-07,-2.97192e-05,-2.4493e-05,-0.0153837,21.444,21.4514,-0.165256,10.9006,21.543,21.4454,-0.258288,21.7527,213,14.6134,6.47247,-0.05,9900
-1.24503e-07,-9.75974e-10,-7.66665e-07,-4.04252e-05,-1.12763e-05,-0.0153114,21.5519,21.5929,0.0594608,10.9077,21.7339,21.5519,-0.0815122,21.725,213,15.6129,10.4186,-0.05,9901
-1.758e-08,4.55321e-08,-7.69878e-07,-1.3554e-05,-2.00216e-05,-0.0153842,21.4998,21.4907,-0.132996,10.8377,21.5207,21.4915,-0.154759,21.6609,213,11.3651,7.17602,-0.05,9902
1.09418e-07,2.73443e-07,-8.01457e-07,-4.11354e-05,-7.58419e-05,-0.0158687,20.5285,20.4797,-1.74737,11.9003,21.29,20.4815,-2.51068,23.4069,213,4.43993,1.97474,-0.05,9903
-2.57829e-07,-1.19202e-07,-7.9403e-07,-7.84634e-05,-4.71395e-05,-0.0160911,20.0966,20.1407,-2.43972,11.9586,20.8065,20.1018,-3.11074,23.5728,213,18.0108,16.4229,-0.05,9904
-1.75773e-07,-2.09215e-07,-7.93316e-07,-6.66142e-05,-4.28078e-05,-0.0158187,20.5872,20.6208,-1.58231,11.7562,21.2761,20.5857,-2.23618,23.1748,213,17.2501,18.2519,-0.05,9905
1.77303e-07,6.94087e-08,-7.68927e-07,-5.67906e-05,-2.49747e-05,-0.0153525,21.4119,21.4567,-0.115451,11.1154,21.785,21.4138,-0.445692,22.0475,213,3.32556,5.83057,-0.05,9906
-2.58223e-07,1.04156e-07,-7.94724e-07,-7.94891e-05,-3.9641e-05,-0.0157217,20.7125,20.7686,-1.30242,11.7066,21.4369,20.718,-1.97629,23.0622,213,17.9417,4.67454,-0.05,9907
2.44148e-07,-2.02633e-07,-8.06969e-07,-6.59882e-05,-4.58029e-05,-0.0163666,19.6845,19.7129,-3.25714,12.2963,20.5298,19.6731,-4.06269,24.1756,213,1.94499,18.1186,-0.05,9908
-1.0617e-07,-6.95527e-08,-7.69031e-07,-4.20395e-05,-2.74843e-05,-0.0153547,21.4492,21.4697,-0.101877,10.9289,21.6109,21.453,-0.246897,21.7793,213,15.3481,14.8421,-0.05,9909
-2.52284e-08,-2.93578e-07,-7.45626e-07,-1.11844e-05,-1.59015e-05,-0.0149012,22.3069,22.3003,1.3506,11.2827,23.1127,22.2979,0.547227,22.1693,213,12.84,19.7569,-0.05,9910
-1.58029e-08,-4.65076e-09,-7.69189e-07,-1.44556e-05,-1.2015e-05,-0.0153735,21.5278,21.5313,-0.0885517,10.8124,21.5337,21.5279,-0.0910352,21.6218,213,11.2003,10.7758,-0.05,9911
-9.95953e-08,7.05879e-08,-7.70166e-07,-3.15987e-05,-2.72233e-05,-0.0153845,21.4325,21.4387,-0.175286,10.9427,21.5747,21.4319,-0.31068,21.8143,213,15.1271,5.90926,-0.05,9912
2.84839e-07,1.34952e-07,-7.98478e-07,2.75955e-05,-3.55792e-05,-0.0159193,20.7211,20.6322,-1.72275,12.0465,21.5123,20.6989,-2.58064,23.6967,213,1.7395,3.86348,-0.05,9913
8.08388e-08,-6.43033e-08,-7.69729e-07,-3.36552e-05,-2.28568e-05,-0.0153733,21.4517,21.4669,-0.137417,10.8995,21.5632,21.4539,-0.235872,21.7446,213,5.50578,14.5945,-0.05,9914
6.92176e-10,-1.20612e-07,-3.76727e-07,-3.1053e-06,-0.000339671,-0.0148842,21.8278,21.3542,0.884089,11.3453,22.7013,21.3542,0.0106456,22.048,213,9.97958,20.5393,-0.075,9915
1.35864e-09,-4.69053e-07,-1.11858e-06,-9.40318e-06,-0.000424517,-0.0147199,21.9391,21.3549,1.23543,11.8311,23.4184,21.3549,-0.243831,22.7009,213,9.97958,20.5393,-0.025,9916
2.60416e-07,1.02667e-07,-7.95639e-07,-8.2393e-05,-3.79825e-05,-0.0160889,20.1033,20.1658,-2.4244,11.943,20.8102,20.1101,-3.07566,23.5437,213,2.1525,4.67371,-0.05,9917
1.36795e-07,6.24603e-08,-7.68086e-07,-5.06897e-05,-2.28467e-05,-0.0153341,21.4642,21.5034,-0.0458422,10.9784,21.7054,21.4678,-0.25143,21.839,213,4.08561,6.1772,-0.05,9918
-1.94487e-08,-3.35429e-07,-7.42937e-07,-8.56668e-06,-0.000145448,-0.014838,22.206,22.0134,1.33498,11.2367,23.006,22.0159,0.532532,21.9951,213,12.5207,20.4638,-0.05,9919
1.89813e-08,-3.40252e-07,-7.43598e-07,-1.02587e-05,-0.000146155,-0.0148514,22.1776,21.9863,1.29001,11.235,22.9675,21.989,0.497407,21.9972,213,7.68112,20.507,-0.05,9920
7.27814e-09,-1.17742e-07,-3.75929e-07,-3.46396e-06,-0.000328621,-0.0148583,21.8873,21.4297,0.980464,11.2463,22.6792,21.4317,0.186632,21.8955,213,8.13794,20.507,-0.075,9921
1.62783e-08,-3.0511e-07,-7.43173e-07,-8.9655e-06,8.26793e-05,-0.0148424,22.572,22.701,1.69528,11.2951,23.4297,22.699,0.839537,22.2338,213,8.05316,19.9139,-0.05,9922
2.24478e-08,-4.61398e-07,-1.1155e-06,-1.20467e-05,-0.000369872,-0.0146905,22.0691,21.5655,1.41058,11.6523,23.3934,21.5629,0.0887982,22.4454,213,8.13794,20.507,-0.025,9923
-4.70464e-07,4.71902e-07,-1.11115e-06,-0.000101692,-0.000473916,-0.0147218,21.5734,21.0495,0.996881,12.4635,23.6584,21.2299,-1.26854,23.8058,213,19.1205,0.542257,-0.025,9924
-1.53957e-07,1.10367e-07,-3.78271e-07,-3.02343e-05,-0.000421957,-0.0148818,21.6139,21.0626,0.711715,11.8427,22.8697,21.3344,-0.815824,22.9564,213,19.1205,0.542257,-0.075,9925
-2.85311e-07,-4.11204e-07,-1.13329e-06,-8.81772e-05,-0.000348054,-0.0149743,21.4067,21.041,0.455925,11.7723,22.6749,21.0985,-0.869781,22.7974,213,19.0652,20.505,-0.025,9926
-9.35882e-08,-1.02079e-07,-3.80903e-07,-2.56969e-05,-0.000321675,-0.0151408,21.3672,20.9506,0.0941059,11.4461,22.1198,21.0644,-0.772349,22.3831,213,19.0652,20.505,-0.075,9927
-2.1112e-07,-2.73573e-07,-7.5603e-07,8.84689e-05,9.61036e-05,-0.0150785,22.5036,22.5143,1.15748,11.7512,23.5991,22.4795,0.0967685,22.963,213,18.944,19.91,-0.05,9928
-1.64244e-07,-2.97288e-07,-7.53446e-07,-5.05606e-05,-8.57844e-05,-0.0150231,21.872,21.8224,0.799557,11.7977,23.1514,21.7865,-0.443925,22.9433,213,18.6084,20.505,-0.05,9929
-4.6521e-07,4.8255e-07,-1.1134e-06,-0.00049753,-9.79328e-05,-0.0147687,20.9067,21.4691,0.821247,12.5139,23.5563,21.1123,-1.47154,23.8997,213,19.5774,1.0218,-0.025,9930
-1.06994e-07,1.58092e-07,-3.78778e-07,-0.000447077,-3.01738e-05,-0.0149128,20.9353,21.522,0.576163,11.8667,22.7647,21.2375,-0.968771,23.0079,213,19.5774,1.0218,-0.075,9931
4.61821e-07,4.81743e-07,-1.12941e-06,-0.000486613,-8.42047e-05,-0.0150682,20.4708,21.0371,-0.0514286,12.6877,23.0834,20.6651,-2.292,24.2568,213,0.52265,1.0218,-0.025,9932
1.05701e-07,1.57697e-07,-3.85267e-07,-0.000443082,-2.47165e-05,-0.0151402,20.583,21.1718,-0.101862,11.9968,22.3815,20.8835,-1.61203,23.2807,213,0.52265,1.0218,-0.075,9933
3.22682e-07,-4.43127e-07,-1.1023e-06,-0.000423385,-5.33173e-05,-0.0145126,21.6266,22.1474,1.79733,11.6192,23.4945,21.8207,0.256076,22.4484,213,0.578007,20.0255,-0.025,9934
6.77977e-08,-1.47271e-07,-3.73576e-07,-0.000365615,-2.03923e-05,-0.0147174,21.5205,22.0064,1.32171,11.3098,22.8255,21.8172,0.20592,22.1327,213,0.578007,20.0255,-0.075,9935
-3.24105e-07,-4.45954e-07,-1.09568e-06,-0.000428037,-6.00609e-05,-0.0143852,21.8105,22.3284,2.16713,11.557,23.7071,22.0059,0.593007,22.3122,213,19.522,20.0255,-0.025,9936
-6.78504e-08,-1.47788e-07,-3.71798e-07,-0.000367802,-2.27568e-05,-0.0146237,21.6638,22.1495,1.59999,11.2606,22.9861,21.9623,0.464888,22.0272,213,19.522,20.0255,-0.075,9937
9.3956e-08,-1.01118e-07,-3.81433e-07,-2.59986e-05,-0.00032229,-0.0151539,21.3437,20.9267,0.0524963,11.4484,22.0893,21.041,-0.807467,22.3911,213,1.03483,20.505,-0.075,9938
1.32295e-07,7.96731e-08,-3.90725e-07,-0.000172886,-2.82309e-05,-0.0151647,21.3609,21.5645,0.261315,11.7253,22.6109,21.4155,-0.839701,22.8763,213,0.86975,3.37037,-0.075,9939
1.54069e-07,1.08967e-07,-3.84607e-07,-2.41506e-05,-0.000418418,-0.0151115,21.2611,20.7062,0.0270339,11.9756,22.4845,20.9767,-1.46678,23.2341,213,0.979468,0.542257,-0.075,9940
4.8936e-07,2.45019e-07,-1.13854e-06,-0.000297238,-7.93932e-05,-0.0150476,21.09,21.3966,0.330295,12.082,22.9347,21.1115,-1.22927,23.3059,213,0.86975,3.37037,-0.025,9941
1.37272e-07,6.02345e-08,-3.89618e-07,-0.00020008,-1.94834e-05,-0.0152275,21.1893,21.4435,0.0396708,11.6904,22.419,21.2152,-0.961779,22.8027,213,0.86975,4.32947,-0.075,9942
4.70118e-07,4.68364e-07,-1.12746e-06,-8.6387e-05,-0.000462995,-0.0150299,21.1322,20.6021,0.100568,12.6437,23.1753,20.7718,-2.11221,24.1755,213,0.979468,0.542257,-0.025,9943
-7.28144e-08,4.54456e-08,-3.85011e-07,-2.8138e-05,-1.57444e-05,-0.015381,21.4677,21.4851,-0.140034,11.0775,21.7479,21.472,-0.407072,22.0183,213,16.256,5.1241,-0.075,9944
-1.46645e-07,2.31129e-08,-3.87579e-07,-0.00023351,-9.49232e-06,-0.015051,21.3935,21.7088,0.539316,11.6857,22.8044,21.4043,-0.567031,22.7038,213,19.3501,6.86931,-0.075,9945
-4.96262e-08,-1.43396e-07,-3.73966e-07,-1.84261e-05,-0.000138165,-0.0148894,22.1035,21.935,1.17401,11.2144,22.8511,21.939,0.422395,21.9869,213,16.8978,20.2967,-0.075,9946
-6.75302e-08,-1.38461e-07,-3.72967e-07,-1.96097e-05,-0.000101358,-0.0149574,22.0486,21.9336,1.02508,11.336,22.8578,21.9636,0.185869,22.2383,213,17.6569,20.0338,-0.075,9947
-3.68669e-08,-1.13201e-07,-3.73738e-07,-1.07818e-05,-0.000201393,-0.0149083,21.9919,21.7236,1.02493,11.1544,22.6565,21.7362,0.347707,21.8632,213,15.9842,20.2967,-0.075,9948
-1.45347e-07,-4.34717e-07,-1.11268e-06,-4.84625e-05,-0.000177035,-0.0147326,22.2056,22.0246,1.53904,11.2799,23.161,22.0071,0.601141,22.0056,213,16.8978,20.2967,-0.025,9949
-2.18827e-07,1.36594e-07,-1.15278e-06,-7.84594e-05,-4.87603e-05,-0.0153062,21.3828,21.4246,-0.0487889,10.9973,21.681,21.3911,-0.313551,21.8511,213,16.256,5.1241,-0.025,9950
-1.11109e-07,-4.24088e-07,-1.11685e-06,-3.67933e-05,-0.000232894,-0.0147445,22.1298,21.8538,1.42996,11.3973,23.1768,21.8546,0.382208,22.1631,213,15.9842,20.2967,-0.025,9951
-2.04503e-07,-4.12451e-07,-1.11831e-06,-7.38585e-05,-0.000131768,-0.0148353,22.0337,21.9522,1.25828,11.2559,22.9029,21.9502,0.39107,22.0509,213,17.6569,20.0338,-0.025,9952
5.06467e-07,1.80101e-07,-1.13862e-06,-0.000277946,-5.8161e-05,-0.0150505,21.179,21.4883,0.388042,12.0221,22.9511,21.1973,-1.09303,23.217,213,0.86975,4.32947,-0.025,9953
2.85811e-07,-4.08698e-07,-1.13433e-06,-8.74992e-05,-0.000348904,-0.014991,21.38,21.0121,0.404754,11.7771,22.6417,21.0675,-0.912392,22.8078,213,1.03483,20.505,-0.025,9954
-5.45207e-07,7.37836e-08,-1.12951e-06,-0.000347748,-2.80985e-05,-0.0149036,21.2566,21.7064,0.770488,12.1472,23.3858,21.2563,-0.908621,23.3028,213,19.3501,6.86931,-0.025,9955
-3.35999e-07,7.59991e-08,-7.79855e-07,-0.000111204,-2.595e-05,-0.0155624,20.8997,21.0197,-0.846472,11.8991,21.9833,20.9046,-1.81495,23.2776,213,18.8115,5.62007,-0.05,9956
-6.14663e-08,9.76618e-08,-7.70806e-07,-2.44787e-05,-3.15536e-05,-0.0153964,21.4276,21.4176,-0.206954,10.9371,21.5469,21.4186,-0.3273,21.8104,213,13.865,5.08198,-0.05,9957
-3.6917e-07,1.01181e-07,-7.54352e-07,-9.31994e-05,-3.16794e-05,-0.0152156,21.5147,21.6013,0.231354,11.8585,22.778,21.5084,-0.939026,23.1084,213,19.2303,4.80901,-0.05,9958
3.62775e-07,1.02255e-07,-7.71418e-07,-7.30628e-05,-3.8222e-05,-0.0151937,21.6013,21.6503,0.320394,12.0463,23.0362,21.592,-1.05627,23.4038,213,0.86975,4.80901,-0.05,9959
-3.56489e-07,-1.24401e-07,-7.72776e-07,-7.25352e-05,-4.65192e-05,-0.0152193,21.5472,21.5838,0.22943,12.0607,22.9732,21.5354,-1.14819,23.4356,213,19.2276,16.3075,-0.05,9960
6.16245e-08,-3.11199e-07,-7.47572e-07,-1.63645e-05,-7.54956e-05,-0.0148157,22.3336,22.2504,1.5049,11.2307,23.154,22.2423,0.692545,22.0198,213,4.57261,20.2967,-0.05,9961
-1.07201e-07,3.60144e-07,-7.72293e-07,-4.13595e-05,-6.84136e-05,-0.0152056,21.6288,21.5907,0.286528,12.0575,23.0206,21.5798,-1.09435,23.4278,213,15.5374,0.832639,-0.05,9962
-6.18802e-08,-3.08056e-07,-7.41309e-07,-2.967e-05,-3.74388e-05,-0.0148419,22.3125,22.3015,1.46557,11.4454,23.3413,22.2878,0.450466,22.3827,213,15.5274,20.2967,-0.05,9963
-1.45848e-07,-2.50386e-07,-7.56331e-07,-4.59497e-05,2.71486e-06,-0.015151,21.8214,21.8898,0.562446,11.4179,22.6365,21.8366,-0.199392,22.4466,213,17.1957,19.2305,-0.05,9964
-1.60751e-07,-2.73818e-07,-7.52107e-07,-6.40594e-05,-6.08158e-05,-0.0149377,22.012,22.0166,1.07878,11.5417,23.1056,21.9796,0.0221835,22.5415,213,18.1137,20.0338,-0.05,9965
3.4336e-07,1.91677e-07,-7.61986e-07,-7.68935e-05,-7.00419e-05,-0.0153762,21.2376,21.2473,-0.294803,11.9791,22.4422,21.2639,-1.51605,23.3914,213,0.86975,2.89083,-0.05,9966
-3.42812e-07,1.93853e-07,-7.80874e-07,-7.90342e-05,-5.44447e-05,-0.0154479,21.139,21.1737,-0.491221,12.2629,22.597,21.1532,-1.92874,23.8367,213,19.2303,2.89083,-0.05,9967
-3.92342e-07,5.82683e-08,-7.48227e-07,-0.000102505,-2.36898e-05,-0.0150771,21.7268,21.8377,0.651404,11.8525,23.0929,21.7352,-0.612139,23.0562,213,19.3501,6.38977,-0.05,9968
-3.22919e-07,4.31136e-08,-7.88082e-07,2.73469e-06,-1.84947e-05,-0.0157185,21.003,20.9732,-1.12322,11.9718,21.8972,21.0021,-2.04636,23.5088,213,18.6002,7.02499,-0.05,9969
-5.60811e-09,1.50484e-08,-7.69213e-07,-1.33851e-05,-1.22397e-05,-0.0153744,21.5292,21.5308,-0.0900782,10.8121,21.5318,21.5305,-0.092416,21.6236,213,10.4683,9.15645,-0.05,9970
-1.16821e-08,2.28485e-08,-7.69347e-07,-1.40721e-05,-1.42932e-05,-0.015376,21.5212,21.5209,-0.0992611,10.8162,21.5272,21.521,-0.105284,21.6293,213,10.9233,8.5713,-0.05,9971
1.13493e-07,-2.88267e-07,-7.41551e-07,-3.75621e-05,-4.48269e-05,-0.0147649,22.4027,22.3925,1.67528,11.3462,23.391,22.3809,0.69857,22.2046,213,2.74534,20.2967,-0.05,9972
3.22735e-07,-2.22924e-07,-7.84077e-07,-8.08884e-05,-4.5528e-05,-0.0156866,20.7561,20.8059,-1.20752,12.1709,21.9499,20.7965,-2.39191,23.7861,213,0.872357,18.2257,-0.05,9973
-1.05007e-08,-3.56578e-08,-7.69523e-07,-1.33079e-05,-1.83261e-05,-0.0153777,21.514,21.507,-0.109924,10.8244,21.5263,21.5073,-0.122492,21.6393,213,10.8429,13.0335,-0.05,9974
1.97935e-07,3.42596e-07,-7.75603e-07,-5.81098e-05,-7.63704e-05,-0.0153912,21.2599,21.2342,-0.320009,12.2448,22.7086,21.2466,-1.78107,23.7924,213,2.7353,0.832639,-0.05,9975
-2.10826e-07,-2.56339e-07,-7.62212e-07,-6.60265e-05,-3.00961e-05,-0.0152342,21.5696,21.6202,0.221861,11.6672,22.5917,21.5628,-0.742796,22.8374,213,18.4494,19.4388,-0.05,9976
1.25969e-08,3.96771e-09,-7.69244e-07,-1.38033e-05,-1.18053e-05,-0.0153749,21.5278,21.5306,-0.0915067,10.8126,21.5321,21.5279,-0.0931186,21.6231,213,9.12558,10.0436,-0.05,9977
-1.52345e-07,5.8686e-09,-7.68025e-07,-5.68458e-05,-1.19052e-05,-0.0153335,21.4644,21.5277,-0.036022,10.9937,21.7395,21.4645,-0.247871,21.8511,213,16.2111,9.81287,-0.05,9978
3.40573e-07,3.48159e-07,-7.04998e-07,-0.000121552,-0.000113099,-0.0139912,23.305,23.3169,3.78473,12.5964,26.1101,23.3792,0.917335,23.9444,213,0.52265,0.542257,-0.05,9979
-3.46195e-07,3.53984e-07,-7.01372e-07,-0.000127334,-0.000119051,-0.0138604,23.4923,23.504,4.16433,12.562,26.3549,23.5749,1.23088,23.8558,213,19.5774,0.542257,-0.05,9980
-1.74162e-07,8.88808e-08,-7.71316e-07,-5.46318e-05,-2.89542e-05,-0.0153862,21.3566,21.3927,-0.221173,11.1533,21.7371,21.3605,-0.569451,22.1206,213,16.768,5.13403,-0.05,9981
-3.80632e-07,-3.35535e-08,-7.71745e-07,-0.000111475,-1.72711e-05,-0.0152565,21.4155,21.5481,0.100374,12.1835,23.0064,21.4181,-1.36054,23.6129,213,19.2336,12.9406,-0.05,9982
-3.17221e-08,-6.21904e-08,-7.69548e-07,-1.58934e-05,-2.7388e-05,-0.0153719,21.5008,21.4846,-0.111345,10.8497,21.5435,21.4863,-0.155759,21.6707,213,12.3386,14.3979,-0.05,9983
3.20274e-08,-9.50643e-09,-7.69637e-07,-1.73041e-05,-1.26978e-05,-0.0153819,21.5042,21.5107,-0.120086,10.8252,21.5203,21.5046,-0.130058,21.6425,213,7.84641,11.1881,-0.05,9984
2.20113e-07,-3.17743e-07,-7.47735e-07,-9.60184e-05,-6.75715e-05,-0.014814,22.1065,22.1466,1.39231,12.0575,23.7929,22.1747,-0.322151,23.348,213,0.578007,20.505,-0.05,9985
-2.20102e-07,-3.2102e-07,-7.45091e-07,-9.80257e-05,-6.85684e-05,-0.014754,22.1973,22.2388,1.5704,12.0383,23.908,22.267,-0.168529,23.2994,213,19.522,20.505,-0.05,9986
-1.33918e-07,-1.25164e-07,-7.69085e-07,-4.39026e-05,-3.90041e-05,-0.0153512,21.4303,21.4372,-0.113319,11.0764,21.74,21.4268,-0.41266,21.9978,213,16.1423,16.5015,-0.05,9987
6.42043e-08,2.91692e-07,-8.00233e-07,-2.13836e-05,-7.67581e-05,-0.0158533,20.6125,20.5346,-1.66944,11.9263,21.3972,20.5358,-2.45541,23.4338,213,5.9413,1.83668,-0.05,9988
-1.00282e-07,-1.6425e-07,-7.76324e-07,-3.19249e-05,-5.98065e-05,-0.015526,21.1456,21.1063,-0.660953,11.2356,21.4765,21.1091,-0.99466,22.2897,213,15.5176,17.2547,-0.05,9989
5.07419e-08,-5.8948e-08,-7.70202e-07,-1.9946e-05,-2.04239e-05,-0.0153912,21.4682,21.4676,-0.165331,10.8719,21.5241,21.4659,-0.219575,21.7147,213,6.76228,14.3002,-0.05,9990
3.83764e-07,-7.10679e-08,-7.64542e-07,-9.91997e-05,-2.20431e-05,-0.0150258,21.8239,21.9325,0.816113,12.0903,23.4595,21.834,-0.721026,23.4102,213,0.750703,14.709,-0.05,9991
1.7923e-07,2.19864e-08,-7.70136e-07,-5.53121e-05,-1.24975e-05,-0.0153806,21.3907,21.451,-0.178289,11.1088,21.7448,21.3914,-0.472754,22.043,213,3.40537,8.48299,-0.05,9992
-1.88361e-07,2.31382e-08,-7.74966e-07,-6.44298e-05,-1.22619e-05,-0.0154723,21.2128,21.2862,-0.472303,11.2006,21.6072,21.2134,-0.793941,22.2069,213,16.8437,8.38154,-0.05,9993
-1.88845e-07,3.50007e-08,-7.75735e-07,-6.73678e-05,-1.69349e-05,-0.0154842,21.1766,21.2476,-0.521188,11.2133,21.5756,21.1785,-0.851006,22.2307,213,16.8783,7.55598,-0.05,9994
1.33374e-08,-2.846e-07,-7.5826e-07,-9.45286e-06,-4.90758e-05,-0.0151191,21.8999,21.8441,0.634441,11.3672,22.6344,21.844,-0.100041,22.3498,213,8.57317,19.3255,-0.05,9995
-6.15263e-08,-1.17985e-08,-7.69014e-07,-2.12244e-05,-1.25288e-05,-0.0153686,21.5144,21.5267,-0.0855642,10.8415,21.562,21.5145,-0.120925,21.6592,213,13.6949,11.3799,-0.05,9996
-4.25567e-09,-1.10265e-08,-7.69206e-07,-1.3866e-05,-1.21839e-05,-0.0153742,21.5281,21.5305,-0.0901377,10.8111,21.5308,21.5291,-0.0914074,21.6213,213,10.3676,11.294,-0.05,9997
3.54557e-07,1.38903e-07,-7.55149e-07,-0.00015346,-4.3156e-05,-0.0150768,21.5399,21.6952,0.536663,12.2528,23.363,21.5513,-1.14255,23.6518,213,0.86975,3.84992,-0.05,9998
-1.33794e-07,3.83109e-08,-7.68895e-07,-4.02957e-05,-1.80934e-05,-0.0153677,21.4486,21.4798,-0.123332,10.9795,21.6575,21.4491,-0.301535,21.8556,213,15.9058,7.40578,-0.05,9999
-6.31571e-08,-1.13657e-07,-7.68983e-07,-2.36657e-05,-4.56909e-05,-0.0153446,21.4919,21.4609,-0.0708368,10.9328,21.6418,21.4641,-0.223896,21.7774,213,14.1096,16.1043,-0.05,10000
-2.11625e-08,1.36722e-07,-7.69674e-07,-1.28295e-05,-5.54744e-05,-0.015362,21.4804,21.4203,-0.12211,10.9775,21.6562,21.4211,-0.298706,21.8383,213,11.6832,4.17138,-0.05,10001
8.38276e-08,-2.23351e-08,-7.69809e-07,-3.45637e-05,-1.45218e-05,-0.0153793,21.4529,21.4811,-0.143443,10.8808,21.5492,21.4538,-0.21246,21.7141,213,5.54476,12.2155,-0.05,10002
1.03561e-07,6.94139e-08,-7.69899e-07,-3.30583e-05,-2.42897e-05,-0.0153789,21.442,21.4544,-0.155882,10.9458,21.5942,21.4436,-0.297313,21.8166,213,4.86278,5.95279,-0.05,10003
-1.1307e-07,5.21716e-08,-7.69712e-07,-3.59628e-05,-1.88035e-05,-0.0153509,21.4882,21.5123,-0.0662202,10.926,21.6483,21.4897,-0.203752,21.7732,213,15.4469,6.69236,-0.05,10004
3.8241e-07,1.44407e-08,-7.65289e-07,-0.000111518,-1.31525e-05,-0.0151079,21.6661,21.8045,0.56009,12.1267,23.3095,21.665,-0.943871,23.4744,213,0.838594,9.15771,-0.05,10005
-2.25414e-08,6.75887e-08,-7.70262e-07,-1.38979e-05,-2.23272e-05,-0.0153921,21.482,21.4701,-0.1615,10.8683,21.5284,21.4705,-0.208292,21.7078,213,11.7256,6.14827,-0.05,10006
1.19291e-07,1.47292e-07,-7.68089e-07,-4.70281e-05,-5.59855e-05,-0.01534,21.4112,21.3986,-0.112245,11.0847,21.7339,21.3992,-0.435552,22.004,213,4.34435,3.74091,-0.05,10007
-7.40477e-08,-6.81731e-08,-7.70101e-07,-2.43639e-05,-2.72931e-05,-0.015381,21.4601,21.456,-0.152933,10.8995,21.5539,21.4543,-0.245109,21.7494,213,14.3434,14.7265,-0.05,10008
4.76957e-08,-9.9914e-09,-7.698e-07,-2.01108e-05,-1.25283e-05,-0.0153837,21.493,21.5036,-0.129851,10.8383,21.525,21.4933,-0.151542,21.6607,213,7.00742,11.2244,-0.05,10009
-5.85975e-08,1.6421e-07,-7.67613e-07,-2.02446e-05,-6.03092e-05,-0.0153359,21.4926,21.4362,-0.0628307,11.0502,21.7635,21.4393,-0.336916,21.9402,213,13.8667,3.56016,-0.05,10010
-8.42272e-08,1.37068e-07,-7.68451e-07,-3.37792e-05,-4.56017e-05,-0.0153378,21.4724,21.4557,-0.0665895,11.0035,21.7061,21.4564,-0.300956,21.8833,213,14.7961,4.01482,-0.05,10011
-1.14377e-07,-2.36398e-08,-7.69873e-07,-3.54767e-05,-1.3886e-05,-0.0153813,21.4479,21.4783,-0.149858,10.9363,21.6001,21.4488,-0.272551,21.7974,213,15.401,12.3311,-0.05,10012
1.59589e-07,-2.67506e-07,-7.466e-07,-6.5893e-05,-5.03672e-05,-0.0149134,22.0634,22.0853,1.16693,11.4714,23.1056,22.0472,0.162759,22.4324,213,1.98626,20.0338,-0.05,10013
-8.53145e-08,-3.05268e-07,-7.45874e-07,-2.56216e-05,-0.000114051,-0.0147283,22.3857,22.2612,1.69304,11.5751,23.61,22.2701,0.459849,22.5101,213,16.441,20.2967,-0.05,10014
1.637e-07,4.71481e-08,-7.69732e-07,-6.14016e-05,-1.70599e-05,-0.0153638,21.3923,21.4547,-0.144373,11.0598,21.7135,21.3952,-0.406019,21.9621,213,3.61321,6.86079,-0.05,10015
-2.41191e-07,-4.95393e-08,-7.7805e-07,-8.48977e-05,-1.95815e-05,-0.0155457,21.0178,21.1097,-0.741901,11.4727,21.6551,21.0209,-1.29041,22.6351,213,17.6335,13.9157,-0.05,10016
-1.16676e-07,1.49108e-07,-7.68448e-07,-3.64725e-05,-4.61521e-05,-0.0153278,21.4796,21.466,-0.0416033,11.085,21.803,21.468,-0.366978,22.0044,213,15.7343,3.72871,-0.05,10017
-8.26569e-10,-1.39208e-07,-7.72697e-07,-1.16848e-05,-4.29691e-05,-0.0154225,21.4049,21.3609,-0.284397,11.0174,21.5777,21.3609,-0.457178,21.9273,213,10.1035,16.5356,-0.05,10018
-7.28627e-09,2.34282e-07,-7.80415e-07,-1.12059e-05,-8.0609e-05,-0.0155511,21.1335,21.0359,-0.737359,11.4213,21.6195,21.0357,-1.22319,22.5565,213,10.6651,2.6491,-0.05,10019
-2.49329e-07,3.84103e-08,-7.88888e-07,-6.96273e-05,-1.71086e-05,-0.0157091,20.8001,20.874,-1.21104,11.5913,21.4225,20.8006,-1.76002,22.8779,213,17.7393,7.29048,-0.05,10020
-1.47354e-08,3.32023e-08,-7.69546e-07,-1.37971e-05,-1.5179e-05,-0.0153809,21.5125,21.5106,-0.115257,10.826,21.5246,21.5106,-0.12737,21.645,213,11.1442,7.87366,-0.05,10021
1.35555e-07,-8.05766e-09,-7.67185e-07,-5.19456e-05,-1.16734e-05,-0.0153199,21.502,21.5587,0.0137124,10.9402,21.7264,21.5021,-0.154009,21.7691,213,4.21928,11.038,-0.05,10022
-2.79836e-07,-6.93128e-08,-7.96776e-07,-7.91504e-05,-2.15727e-05,-0.0157863,20.637,20.7181,-1.46931,11.8226,21.446,20.6388,-2.19909,23.252,213,18.1249,14.841,-0.05,10023
3.76474e-08,-1.75245e-07,-7.79717e-07,-1.58652e-05,-5.89383e-05,-0.0156071,21.0629,21.0023,-0.880312,11.2579,21.3486,21.0034,-1.16713,22.3451,213,7.09706,17.3127,-0.05,10024
1.5118e-07,-6.01069e-08,-7.69643e-07,-4.93434e-05,-2.64336e-05,-0.0153328,21.4646,21.4969,-0.0453913,11.0042,21.7285,21.4676,-0.279993,21.8792,213,3.81687,14.5166,-0.05,10025
-1.27979e-08,1.12874e-07,-7.68933e-07,-1.24136e-05,-3.92783e-05,-0.0153588,21.5135,21.4757,-0.0851146,10.9168,21.6308,21.476,-0.202807,21.7567,213,11.0681,4.73229,-0.05,10026
-3.91375e-07,4.07406e-08,-7.62294e-07,-0.000127957,-1.67318e-05,-0.0150695,21.673,21.8296,0.644131,12.2033,23.4413,21.6707,-0.965299,23.5712,213,19.3501,7.34886,-0.05,10027
5.13054e-08,-3.02089e-07,-7.44913e-07,-1.68351e-05,-8.97923e-05,-0.0148708,22.2183,22.1156,1.31275,11.2094,22.9741,22.1172,0.555347,22.0028,213,5.38589,19.9809,-0.05,10028
-3.51148e-08,3.24451e-07,-7.96007e-07,-1.95443e-05,-7.45903e-05,-0.0158586,20.6131,20.5356,-1.6789,12.0724,21.5392,20.5362,-2.60563,23.6593,213,12.6627,1.52294,-0.05,10029
3.90576e-07,4.07657e-08,-7.6376e-07,-0.000125201,-1.72138e-05,-0.0150817,21.6607,21.8127,0.610837,12.2075,23.4203,21.6585,-0.994566,23.5834,213,0.73835,7.35437,-0.05,10030
7.34097e-08,-5.0408e-08,-7.7039e-07,-2.9051e-05,-1.7651e-05,-0.0153907,21.4457,21.4618,-0.174438,10.8884,21.5308,21.4484,-0.246059,21.7357,213,5.84086,13.9476,-0.05,10031
2.18034e-09,5.05585e-08,-7.69608e-07,-1.29073e-05,-2.31118e-05,-0.0153761,21.51,21.4957,-0.11228,10.8347,21.5335,21.4957,-0.135834,21.6505,213,9.88126,6.93039,-0.05,10032
5.50278e-08,-1.40377e-07,-7.73906e-07,-2.47871e-05,-4.70719e-05,-0.0154399,21.3297,21.2984,-0.365614,11.052,21.5335,21.2994,-0.57044,21.9878,213,6.30125,16.6931,-0.05,10033
1.4511e-07,1.2722e-07,-7.69898e-07,-5.28503e-05,-4.70536e-05,-0.0153655,21.3664,21.3745,-0.184775,11.1156,21.7104,21.3665,-0.520808,22.0613,213,3.78273,4.16712,-0.05,10034
2.39365e-08,-2.96686e-07,-7.47289e-07,-9.90008e-06,-2.25497e-05,-0.0149242,22.2621,22.2443,1.27159,11.3033,23.0709,22.2427,0.464387,22.204,213,7.36105,19.8149,-0.05,10035
8.08281e-09,-1.26134e-07,-7.69253e-07,-1.1893e-05,-4.28431e-05,-0.0153619,21.504,21.4605,-0.0996854,10.9467,21.6489,21.4605,-0.244498,21.7998,213,9.346,16.2883,-0.05,10036
-3.87119e-07,-5.10971e-08,-7.64494e-07,-0.00011964,-2.01743e-05,-0.015053,21.72,21.86,0.702737,12.1603,23.4434,21.7165,-0.877207,23.5048,213,19.3417,13.7665,-0.05,10037
1.0572e-08,-3.40375e-07,-7.44089e-07,-9.60967e-06,-7.94615e-05,-0.0148032,22.3683,22.27,1.5478,11.7144,23.6739,22.2672,0.244985,22.7582,213,8.59476,20.507,-0.05,10038
-1.5935e-07,4.77199e-08,-7.7111e-07,-6.28622e-05,-1.6745e-05,-0.015391,21.3437,21.4087,-0.229147,11.0667,21.6546,21.3474,-0.478802,21.9814,213,16.4195,6.84256,-0.05,10039
1.72749e-07,-8.6883e-08,-7.69335e-07,-5.21078e-05,-2.65497e-05,-0.0153621,21.4078,21.4438,-0.13967,11.1269,21.7761,21.4137,-0.477809,22.0749,213,3.35259,15.5012,-0.05,10040
2.52622e-07,3.21809e-07,-8.06999e-07,-7.54242e-05,-8.80953e-05,-0.015882,20.382,20.3642,-1.86434,12.637,21.8985,20.3587,-3.37541,24.5403,213,1.92033,1.00336,-0.05,10041
3.56836e-08,2.60576e-08,-7.69837e-07,-1.65577e-05,-1.5341e-05,-0.0153842,21.4984,21.5001,-0.130172,10.8331,21.5181,21.4983,-0.148055,21.6563,213,7.62624,8.30633,-0.05,10042
-2.10367e-08,2.56921e-08,-7.69491e-07,-1.44738e-05,-1.4291e-05,-0.0153788,21.5154,21.5156,-0.108419,10.8222,21.5258,21.5153,-0.118486,21.639,213,11.5711,8.36323,-0.05,10043
-2.2088e-08,2.48685e-09,-7.69208e-07,-1.49981e-05,-1.19373e-05,-0.0153743,21.5249,21.5292,-0.0919667,10.8151,21.5337,21.5249,-0.0964637,21.6258,213,11.6199,10.1756,-0.05,10044
-6.7073e-08,4.49804e-08,-7.69941e-07,-2.28876e-05,-1.86311e-05,-0.0153841,21.4738,21.4798,-0.14576,10.8723,21.539,21.4743,-0.205516,21.7123,213,14.0014,7.11804,-0.05,10045
-9.89107e-08,8.99983e-08,-7.70477e-07,-3.12261e-05,-2.90859e-05,-0.0153973,21.4096,21.4126,-0.216749,10.9765,21.5751,21.4083,-0.377928,21.8701,213,15.1534,5.23591,-0.05,10046
1.14269e-07,-6.94281e-08,-7.68246e-07,-4.2276e-05,-2.76359e-05,-0.0153413,21.4701,21.4907,-0.0619006,10.9381,21.651,21.4731,-0.225205,21.7878,213,4.55562,14.841,-0.05,10047
1.05642e-07,-5.52919e-08,-7.69841e-07,-3.80844e-05,-2.05886e-05,-0.0153737,21.4413,21.4659,-0.14225,10.9323,21.5929,21.4438,-0.27175,21.7905,213,4.82887,14.2321,-0.05,10048
-5.32274e-08,3.47309e-08,-7.6976e-07,-2.12935e-05,-1.80729e-05,-0.0153797,21.4869,21.4914,-0.128601,10.8465,21.5276,21.4874,-0.165293,21.6728,213,13.3832,7.72654,-0.05,10049
-1.46787e-07,-6.2285e-08,-7.69451e-07,-4.65862e-05,-2.65634e-05,-0.0153524,21.4405,21.4687,-0.101047,11.0101,21.6929,21.4425,-0.327298,21.8961,213,16.2113,14.5962,-0.05,10050
-1.27452e-07,-4.94816e-08,-7.69884e-07,-4.0751e-05,-1.88109e-05,-0.0153822,21.4222,21.4531,-0.169465,10.9831,21.6234,21.4252,-0.342818,21.8678,213,15.8204,13.9716,-0.05,10051
-4.81054e-08,-1.05399e-07,-7.68942e-07,-1.88632e-05,-4.31472e-05,-0.0153609,21.4839,21.4497,-0.108586,10.9167,21.603,21.4523,-0.230363,21.7584,213,13.3833,15.8703,-0.05,10052
2.78078e-08,-4.26487e-08,-7.69559e-07,-1.48782e-05,-1.69803e-05,-0.0153797,21.5082,21.5052,-0.116374,10.8357,21.5313,21.5058,-0.140062,21.6586,213,8.04844,13.4562,-0.05,10053
-2.6868e-07,1.86237e-07,-7.96121e-07,-7.68551e-05,-5.46516e-05,-0.0158045,20.5598,20.591,-1.5755,11.9989,21.503,20.5671,-2.49474,23.5437,213,18.2236,2.9351,-0.05,10054
3.66127e-08,-3.27692e-07,-7.47193e-07,-1.81873e-05,-8.58115e-05,-0.014869,22.2237,22.1285,1.32252,11.3077,23.0782,22.1336,0.462839,22.1582,213,6.07538,20.4079,-0.05,10055
-7.89579e-08,1.03893e-07,-7.71025e-07,-2.89851e-05,-3.25097e-05,-0.0153965,21.4121,21.4071,-0.216289,10.9694,21.5681,21.4055,-0.370637,21.8579,213,14.5448,4.85209,-0.05,10056
3.36033e-08,5.39258e-08,-7.70214e-07,-1.58779e-05,-2.22207e-05,-0.0153899,21.4799,21.4709,-0.157588,10.8548,21.5153,21.4721,-0.19419,21.6879,213,7.69729,6.728,-0.05,10057
3.10573e-08,7.05165e-08,-7.70307e-07,-1.53795e-05,-2.5343e-05,-0.01539,21.4759,21.4619,-0.162476,10.8725,21.5286,21.4632,-0.21644,21.7124,213,7.82185,6.04242,-0.05,10058
-1.33434e-07,8.1481e-08,-7.68812e-07,-4.86787e-05,-2.65905e-05,-0.0153512,21.4361,21.4672,-0.100818,11.0038,21.6846,21.4409,-0.323064,21.8869,213,15.9869,5.4558,-0.05,10059
-1.04295e-07,-6.02997e-09,-7.67001e-07,-3.35967e-05,-1.21163e-05,-0.0153149,21.5655,21.5957,0.058472,10.867,21.694,21.5656,-0.039947,21.67,213,15.1148,10.8688,-0.05,10060
-1.37708e-07,-9.70438e-09,-7.68451e-07,-4.7859e-05,-1.1657e-05,-0.0153478,21.4688,21.5197,-0.06446,10.9664,21.6939,21.469,-0.238828,21.8211,213,15.9249,11.1547,-0.05,10061
2.87456e-07,3.54774e-07,-7.70926e-07,-6.55795e-05,-8.3068e-05,-0.0152451,21.4661,21.4415,0.102301,12.6321,23.4315,21.4111,-1.8327,24.317,213,1.43629,0.542257,-0.05,10062
1.64773e-07,-2.98396e-07,-7.52035e-07,-5.20038e-05,-7.44427e-05,-0.0150185,21.8937,21.8621,0.829783,11.7178,23.0945,21.832,-0.340975,22.8305,213,1.49164,20.505,-0.05,10063
9.46907e-08,-4.33355e-08,-7.70272e-07,-3.47682e-05,-1.67779e-05,-0.0153879,21.4344,21.4597,-0.173733,10.9146,21.5567,21.4362,-0.272527,21.7692,213,5.16395,13.5852,-0.05,10064
-6.58083e-08,1.29428e-07,-7.69682e-07,-2.38067e-05,-4.25578e-05,-0.0153687,21.4571,21.4307,-0.139387,10.988,21.6459,21.4327,-0.330182,21.8703,213,14.1162,4.24471,-0.05,10065
1.02286e-08,6.65708e-08,-7.69679e-07,-1.31282e-05,-2.56685e-05,-0.015377,21.5037,21.486,-0.119594,10.8531,21.5451,21.4862,-0.161186,21.6769,213,9.26624,6.21234,-0.05,10066
7.96698e-09,-1.6831e-07,-7.78324e-07,-1.11223e-05,-6.08971e-05,-0.0155205,21.2164,21.1464,-0.611553,11.1682,21.4705,21.1466,-0.865846,22.1762,213,9.30329,17.0938,-0.05,10067
1.06031e-07,3.66363e-07,-7.54845e-07,-3.29419e-05,-9.02213e-05,-0.0152319,21.5756,21.495,0.18455,11.8513,22.7348,21.488,-0.96769,23.1044,213,4.56257,0.832639,-0.05,10068
-6.72599e-07,-1.3163e-07,-2.96238e-06,-0.00020464,-4.125e-05,-0.00340617,9.55589,10.0436,-0.000914388,5.0226,10.0443,9.55523,-0.000933721,9.80984,213,18.3052,14.4095,0.51375,10069
-4.6135e-07,-1.223e-07,-2.93233e-06,-0.000169205,-4.64227e-05,-0.00342437,9.69993,10.0664,-0.0169727,5.04232,10.0677,9.69866,-0.0169735,9.9053,213,17.2638,14.3227,0.51375,10070
-4.97777e-07,-1.7341e-07,-2.93851e-06,-0.00018396,-6.00417e-05,-0.00340775,9.61859,9.98849,-0.00467869,4.99738,9.99007,9.61701,-0.00468533,9.81355,213,17.5495,15.2531,0.51375,10071
-1.17235e-06,-1.28003e-07,-2.84111e-06,-0.000889748,-4.03828e-05,-0.00305156,6.46533,9.00074,0.0121618,4.49541,9.00257,6.46391,0.0117482,8.02839,213,19.2584,14.0234,0.51375,10072
-7.89058e-07,-9.87577e-08,-2.94419e-06,-0.00031856,-4.38414e-05,-0.00334643,9.03576,9.85581,-0.00267607,4.9302,9.85773,9.03384,-0.00267703,9.47536,213,18.61,13.546,0.51375,10073
1.94365e-07,-5.85201e-08,-2.94481e-06,-6.9094e-05,-3.24893e-05,-0.00348123,10.1801,10.2894,-0.00532476,5.14756,10.2898,10.1797,-0.00532485,10.2405,213,5.38049,12.5831,0.51375,10074
2.09612e-07,-2.93688e-08,-2.94261e-06,-7.31904e-05,-2.5641e-05,-0.00348113,10.1769,10.3189,0.00398022,5.15754,10.3191,10.1767,0.00397993,10.2447,213,5.21055,11.5822,0.51375,10075
1.53991e-07,-4.18072e-08,-2.94845e-06,-6.00043e-05,-2.85441e-05,-0.00348633,10.2324,10.3263,0.00459604,5.16095,10.3265,10.2322,0.00459406,10.2751,213,6.02852,12.0135,0.51375,10076
-4.09138e-07,7.03747e-08,-2.95666e-06,-0.000144203,-3.39317e-05,-0.00349568,9.66729,9.99646,-0.337119,5.16889,9.99915,9.6661,-0.338621,10.1753,213,17.0315,7.71733,0.51375,10077
-5.76542e-07,7.11312e-08,-2.95909e-06,-0.000242836,-3.47774e-05,-0.0033202,9.61391,10.235,0.427736,4.91141,10.243,9.61337,0.420228,9.52361,213,17.9033,7.68285,0.51375,10078
-4.39398e-07,9.79915e-08,-2.95352e-06,-0.000165665,-3.90408e-05,-0.00342327,9.74861,10.1266,0.0244033,5.05144,10.1273,9.74796,0.0243833,9.91867,213,17.2389,6.96518,0.51375,10079
-6.20471e-07,9.88395e-08,-2.94728e-06,-0.000281689,-3.9006e-05,-0.00338551,9.15416,9.87859,-0.110972,4.99508,9.87915,9.15365,-0.111016,9.64789,213,18.0232,6.94853,0.51375,10080
-5.57213e-07,1.38175e-07,-2.94441e-06,-0.000212704,-5.10137e-05,-0.00341864,9.43572,9.91837,-0.134251,5.0267,9.91877,9.4357,-0.134633,9.82078,213,17.7779,6.02659,0.51375,10081
-2.39943e-07,1.21579e-08,-2.9288e-06,-9.0086e-05,-2.27512e-05,-0.00347532,10.1005,10.3015,-0.00464149,5.15307,10.3015,10.1005,-0.0046418,10.2071,213,15.1559,9.87516,0.51375,10082
-2.05141e-07,2.54722e-08,-2.93424e-06,-7.51356e-05,-2.53731e-05,-0.00347904,10.1724,10.321,0.0115245,5.15491,10.3213,10.1721,0.0115198,10.236,213,14.7589,9.33066,0.51375,10083
-1.74695e-07,1.23249e-08,-2.9394e-06,-6.60825e-05,-2.34001e-05,-0.00348615,10.2119,10.3393,0.0027486,5.16828,10.3393,10.2119,0.00274858,10.2734,213,14.3207,9.8917,0.51375,10084
-1.74001e-07,-3.58654e-07,-2.94507e-06,-6.29882e-05,-7.62092e-05,-0.0034657,10.1283,10.0888,-0.029049,5.0898,10.1505,10.0666,-0.0290534,10.1379,213,14.8412,17.2415,0.51375,10085
-1.79352e-07,-2.64237e-07,-2.92921e-06,-6.37221e-05,-9.46345e-05,-0.0034597,10.0844,9.9921,-0.0528905,5.07152,10.0901,9.98636,-0.0528905,10.0915,213,14.7926,16.3661,0.51375,10086
-1.28219e-07,-3.31411e-07,-2.94252e-06,-5.23942e-05,-0.000120004,-0.00346588,10.0541,9.85224,-0.13546,5.09706,10.058,9.84895,-0.13609,10.0912,213,14.0034,16.9424,0.51375,10087
1.74136e-07,-3.56241e-07,-2.95234e-06,-6.29749e-05,-6.83969e-05,-0.00346631,10.1512,10.1351,-0.00797167,5.09419,10.1804,10.1059,-0.00797367,10.1513,213,5.25882,17.2415,0.51375,10088
1.29056e-07,-3.33297e-07,-2.94521e-06,-5.17228e-05,-0.000111678,-0.00343939,10.1686,9.98965,0.0561814,5.05838,10.1726,9.98598,0.0558443,10.0248,213,6.09661,16.9424,0.51375,10089
1.79791e-07,-2.68808e-07,-2.93064e-06,-6.38176e-05,-9.15343e-05,-0.0034567,10.1032,10.0204,-0.0248477,5.06798,10.1111,10.0125,-0.0248603,10.087,213,5.30744,16.3661,0.51375,10090
-4.09175e-07,-3.78328e-08,-2.95611e-06,-0.000137904,-2.74252e-05,-0.00342755,9.94279,10.2726,0.122946,5.07548,10.2734,9.94248,0.122448,9.98961,213,17.0072,11.8552,0.51375,10091
-5.83538e-07,-3.71992e-08,-2.95834e-06,-0.000245628,-2.83222e-05,-0.00345262,9.19721,9.84588,-0.375919,5.11941,9.85479,9.1964,-0.384024,9.92601,213,17.9093,11.8452,0.51375,10092
-4.51001e-07,-5.90871e-08,-2.95211e-06,-0.000170445,-2.88673e-05,-0.00343697,9.708,10.1306,-0.0428305,5.08732,10.1318,9.70681,-0.0428354,9.96893,213,17.2665,12.5825,0.51375,10093
-2.41298e-07,-4.70311e-08,-2.94205e-06,-8.01202e-05,-2.97441e-05,-0.00347508,10.1404,10.2908,0.00623403,5.14236,10.2909,10.1403,0.00623377,10.2102,213,15.3669,12.2062,0.51375,10094
-2.24256e-07,-8.04163e-08,-2.94402e-06,-7.88768e-05,-3.68176e-05,-0.00346874,10.1458,10.2713,0.0267868,5.12234,10.2714,10.1457,0.0267654,10.1824,213,15.197,13.2071,0.51375,10095
-1.91315e-07,-5.90483e-08,-2.94574e-06,-6.60638e-05,-3.28049e-05,-0.00348364,10.1901,10.2894,-0.0116071,5.15079,10.29,10.1895,-0.0116214,10.2517,213,14.7065,12.5919,0.51375,10096
-2.08324e-07,-2.97078e-08,-2.94195e-06,-7.06285e-05,-2.5968e-05,-0.00348127,10.1913,10.3246,0.0102457,5.15756,10.3254,10.1905,0.0102447,10.2484,213,14.8764,11.5909,0.51375,10097
-2.05111e-07,-8.93348e-07,-2.89411e-06,-8.15638e-05,-0.000745577,-0.00310377,9.03887,7.05674,0.0173629,4.51479,9.04694,7.04868,0.0173512,8.21481,213,15.5967,18.6504,0.51375,10098
-2.981e-07,-4.57521e-07,-2.95539e-06,-8.5945e-05,-9.45027e-05,-0.00342204,10.0674,10.0419,0.108926,5.00699,10.1229,9.98642,0.108906,9.94646,213,16.5298,17.8008,0.51375,10099
-2.44519e-07,-8.55091e-07,-2.87891e-06,-8.51729e-05,-0.000797687,-0.00306792,8.96509,6.83818,0.0613784,4.45523,8.97141,6.8323,0.0609421,8.05678,213,16.0581,18.6504,0.508125,10100
-2.44625e-07,-8.57258e-07,-2.91336e-06,-8.54339e-05,-0.000800718,-0.00306617,8.9594,6.82422,0.0616684,4.45207,8.96548,6.81847,0.0613367,8.04836,213,16.0581,18.6504,0.519375,10101
2.05122e-07,-9.0186e-07,-2.88868e-06,-7.71994e-05,-0.000761348,-0.00309813,9.0336,6.99137,0.0158904,4.51211,9.03982,6.98543,0.0156045,8.19254,213,4.50329,18.6504,0.51375,10102
2.42186e-07,-8.71122e-07,-2.90926e-06,-8.16363e-05,-0.000816953,-0.0030608,8.94834,6.75336,0.0553198,4.44937,8.95383,6.74809,0.0550981,8.02648,213,4.04193,18.6504,0.519375,10103
2.96176e-07,-4.47005e-07,-2.95653e-06,-8.6548e-05,-0.000118032,-0.00341276,10.0185,9.92455,0.0895516,4.98489,10.0593,9.88379,0.0895171,9.88319,213,3.57022,17.8008,0.51375,10104
2.42084e-07,-8.68952e-07,-2.87486e-06,-8.14727e-05,-0.00081418,-0.0030627,8.95211,6.76492,0.0529241,4.45254,8.95776,6.75952,0.0526748,8.03475,213,4.04193,18.6504,0.508125,10105
-8.08923e-07,7.28838e-08,-2.93457e-06,-0.000382306,-3.63304e-05,-0.00332921,8.72176,9.75452,-0.0749633,4.91644,9.7572,8.71979,-0.0756722,9.3574,213,18.6876,7.6662,0.51375,10106
-5.70916e-07,-8.78272e-08,-2.94052e-06,-0.00021453,-3.63521e-05,-0.00339137,9.55748,10.0894,0.0743824,5.00805,10.09,9.55735,0.0739093,9.76067,213,17.8055,13.5029,0.51375,10107
4.21628e-07,1.1235e-06,-2.84457e-06,-0.00015881,-0.000867931,-0.00301092,8.46971,6.35293,-0.0440478,4.25772,8.47057,6.35288,-0.0448632,7.67881,213,2.65784,0.849583,0.51375,10108
3.64816e-07,1.1513e-06,-2.81129e-06,-0.000107118,-0.000931543,-0.00297771,8.69154,6.23057,0.122609,4.28809,8.69522,6.23047,0.119033,7.64773,213,3.1192,0.849583,0.508125,10109
-3.84978e-07,-8.42689e-07,-2.90077e-06,-0.000159824,-0.000771067,-0.00305463,8.63205,6.80744,-0.00916711,4.32115,8.63272,6.80719,-0.00958545,7.88956,213,17.4422,18.6504,0.51375,10110
-3.25891e-07,-8.48927e-07,-2.90896e-06,-0.000109651,-0.00084662,-0.00302381,8.79907,6.59916,0.10008,4.34977,8.79934,6.59917,0.0997961,7.83469,213,16.9808,18.6504,0.519375,10111
-4.19035e-07,1.12919e-06,-2.85229e-06,-0.000150945,-0.000867989,-0.00300804,8.52709,6.38666,-0.00153987,4.26457,8.52752,6.3863,-0.00161231,7.68558,213,17.4422,0.849583,0.51375,10112
-3.65387e-07,1.14788e-06,-2.81685e-06,-0.000102871,-0.000932306,-0.0029815,8.70324,6.22732,0.110322,4.29701,8.70405,6.2268,0.110034,7.66187,213,16.9808,0.849583,0.508125,10113
3.16211e-07,6.64659e-07,-2.96159e-06,-8.04738e-05,-0.000247052,-0.00336649,9.79348,9.29623,-0.0155199,4.91332,9.80464,9.29155,-0.0219966,9.5804,213,3.57022,1.69917,0.51375,10114
3.64629e-07,1.15608e-06,-2.84476e-06,-0.000106614,-0.000943714,-0.00295854,8.71684,6.21804,0.203643,4.27162,8.73199,6.21779,0.188747,7.60452,213,3.1192,0.849583,0.519375,10115
-3.26031e-07,-8.4653e-07,-2.87494e-06,-0.00010993,-0.000843781,-0.0030294,8.78863,6.59803,0.0737843,4.35773,8.78893,6.59804,0.0734771,7.85267,213,16.9808,18.6504,0.508125,10116
-3.15307e-07,6.71017e-07,-2.95984e-06,-8.19504e-05,-0.00020518,-0.0033685,9.91081,9.54296,0.10022,4.90736,9.9149,9.5389,0.100189,9.63222,213,16.5298,1.69917,0.51375,10117
-3.65175e-07,1.15179e-06,-2.85038e-06,-0.000102297,-0.00093739,-0.0029834,8.68462,6.1918,0.0842946,4.30051,8.6852,6.19132,0.0841889,7.66466,213,16.9808,0.849583,0.519375,10118
2.55614e-07,-2.87454e-07,-2.92524e-06,-9.13867e-05,-9.75426e-05,-0.00343725,9.97605,9.95767,-0.0116031,5.004,9.99639,9.93733,-0.0116048,9.9786,213,4.27799,16.6562,0.51375,10119
-2.54666e-07,-2.88396e-07,-2.92361e-06,-9.08226e-05,-0.000104844,-0.00343283,9.97039,9.92854,-0.00574426,4.99369,9.98164,9.9173,-0.0057462,9.95537,213,15.822,16.6562,0.51375,10120
-6.35075e-07,-5.9595e-08,-2.94636e-06,-0.00028897,-3.10871e-05,-0.00335633,9.227,9.9968,0.0706952,4.96344,9.9974,9.22657,0.0705166,9.5648,213,18.0492,12.5856,0.51375,10121
-9.11734e-07,-6.27588e-08,-2.91628e-06,-0.000419073,-3.66092e-05,-0.00327424,8.66883,9.81052,0.145943,4.83313,9.81136,8.66884,0.145094,9.14867,213,18.8537,12.6287,0.51375,10122
-7.80016e-07,1.46197e-07,-2.93488e-06,-0.000306887,-5.34688e-05,-0.00334022,9.09681,9.85328,0.0420915,4.90749,9.85684,9.09347,0.0418664,9.45643,213,18.6108,5.96225,0.51375,10123
-9.00581e-07,1.04368e-07,-2.91195e-06,-0.000413827,-4.22309e-05,-0.00330769,8.57723,9.68647,-0.0611539,4.87388,9.68655,8.57722,-0.0612181,9.24316,213,18.8561,6.8842,0.51375,10124
-1.6165e-07,9.98909e-08,-2.94462e-06,-6.00358e-05,-4.24862e-05,-0.00348006,10.2079,10.2603,-0.0011025,5.13132,10.2615,10.2067,-0.00110256,10.2353,213,14.2635,7.03168,0.51375,10125
-2.35074e-07,8.76042e-08,-2.93871e-06,-7.44231e-05,-3.89265e-05,-0.00347372,10.1507,10.2567,0.00357072,5.12694,10.2574,10.15,0.00357025,10.2006,213,15.3287,7.29817,0.51375,10126
-2.02069e-07,1.2385e-07,-2.9412e-06,-6.9775e-05,-4.93007e-05,-0.00347142,10.1537,10.2149,-0.000429793,5.10828,10.2161,10.1525,-0.000430079,10.1849,213,14.9287,6.49296,0.51375,10127
-1.83186e-07,6.84493e-08,-2.94256e-06,-6.53856e-05,-3.38074e-05,-0.00348152,10.1979,10.2921,0.000441369,5.14616,10.2928,10.1972,0.000441283,10.2449,213,14.5551,7.84426,0.51375,10128
1.25525e-06,4.40411e-07,-2.78564e-06,-0.000959026,-0.000159596,-0.00296028,5.95021,8.33657,-0.0236738,4.18015,8.33661,5.95019,-0.02369,7.45912,213,0.655674,2.6976,0.51375,10129
1.25925e-06,3.71341e-07,-2.76317e-06,-0.000965818,-0.000122319,-0.00296703,6.00522,8.52313,0.0314597,4.24661,8.52412,6.00477,0.0309127,7.55542,213,0.655674,3.1851,0.508125,10130
1.26361e-06,3.71367e-07,-2.79652e-06,-0.000970906,-0.000122055,-0.00296672,5.97571,8.5096,0.0180753,4.24638,8.51044,5.97525,0.0176902,7.55138,213,0.655674,3.1851,0.519375,10131
7.83205e-07,3.42779e-07,-2.93556e-06,-0.000317809,-9.78617e-05,-0.00331421,8.97125,9.62781,0.0267702,4.80061,9.62796,8.97111,0.0267541,9.29022,213,1.41135,3.4452,0.51375,10132
-7.7491e-07,3.42824e-07,-2.93955e-06,-0.000329164,-9.37357e-05,-0.00331129,8.92369,9.62646,0.0218227,4.80237,9.62654,8.92363,0.0218054,9.27328,213,18.6887,3.44504,0.51375,10133
-1.25989e-06,4.37467e-07,-2.78827e-06,-0.00097108,-0.000156901,-0.002958,5.89177,8.32216,-0.0393268,4.18096,8.3224,5.89173,-0.0395248,7.45016,213,19.4443,2.69744,0.51375,10134
-1.27176e-06,3.70587e-07,-2.7961e-06,-0.000985954,-0.000117901,-0.00295911,5.92037,8.51158,0.0303581,4.24136,8.51271,5.91962,0.0299834,7.5289,213,19.4443,3.18494,0.519375,10135
-1.26727e-06,3.70548e-07,-2.7628e-06,-0.000980809,-0.000118242,-0.00296413,5.93505,8.50988,0.014707,4.24825,8.51091,5.9343,0.0144225,7.54567,213,19.4443,3.1851,0.508125,10136
-1.25451e-06,-3.16792e-07,-2.79388e-06,-0.000945556,-0.000119578,-0.00298584,6.07898,8.54459,-0.0114276,4.27806,8.54465,6.07898,-0.0114835,7.62826,213,19.4437,16.8032,0.51375,10137
-8.08288e-07,-2.41646e-07,-2.93452e-06,-0.000303301,-6.45863e-05,-0.0033363,9.09605,9.80863,0.0423285,4.88318,9.80866,9.09605,0.042302,9.43027,213,18.688,16.0558,0.51375,10138
-1.2798e-06,-2.68538e-07,-2.76988e-06,-0.000992676,-8.77043e-05,-0.00296293,5.96263,8.66404,0.0812667,4.29221,8.66509,5.96216,0.0806808,7.6023,213,19.4437,16.3157,0.508125,10139
-1.2848e-06,-2.68602e-07,-2.80302e-06,-0.000998399,-8.74238e-05,-0.00296144,5.93301,8.65234,0.0731735,4.29023,8.65322,5.93255,0.0727529,7.59486,213,19.4443,16.3151,0.519375,10140
2.07653e-07,9.76269e-07,-2.8903e-06,-7.76646e-05,-0.000720358,-0.00310522,9.13825,7.21976,0.100765,4.52033,9.13982,7.21979,0.0991652,8.24995,213,4.88243,1.142,0.508125,10141
2.07785e-07,9.78789e-07,-2.92536e-06,-7.80209e-05,-0.000722384,-0.00313773,9.02654,7.10306,-0.106917,4.57153,9.03135,7.10304,-0.11171,8.34765,213,4.88243,1.142,0.519375,10142
1.81103e-07,5.55613e-07,-2.93523e-06,-6.34849e-05,-0.000114477,-0.00342897,10.1204,9.96816,0.0741438,5.02511,10.1233,9.96633,0.0730813,9.97266,213,5.25123,2.284,0.51375,10143
2.42519e-07,6.07024e-07,-2.9601e-06,-8.04401e-05,-0.000190733,-0.00340301,9.85648,9.52724,-0.0616366,4.95923,9.85665,9.52724,-0.0618038,9.75792,213,4.41072,1.99158,0.51375,10144
2.80532e-07,1.18037e-06,-2.81471e-06,-9.0405e-05,-0.000866728,-0.00300873,8.9016,6.58422,0.190171,4.3746,8.92148,6.58224,0.172277,7.84564,213,4.04193,0.849583,0.508125,10145
3.16814e-08,5.27745e-08,-2.95383e-06,-3.08429e-05,-2.96654e-05,-0.00350155,10.3601,10.3637,-0.00018053,5.18226,10.3643,10.3595,-0.000180542,10.3621,213,8.99232,8.46722,0.51375,10146
5.34026e-08,6.67096e-08,-2.95325e-06,-3.27243e-05,-3.41603e-05,-0.0034982,10.3449,10.3406,0.000206807,5.17299,10.3462,10.3393,0.000206758,10.3425,213,8.2885,8.00709,0.51375,10147
6.55434e-08,3.69803e-08,-2.95357e-06,-3.41984e-05,-2.74358e-05,-0.00350047,10.35,10.3702,0.00291628,5.18373,10.3704,10.3498,0.00291407,10.3572,213,7.95243,8.98501,0.51375,10148
1.7318e-07,9.7747e-07,-2.91178e-06,-7.37311e-05,-0.000736416,-0.00311396,9.08384,7.10567,0.00853514,4.5395,9.08572,7.1056,0.00672215,8.26871,213,5.3438,1.142,0.51375,10149
-3.54943e-07,3.07848e-08,-2.93636e-06,-9.92585e-05,-2.62583e-05,-0.00348124,10.0141,10.2321,-0.0813255,5.15726,10.2332,10.0131,-0.0813603,10.2063,213,16.3937,9.09913,0.51375,10150
-4.8861e-07,3.9278e-08,-2.96132e-06,-0.000164179,-2.64709e-05,-0.00350194,9.54813,9.95919,-0.41534,5.1936,9.96617,9.54683,-0.421027,10.184,213,17.4529,8.7341,0.51375,10151
-4.29288e-07,2.15902e-08,-2.95259e-06,-0.000138375,-2.5361e-05,-0.00345903,9.8466,10.184,-0.0658119,5.12562,10.1848,9.84645,-0.0664516,10.0863,213,17.0229,9.4265,0.51375,10152
-3.22371e-07,1.3247e-08,-2.92087e-06,-9.19457e-05,-2.40832e-05,-0.00346943,10.1035,10.3061,0.02149,5.14232,10.3061,10.1035,0.0214828,10.1848,213,15.9638,9.79153,0.51375,10153
2.80684e-07,1.18363e-06,-2.84888e-06,-9.0157e-05,-0.000875383,-0.00303817,8.78234,6.43838,-0.0176856,4.40123,8.78448,6.43653,-0.0179781,7.89483,213,4.04193,0.849583,0.519375,10154
-6.64671e-07,1.9325e-07,-2.95919e-06,-0.00019557,-5.79004e-05,-0.00339566,9.59226,10.0032,0.0397641,4.98265,10.0051,9.59042,0.0397521,9.76459,213,18.3168,5.10619,0.51375,10155
-1.12818e-06,2.39348e-07,-2.8357e-06,-0.000879469,-7.62999e-05,-0.00303739,6.45964,8.85716,0.0181029,4.42081,8.85925,6.45802,0.0176356,7.91892,213,19.2584,4.50158,0.51375,10156
-1.15507e-06,2.09309e-07,-2.85321e-06,-0.000889741,-5.9074e-05,-0.00304165,6.43752,8.91712,0.0139188,4.45175,8.91727,6.43751,0.0137747,7.95883,213,19.2584,4.98908,0.519375,10157
-1.15167e-06,2.09072e-07,-2.81904e-06,-0.000885986,-5.93267e-05,-0.00304407,6.45216,8.9198,0.010126,4.45501,8.91998,6.45215,0.00995817,7.96808,213,19.2584,4.99211,0.508125,10158
-4.78944e-11,1.07753e-06,-2.87884e-06,-1.19143e-05,-0.00081551,-0.00310346,9.24685,6.84806,0.018344,4.61437,9.24697,6.84806,0.0182249,8.29371,213,10.05,1.06179,0.508125,10159
-3.00346e-11,1.0806e-06,-2.91369e-06,-1.16267e-05,-0.000819075,-0.00310406,9.23541,6.82512,0.00426237,4.61567,9.23551,6.82512,0.00416079,8.29317,213,10.05,1.06179,0.519375,10160
5.68372e-10,6.05954e-07,-2.96413e-06,-1.73772e-05,-0.000137393,-0.00345075,10.2625,9.90424,0.0136294,5.12445,10.2625,9.90423,0.0136217,10.0745,213,10.05,2.12359,0.51375,10161
5.40752e-09,1.06126e-06,-2.89548e-06,-2.6892e-05,-0.000798424,-0.00310165,9.21459,6.91151,0.036222,4.59047,9.21673,6.90979,0.0357969,8.27234,213,9.58864,1.06179,0.51375,10162
-5.39865e-09,1.05994e-06,-2.89992e-06,-2.70504e-05,-0.000804434,-0.00309813,9.20571,6.88516,0.0383172,4.58484,9.20758,6.88369,0.0379133,8.25675,213,10.5114,1.06179,0.51375,10163
-1.59087e-09,-7.63164e-07,-2.92351e-06,-2.16359e-05,-0.000718809,-0.00315027,9.34525,7.26414,0.00605103,4.67094,9.34792,7.26148,0.00604459,8.49309,213,10.5114,18.4382,0.51375,10164
3.79287e-10,-7.82399e-07,-2.90614e-06,-3.71517e-06,-0.000736845,-0.00315001,9.39921,7.21076,0.00729007,4.6961,9.39935,7.21077,0.00714102,8.51163,213,10.05,18.4382,0.508125,10165
-2.56666e-10,-4.06944e-07,-2.96411e-06,-1.29676e-05,-5.32172e-05,-0.00349627,10.4122,10.2921,0.0143131,5.19895,10.4122,10.2921,0.0143092,10.3384,213,10.05,17.3764,0.51375,10166
3.85772e-10,-7.84149e-07,-2.94147e-06,-3.41586e-06,-0.00073881,-0.00314658,9.40567,7.21047,0.0230778,4.69151,9.40588,7.21048,0.0228564,8.50067,213,10.05,18.4382,0.519375,10167
1.09946e-06,5.01842e-08,-2.87301e-06,-0.00081457,-2.93178e-05,-0.00309117,6.83764,9.18168,0.0418215,4.57094,9.18338,6.83626,0.0415037,8.22349,213,0.959135,8.40997,0.51375,10168
1.11393e-06,3.65854e-08,-2.88425e-06,-0.000822367,-2.64855e-05,-0.00309804,6.77681,9.15258,-0.0162475,4.58465,9.15286,6.77671,-0.0164328,8.24224,213,0.959135,8.89747,0.519375,10169
-6.98845e-08,1.09248e-07,-2.95101e-06,-3.74516e-05,-4.33458e-05,-0.003491,10.3095,10.2919,0.000410766,5.15499,10.3104,10.291,0.000410718,10.3003,213,12.3236,6.90881,0.51375,10170
-8.48568e-08,7.10278e-08,-2.95133e-06,-3.99681e-05,-3.55627e-05,-0.00349366,10.3103,10.3234,0.000758004,5.162,10.3248,10.3089,0.000757918,10.3161,213,12.6761,7.86162,0.51375,10171
-1.05414e-07,1.13843e-07,-2.94859e-06,-4.44889e-05,-4.49018e-05,-0.00348665,10.2751,10.2738,-3.30452e-05,5.14064,10.2812,10.2677,-3.31148e-05,10.2745,213,13.2023,6.77144,0.51375,10172
4.38265e-09,-1.37443e-07,-2.94717e-06,-2.66872e-05,-5.28809e-05,-0.00348843,10.3537,10.2755,0.0201492,5.16678,10.3537,10.2755,0.0201437,10.2947,213,9.89992,14.3913,0.51375,10173
2.28111e-08,-1.75703e-07,-2.9422e-06,-2.7391e-05,-6.29794e-05,-0.00348566,10.3261,10.2199,0.00295344,5.16162,10.3262,10.2198,0.0029511,10.2705,213,9.21268,15.0669,0.51375,10174
4.8376e-08,-1.4271e-07,-2.94514e-06,-2.98983e-05,-5.28909e-05,-0.00349566,10.311,10.2423,-0.0345835,5.17311,10.3116,10.2417,-0.0346028,10.3114,213,8.34945,14.53,0.51375,10175
2.89329e-08,-1.10956e-07,-2.94938e-06,-2.92938e-05,-4.43592e-05,-0.00348941,10.3616,10.3166,0.0328574,5.16449,10.3618,10.3164,0.0328135,10.3064,213,9.03669,13.8544,0.51375,10176
1.1309e-06,2.4087e-07,-2.83862e-06,-0.000884279,-7.12452e-05,-0.00303813,6.4437,8.87067,0.014296,4.42929,8.87283,6.44159,0.0142445,7.92768,213,0.841591,4.50462,0.51375,10177
1.15175e-06,2.10904e-07,-2.82419e-06,-0.000886484,-5.9889e-05,-0.00304182,6.45445,8.9219,0.0206303,4.45083,8.92209,6.45445,0.0204353,7.96007,213,0.841591,4.99212,0.508125,10178
-3.56181e-09,-1.37399e-07,-2.94752e-06,-2.66499e-05,-5.29804e-05,-0.00348989,10.349,10.2704,0.0109477,5.16904,10.349,10.2704,0.0109428,10.299,213,10.1999,14.3913,0.51375,10179
-2.19898e-08,-1.75918e-07,-2.94462e-06,-2.83123e-05,-6.29469e-05,-0.00348479,10.3233,10.2199,0.00548992,5.15895,10.3234,10.2198,0.00548424,10.2665,213,10.8873,15.0669,0.51375,10180
-4.84539e-08,-1.43513e-07,-2.94739e-06,-3.11499e-05,-5.36556e-05,-0.00348576,10.3322,10.2651,0.0199687,5.15625,10.3325,10.2649,0.0199566,10.2789,213,11.7506,14.53,0.51375,10181
-2.82828e-08,-1.10802e-07,-2.95025e-06,-2.97424e-05,-4.48072e-05,-0.00349738,10.3321,10.2872,-0.0190163,5.17563,10.3322,10.2871,-0.0190441,10.3288,213,11.0632,13.8544,0.51375,10182
1.11056e-06,3.66994e-08,-2.84944e-06,-0.00081887,-2.68437e-05,-0.00309648,6.80218,9.16644,0.00335079,4.58174,9.16668,6.80209,0.00320447,8.2397,213,0.959135,8.89747,0.508125,10183
6.17323e-07,3.17725e-08,-2.97101e-06,-0.000160848,-2.42349e-05,-0.00343724,9.78092,10.1887,0.000649784,5.09413,10.1889,9.78075,0.000634241,9.99044,213,2.01827,9.01995,0.51375,10184
6.65684e-07,1.94887e-07,-2.95941e-06,-0.000195864,-5.75755e-05,-0.0033961,9.59009,10.0029,0.0371583,4.98325,10.0037,9.58935,0.0371445,9.76595,213,1.78318,5.10924,0.51375,10185
1.15529e-06,2.10991e-07,-2.85836e-06,-0.000890457,-5.95556e-05,-0.00304189,6.43083,8.91113,0.00865299,4.45138,8.91128,6.43083,0.00850745,7.95796,213,0.841591,4.99212,0.519375,10186
1.34766e-06,-2.24729e-09,-2.78965e-06,-0.000989786,-2.49848e-05,-0.00301628,6.01016,8.89016,-0.0390686,4.46472,8.89027,6.01016,-0.039179,7.89381,213,0.710212,10.4421,0.51375,10187
7.59432e-07,-1.82449e-08,-2.96708e-06,-0.000379119,-2.44815e-05,-0.00332718,8.78538,9.844,-0.0147965,4.9295,9.84412,8.78534,-0.0148771,9.37456,213,1.52042,11.1343,0.51375,10188
1.33442e-06,-1.53742e-08,-2.77959e-06,-0.000972829,-2.82679e-05,-0.00302246,6.08453,8.90411,-0.0337835,4.46948,8.90507,6.08369,-0.0339001,7.91487,213,0.710212,10.9296,0.508125,10189
1.33857e-06,-1.517e-08,-2.81361e-06,-0.000976823,-2.78441e-05,-0.00302165,6.06386,8.89664,-0.0400923,4.46904,8.89775,6.06298,-0.0403274,7.91124,213,0.710212,10.9296,0.519375,10190
1.11329e-06,2.42354e-08,-2.86671e-06,-0.000824411,-2.51497e-05,-0.00308979,6.79465,9.1805,0.0323263,4.57438,9.18079,6.79465,0.0320351,8.21968,213,0.959135,9.38497,0.51375,10191
-6.5012e-08,1.24427e-06,-2.84201e-06,-3.30365e-05,-0.000994484,-0.00300338,8.86658,5.99659,-0.000123961,4.43415,8.8678,5.99574,-0.000493203,7.83742,213,12.3103,0.811382,0.51375,10192
-5.06131e-08,1.25758e-06,-2.85815e-06,-2.92521e-05,-0.000984462,-0.00300681,8.9108,6.05942,0.0225621,4.44448,8.91117,6.0594,0.0222175,7.86109,213,11.8489,0.811382,0.519375,10193
6.31324e-08,1.24318e-06,-2.84215e-06,-3.79408e-05,-0.000987436,-0.0030052,8.85297,6.01866,-0.00452219,4.4304,8.85588,6.01615,-0.00491518,7.8368,213,7.78971,0.811382,0.51375,10194
4.88281e-08,1.26469e-06,-2.85475e-06,-2.66436e-05,-0.000983552,-0.00300735,8.92804,6.0716,0.0304198,4.44904,8.92827,6.07159,0.0301947,7.86876,213,8.25108,0.811382,0.519375,10195
-1.72643e-07,1.68064e-07,-2.94168e-06,-6.19869e-05,-6.00561e-05,-0.00346982,10.1727,10.1784,3.66873e-05,5.09235,10.1847,10.1664,3.64313e-05,10.1755,213,14.5361,5.68958,0.51375,10196
-2.35432e-07,1.77647e-07,-2.93559e-06,-8.59616e-05,-6.17724e-05,-0.00345657,10.0616,10.1338,0.000115766,5.06767,10.1355,10.0599,0.000115752,10.0978,213,15.3851,5.48319,0.51375,10197
1.15685e-06,-1.28041e-07,-2.85218e-06,-0.000877863,-4.35021e-05,-0.00305516,6.5172,9.00782,0.0178126,4.49599,9.00943,6.51595,0.0174542,8.04063,213,0.853224,14.0361,0.51375,10198
1.16676e-06,-1.4552e-07,-2.86383e-06,-0.000891749,-3.84211e-05,-0.00305106,6.4608,9.00804,0.0150803,4.49669,9.00827,6.46076,0.0148855,8.0287,213,0.853224,14.5236,0.519375,10199
4.97427e-07,5.21166e-09,-2.95136e-06,-0.000150678,-2.38686e-05,-0.00345091,9.80136,10.1799,-0.0500639,5.11534,10.1806,9.80065,-0.0500691,10.0461,213,2.6714,10.0871,0.51375,10200
5.3437e-07,-1.92315e-08,-2.95961e-06,-0.000199877,-2.36977e-05,-0.00341431,9.61506,10.141,0.0197215,5.06068,10.1411,9.61502,0.0197006,9.86886,213,2.42247,11.1443,0.51375,10201
3.9748e-07,-2.00343e-08,-2.93504e-06,-0.000114399,-2.24799e-05,-0.00346309,9.99047,10.2649,-0.00563419,5.13615,10.2667,9.98871,-0.00563429,10.1362,213,3.3304,11.1544,0.51375,10202
1.14338e-06,1.82667e-07,-2.84872e-06,-0.000876202,-6.59413e-05,-0.00304433,6.49058,8.90927,0.018549,4.44621,8.91058,6.48965,0.0181658,7.96292,213,0.841591,5.47962,0.51375,10203
-1.14753e-06,1.81446e-07,-2.84039e-06,-0.000875967,-6.05293e-05,-0.00303941,6.5248,8.95895,0.0667633,4.44662,8.95995,6.52386,0.0667021,7.95988,213,19.2584,5.47961,0.51375,10204
-3.88926e-07,-8.73787e-08,-2.9348e-06,-0.000137427,-3.43811e-05,-0.00343999,9.88424,10.1918,0.0258531,5.08307,10.192,9.88408,0.025839,10.0157,213,16.7641,13.4161,0.51375,10205
-1.17986e-06,-1.44687e-07,-2.85575e-06,-0.000903107,-3.70287e-05,-0.00304874,6.40264,8.98795,-0.00224657,4.49529,8.98815,6.40263,-0.00243305,8.01687,213,19.2584,14.5109,0.519375,10206
-4.81726e-08,7.52871e-07,-2.96451e-06,-2.77443e-05,-0.000272869,-0.00337622,10.0054,9.27364,0.00990072,4.99794,10.0057,9.27334,0.0098604,9.65055,213,11.8024,1.62276,0.51375,10207
-5.05666e-08,1.25353e-06,-2.82429e-06,-2.93419e-05,-0.00097945,-0.00301255,8.90792,6.07178,0.0028089,4.45286,8.90824,6.07176,0.00251561,7.88014,213,11.8489,0.811382,0.508125,10208
4.88557e-08,1.26067e-06,-2.82089e-06,-2.68706e-05,-0.000978671,-0.00301333,8.92316,6.08197,0.00837367,4.45761,8.92338,6.08196,0.00816076,7.88815,213,8.25108,0.811382,0.508125,10209
4.72971e-08,7.62146e-07,-2.96959e-06,-2.64534e-05,-0.000281083,-0.00337106,10.0036,9.24353,0.0197157,4.99199,10.0037,9.24349,0.0196891,9.62643,213,8.29761,1.62276,0.51375,10210
6.70672e-07,6.25062e-09,-2.97751e-06,-0.000262213,-2.37395e-05,-0.00338539,9.32288,10.0347,-2.08849e-05,5.01746,10.0348,9.3228,-8.07074e-05,9.69852,213,1.76935,10.0771,0.51375,10211
-3.24502e-07,-1.19373e-07,-2.93006e-06,-0.000109027,-4.28645e-05,-0.00345524,9.9838,10.1813,-0.00488784,5.09339,10.1819,9.98321,-0.00488877,10.0889,213,16.234,14.2232,0.51375,10212
1.6482e-08,4.91166e-07,-2.9375e-06,-2.58866e-05,-0.000169672,-0.00343326,10.1632,9.73397,-0.0080911,5.08574,10.1634,9.73378,-0.00809236,9.96363,213,9.42062,2.7126,0.51375,10213
1.60446e-08,3.30784e-07,-2.92783e-06,-2.5457e-05,-0.000108372,-0.00346411,10.2624,10.0149,-0.00224848,5.13233,10.2624,10.0149,-0.00224899,10.1432,213,9.42062,3.8703,0.51375,10214
3.25648e-08,3.98058e-07,-2.93204e-06,-2.71316e-05,-0.000125787,-0.00345386,10.2294,9.93488,0.00031288,5.11459,10.2295,9.9348,0.000312285,10.0851,213,8.79125,3.30162,0.51375,10215
6.73974e-07,-1.32819e-07,-2.96479e-06,-0.00019157,-3.79539e-05,-0.0034077,9.64197,10.1005,0.0415942,5.02958,10.1007,9.64175,0.0415729,9.83771,213,1.80645,14.4222,0.51375,10216
1.16317e-06,-1.45603e-07,-2.82955e-06,-0.000887707,-3.88204e-05,-0.00305128,6.48374,9.01773,0.0253262,4.49641,9.01798,6.48367,0.0251513,8.03138,213,0.853224,14.5236,0.508125,10217
-2.60474e-07,3.20907e-07,-2.91464e-06,-9.0871e-05,-0.000108945,-0.00342999,9.96609,9.91214,-0.00140976,4.9881,9.97479,9.90345,-0.00141099,9.94072,213,15.809,3.77034,0.51375,10218
-2.56574e-07,4.37518e-07,-2.91685e-06,-8.94903e-05,-0.000147882,-0.00340964,9.91562,9.74131,0.00471133,4.95637,9.91745,9.73949,0.00470519,9.82497,213,15.8271,2.84997,0.51375,10219
-1.85269e-07,2.91742e-07,-2.92296e-06,-6.4308e-05,-9.85877e-05,-0.00344888,10.1025,10.0002,-0.000669952,5.05316,10.1056,9.99705,-0.0006704,10.0525,213,14.8124,4.1247,0.51375,10220
-1.82727e-07,3.96447e-07,-2.91795e-06,-6.31977e-05,-0.000131987,-0.00343317,10.0533,9.84794,-0.00633873,5.03083,10.0553,9.84592,-0.00633888,9.95861,213,14.8306,3.20432,0.51375,10221
-9.87046e-08,4.50065e-08,-2.95029e-06,-4.53051e-05,-2.78179e-05,-0.00349509,10.2975,10.3497,-0.000393476,5.17524,10.3501,10.2971,-0.000393486,10.3241,213,12.9712,8.66978,0.51375,10222
-1.56108e-07,3.14703e-08,-2.94256e-06,-6.04327e-05,-2.61152e-05,-0.00348778,10.2329,10.3353,0.00200716,5.16676,10.3355,10.2327,0.0020068,10.2825,213,14.0412,9.12916,0.51375,10223
-1.39191e-07,5.19418e-08,-2.94618e-06,-5.52031e-05,-2.90604e-05,-0.00348921,10.2512,10.3292,0.000420603,5.16473,10.3299,10.2505,0.000420543,10.29,213,13.7888,8.39217,0.51375,10224
-5.27503e-08,6.74489e-08,-2.95293e-06,-3.27951e-05,-3.44085e-05,-0.00349797,10.3444,10.3396,0.000655401,5.17279,10.3462,10.3378,0.000655284,10.3413,213,11.801,7.99458,0.51375,10225
-4.01036e-08,1.04319e-07,-2.95226e-06,-3.03446e-05,-4.24781e-05,-0.00349517,10.3428,10.3066,7.14972e-05,5.17141,10.3429,10.3065,7.14582e-05,10.3247,213,11.4485,7.04177,0.51375,10226
-7.60884e-08,2.2142e-07,-2.94086e-06,-3.80665e-05,-7.5249e-05,-0.00347423,10.2577,10.1468,0.000546769,5.12877,10.2581,10.1464,0.000546665,10.2022,213,12.5886,4.99913,0.51375,10227
-6.82155e-08,2.94994e-07,-2.93593e-06,-3.53552e-05,-0.000103383,-0.00346133,10.2261,10.023,-0.000680765,5.11354,10.2264,10.0227,-0.000682177,10.1268,213,12.4064,4.17974,0.51375,10228
-1.00345e-07,3.06027e-07,-2.93427e-06,-4.31685e-05,-0.000106954,-0.00345553,10.1851,9.99469,-0.00104123,5.09317,10.1853,9.9945,-0.00104165,10.0923,213,13.225,4.04094,0.51375,10229
-1.10404e-07,2.2981e-07,-2.93901e-06,-4.64578e-05,-7.89413e-05,-0.00346819,10.2135,10.1166,-0.000603039,5.10723,10.2138,10.1163,-0.000603321,10.166,213,13.4072,4.86033,0.51375,10230
4.98408e-07,-1.73381e-07,-2.93868e-06,-0.000185951,-6.01085e-05,-0.00340489,9.61519,9.99084,0.0064132,4.99297,9.99235,9.61368,0.00641144,9.80209,213,2.55047,15.2531,0.51375,10231
3.45339e-07,-1.66516e-07,-2.92435e-06,-0.000113762,-5.98649e-05,-0.00344355,9.93781,10.0987,-0.00184224,5.05173,10.1016,9.93489,-0.00184247,10.0211,213,3.58023,15.1536,0.51375,10232
3.66637e-07,-2.28927e-07,-2.9216e-06,-0.00012089,-7.4854e-05,-0.00343167,9.88405,10.0215,0.00111897,5.01268,10.0265,9.87907,0.00111718,9.95248,213,3.29449,16.084,0.51375,10233
-3.24169e-07,1.13473e-06,-2.83308e-06,-8.40084e-05,-0.000956478,-0.00299515,8.69942,6.09503,0.00944512,4.34565,8.70046,6.09428,0.00916139,7.72526,213,16.5194,0.849583,0.51375,10234
-2.8173e-07,1.16132e-06,-2.85738e-06,-9.21554e-05,-0.000882149,-0.00302625,8.78636,6.42816,0.027856,4.38093,8.78953,6.42518,0.0276642,7.85139,213,16.0581,0.849583,0.519375,10235
2.80367e-07,-8.46287e-07,-2.88847e-06,-7.82276e-05,-0.000888623,-0.0030324,8.83208,6.41299,0.0136594,4.41007,8.83359,6.41169,0.0134493,7.89297,213,3.58056,18.6504,0.51375,10236
3.22848e-07,1.15939e-06,-2.82636e-06,-8.38508e-05,-0.000943133,-0.00297586,8.8039,6.23888,0.17105,4.35048,8.83795,6.23889,0.136985,7.73612,213,3.58056,0.849583,0.51375,10237
-2.8386e-07,-8.34545e-07,-2.89057e-06,-7.88455e-05,-0.000880199,-0.00303598,8.84363,6.45153,0.0163606,4.41365,8.84366,6.45151,0.0163554,7.90743,213,16.5194,18.6504,0.51375,10238
-1.36562e-07,1.39012e-07,-2.94527e-06,-5.28284e-05,-5.29039e-05,-0.00347826,10.225,10.2247,-0.000196877,5.11641,10.2326,10.2171,-0.000197017,10.2251,213,13.8709,6.2283,0.51375,10239
6.83152e-08,2.95682e-07,-2.93581e-06,-3.62965e-05,-0.000100903,-0.00346206,10.2259,10.033,-0.000277237,5.11323,10.2262,10.0327,-0.000277652,10.1311,213,7.69172,4.18172,0.51375,10240
1.00399e-07,3.06969e-07,-2.93334e-06,-4.27217e-05,-0.000104288,-0.00345698,10.1917,10.0079,-0.000137509,5.09611,10.1921,10.0075,-0.000137529,10.1012,213,6.87459,4.04116,0.51375,10241
1.09817e-07,2.31117e-07,-2.93847e-06,-4.48449e-05,-7.89497e-05,-0.00346899,10.2209,10.1191,-0.000436477,5.11117,10.2219,10.1181,-0.000436719,10.1708,213,6.69222,4.86036,0.51375,10242
7.6539e-08,2.22897e-07,-2.94052e-06,-3.78864e-05,-7.58688e-05,-0.00347408,10.2574,10.144,9.49564e-05,5.12889,10.2579,10.1435,9.48632e-05,10.2011,213,7.50935,5.00092,0.51375,10243
-4.30687e-07,6.27241e-07,-2.94469e-06,-0.00016311,-0.000230177,-0.0033439,9.40986,9.20966,-0.0850448,4.75773,9.43042,9.1891,-0.0850448,9.39713,213,17.4173,1.81212,0.51375,10244
-6.03196e-07,1.03427e-06,-2.90064e-06,-0.000264969,-0.000771527,-0.00299537,8.17121,6.6591,0.0207731,4.07881,8.17766,6.65339,0.0200383,7.51237,213,18.3297,0.962542,0.51375,10245
-6.10791e-07,5.83307e-07,-2.97268e-06,-0.000198377,-0.000213347,-0.00331949,9.32353,9.27885,0.00677769,4.66424,9.33522,9.26719,0.00674947,9.29464,213,18.3048,1.92508,0.51375,10246
-1.3806e-07,6.55171e-07,-2.96097e-06,-5.20021e-05,-0.000251097,-0.00338059,9.9112,9.31689,-0.0248966,4.97592,9.92689,9.30127,-0.0249603,9.65425,213,14.1419,1.8548,0.51375,10247
-1.74341e-07,1.00186e-06,-2.90491e-06,-7.09931e-05,-0.000742898,-0.00310478,9.10924,7.10355,0.0531603,4.52927,9.1111,7.10229,0.0525577,8.23988,213,14.7562,1.14198,0.51375,10248
-1.2843e-07,1.30294e-06,-2.8251e-06,-4.24952e-05,-0.000983316,-0.0030157,8.80472,5.9963,-0.0705124,4.43779,8.8049,5.9963,-0.0706882,7.85724,213,14.0494,0.712826,0.51375,10249
-1.04593e-07,8.3646e-07,-2.94341e-06,-3.64361e-05,-0.000352334,-0.00332904,9.84947,8.90649,0.0208129,4.91463,9.85002,8.906,0.0207555,9.3929,213,13.4351,1.42565,0.51375,10250
-2.40778e-07,6.02571e-07,-2.95955e-06,-7.94943e-05,-0.000208494,-0.00339448,9.83302,9.44794,-0.0624602,4.94796,9.83345,9.44752,-0.0624704,9.70871,213,15.6893,1.99156,0.51375,10251
-1.81621e-07,5.34572e-07,-2.95331e-06,-6.34429e-05,-0.000144302,-0.00342682,10.0329,9.79149,-0.00707633,5.02087,10.0347,9.78974,-0.00708255,9.92155,213,14.8487,2.28395,0.51375,10252
-4.88336e-07,2.60423e-07,-2.9334e-06,-0.000181153,-9.12262e-05,-0.00339326,9.58292,9.85136,-0.00547107,4.9302,9.85491,9.57938,-0.00548079,9.72555,213,17.5612,4.25957,0.51375,10253
-3.37804e-07,2.57152e-07,-2.92321e-06,-0.000109835,-9.11348e-05,-0.00342602,9.91841,9.97423,0.0193606,4.98242,9.98419,9.90845,0.0193575,9.92718,213,16.5198,4.34639,0.51375,10254
-3.61425e-07,3.52063e-07,-2.91528e-06,-0.000113006,-0.000112801,-0.00341581,9.86254,9.86315,0.00341668,4.94445,9.89231,9.83338,0.00341622,9.85956,213,16.8055,3.41598,0.51375,10255
6.51185e-07,-6.14525e-08,-2.9448e-06,-0.000295545,-3.11192e-05,-0.00336333,9.16423,9.95356,0.0066769,4.97345,9.95357,9.16423,0.00666881,9.57666,213,2.00133,12.652,0.51375,10256
5.65369e-07,-8.8545e-08,-2.94217e-06,-0.000210752,-3.72095e-05,-0.00341185,9.51305,10.0311,-0.042481,5.03692,10.0314,9.51279,-0.0424831,9.82483,213,2.30616,13.5156,0.51375,10257
9.36286e-07,-6.46755e-08,-2.92465e-06,-0.00046136,-3.40332e-05,-0.00327889,8.40193,9.67753,-0.00859937,4.84327,9.67785,8.40171,-0.00869657,9.11572,213,1.19679,12.6951,0.51375,10258
7.84035e-07,-9.8077e-08,-2.95057e-06,-0.000316305,-4.38557e-05,-0.00334728,9.0469,9.86019,-0.000791467,4.93156,9.86227,9.04487,-0.000842882,9.48088,213,1.50162,13.5586,0.51375,10259
-4.52458e-07,1.87866e-07,-2.93049e-06,-0.000168249,-6.44229e-05,-0.00341473,9.6793,9.98923,-0.0116813,5.00193,9.99217,9.67637,-0.0116952,9.84976,213,17.2754,5.19301,0.51375,10260
2.06426e-08,8.44445e-08,-2.95281e-06,-2.91589e-05,-3.7907e-05,-0.00349825,10.3548,10.3287,-0.000661722,5.17777,10.3549,10.3286,-0.000661758,10.3424,213,9.34518,7.52203,0.51375,10261
4.09446e-08,1.02958e-07,-2.95148e-06,-3.03534e-05,-4.28696e-05,-0.003495,10.342,10.3047,-0.00019437,5.1712,10.3422,10.3045,-0.000194402,10.3236,213,8.64136,7.06189,0.51375,10262
2.55195e-07,4.38262e-07,-2.91554e-06,-9.03009e-05,-0.000155969,-0.00340833,9.88915,9.69312,-0.0154153,4.95404,9.89261,9.68972,-0.0154741,9.80821,213,4.27286,2.84999,0.51375,10263
2.60686e-07,3.20135e-07,-2.9189e-06,-9.17364e-05,-0.000105642,-0.00343095,9.96817,9.92666,0.000358991,4.98924,9.97883,9.916,0.000358037,9.94721,213,4.29089,3.77046,0.51375,10264
3.61849e-07,3.52064e-07,-2.91538e-06,-0.000115389,-0.000112444,-0.00341496,9.85172,9.86051,0.00226685,4.94068,9.88363,9.8286,0.00226623,9.85396,213,3.29449,3.41598,0.51375,10265
-3.54269e-08,-9.21069e-07,-2.90171e-06,-1.9388e-05,-0.000849428,-0.00309025,9.13515,6.65742,-0.0316112,4.58393,9.1362,6.65642,-0.0316567,8.21368,213,11.4289,18.6819,0.51375,10266
-2.32657e-08,-4.53696e-07,-2.96428e-06,-2.59778e-05,-0.000123436,-0.00346832,10.1981,9.90715,-0.0775912,5.13923,10.2008,9.90445,-0.077623,10.1335,213,10.9675,17.6201,0.51375,10267
1.42709e-06,-8.36855e-08,-2.7691e-06,-0.00107342,-3.95568e-05,-0.00296843,5.60079,8.68695,-0.0559522,4.37177,8.68733,5.60067,-0.0562103,7.6804,213,0.548396,13.1725,0.51375,10268
3.24198e-07,-8.47747e-07,-2.9099e-06,-0.000118081,-0.00083297,-0.00303898,8.74235,6.60835,0.0232483,4.35969,8.74249,6.60835,0.0231086,7.87234,213,3.1192,18.6504,0.519375,10269
-1.21223e-07,7.96314e-08,-2.9482e-06,-5.00371e-05,-3.74164e-05,-0.00348771,10.2613,10.299,-0.000408132,5.1504,10.3004,10.2599,-0.000408188,10.2806,213,13.4973,7.5796,0.51375,10270
-3.76838e-07,1.38396e-07,-2.93294e-06,-0.000132256,-4.97393e-05,-0.00343696,9.87696,10.1233,0.0121651,5.05558,10.1233,9.87694,0.0121643,9.99024,213,16.7365,6.11038,0.51375,10271
-3.17238e-07,1.86449e-07,-2.92647e-06,-0.000104196,-6.28339e-05,-0.00344698,9.97639,10.0999,-0.00207424,5.05226,10.1024,9.97385,-0.00207437,10.0408,213,16.234,5.2768,0.51375,10272
-1.98179e-08,8.5251e-08,-2.95298e-06,-2.93966e-05,-3.79246e-05,-0.00349828,10.3532,10.3278,-0.00165513,5.17743,10.3532,10.3278,-0.00165514,10.3422,213,10.7487,7.51197,0.51375,10273
-2.70622e-07,1.32091e-07,-2.93522e-06,-9.20232e-05,-4.99684e-05,-0.00345989,10.0512,10.1768,-0.00211388,5.08954,10.177,10.051,-0.00211402,10.1167,213,15.7776,6.28657,0.51375,10274
4.34632e-07,2.25604e-08,-2.94129e-06,-0.000143404,-2.5496e-05,-0.00344517,9.85916,10.2111,0.00312647,5.10409,10.2113,9.85895,0.00312599,10.0366,213,3.0774,9.38497,0.51375,10275
3.56402e-07,-3.53633e-09,-2.92546e-06,-0.000107315,-2.35737e-05,-0.00346319,10.0303,10.2803,0.0127628,5.13381,10.2804,10.0302,0.0127622,10.1449,213,3.73053,10.4521,0.51375,10276
3.17474e-07,1.42542e-08,-2.91973e-06,-0.000101208,-2.38184e-05,-0.00346925,10.0479,10.2789,-0.0059403,5.14251,10.2791,10.0477,-0.00594127,10.1713,213,4.13654,9.75,0.51375,10277
2.63741e-07,-2.07839e-07,-2.92175e-06,-9.26419e-05,-7.38029e-05,-0.00344513,10.0186,10.0749,0.0112027,5.03647,10.0841,10.0094,0.0112018,10.0358,213,4.30697,15.721,0.51375,10278
3.23319e-07,-1.1925e-07,-2.93169e-06,-0.000106325,-4.33967e-05,-0.0034561,9.99602,10.1839,-0.00330232,5.09412,10.1849,9.99498,-0.00330261,10.0946,213,3.86597,14.2232,0.51375,10279
2.46674e-07,-1.49276e-07,-2.93125e-06,-8.81518e-05,-5.63612e-05,-0.00345717,10.0634,10.1583,0.00663224,5.07708,10.1608,10.0609,0.00662888,10.1046,213,4.59271,14.7906,0.51375,10280
4.52447e-07,1.88344e-07,-2.92959e-06,-0.000168801,-6.52304e-05,-0.00341328,9.67795,9.98711,-0.00705533,4.9979,9.98875,9.67631,-0.00705728,9.84331,213,2.82458,5.19302,0.51375,10281
5.52865e-07,1.3687e-07,-2.94414e-06,-0.000215238,-5.17334e-05,-0.0033991,9.47981,9.96789,-0.0242553,4.99612,9.96798,9.47972,-0.0242568,9.75727,213,2.32212,6.04788,0.51375,10282
4.44596e-07,9.62774e-08,-2.94664e-06,-0.000164066,-3.78726e-05,-0.00342867,9.74506,10.1218,-2.04158e-05,5.06091,10.1218,9.74506,-2.5116e-05,9.93881,213,2.86105,6.98653,0.51375,10283
3.77997e-07,1.36314e-07,-2.93015e-06,-0.00012807,-4.98953e-05,-0.00344083,9.88998,10.1233,0.0011511,5.06116,10.1235,9.8898,0.00115068,10.0075,213,3.36351,6.13166,0.51375,10284
-1.10696e-07,2.42596e-08,-2.94882e-06,-4.94607e-05,-2.55362e-05,-0.00349439,10.2813,10.3527,-0.00204067,5.17739,10.3527,10.2813,-0.00204076,10.3192,213,13.2067,9.4395,0.51375,10285
-6.56542e-08,3.73472e-08,-2.9527e-06,-3.46465e-05,-2.68053e-05,-0.00350109,10.3472,10.3706,-0.000370715,5.18561,10.3708,10.347,-0.000370723,10.3593,213,12.1367,8.98011,0.51375,10286
-8.19278e-08,1.20158e-08,-2.95189e-06,-3.99865e-05,-2.58496e-05,-0.00349845,10.3258,10.368,0.0020227,5.18299,10.368,10.3258,0.00202265,10.3449,213,12.5633,9.92326,0.51375,10287
2.78053e-07,1.28656e-07,-2.93238e-06,-9.39661e-05,-4.95726e-05,-0.0034605,10.0386,10.1711,-0.0108146,5.09125,10.1717,10.038,-0.0108148,10.1163,213,4.2808,6.34262,0.51375,10288
2.3616e-07,1.77674e-07,-2.93444e-06,-8.48603e-05,-6.1411e-05,-0.0034573,10.0672,10.1372,0.000248767,5.06968,10.1396,10.0648,0.000248521,10.1022,213,4.71445,5.48368,0.51375,10289
3.16551e-07,1.86206e-07,-2.92532e-06,-0.000102794,-6.34154e-05,-0.00344735,9.98202,10.0996,-0.00171976,5.05208,10.1024,9.97917,-0.00171998,10.0431,213,3.86597,5.2768,0.51375,10290
-1.13387e-07,1.32979e-06,-2.79962e-06,-3.6155e-05,-0.00106179,-0.0029589,8.775,5.71341,0.0503789,4.36298,8.7757,5.71335,0.0497429,7.66801,213,13.588,0.712826,0.508125,10291
-1.13307e-07,1.33432e-06,-2.83287e-06,-3.6358e-05,-0.00106784,-0.00294249,8.8066,5.72755,0.131584,4.33837,8.8075,5.72747,0.130761,7.61891,213,13.588,0.712826,0.519375,10292
-5.95198e-08,4.04773e-07,-2.93383e-06,-3.36779e-05,-0.00013261,-0.00344692,10.1894,9.89412,0.000644264,5.09443,10.1895,9.89402,0.000643442,10.0444,213,12.1755,3.2613,0.51375,10293
-9.16521e-08,4.0589e-07,-2.934e-06,-3.93917e-05,-0.000133138,-0.0034437,10.1628,9.88296,0.000682589,5.08114,10.163,9.88279,0.000681865,10.0251,213,13.0428,3.22155,0.51375,10294
9.18615e-08,4.035e-07,-2.93436e-06,-4.03179e-05,-0.000127006,-0.00344643,10.1679,9.90913,0.000405104,5.08392,10.1682,9.90879,0.000404182,10.0406,213,7.05697,3.22197,0.51375,10295
5.92199e-08,4.01877e-07,-2.93634e-06,-3.41964e-05,-0.000125575,-0.00345009,10.1985,9.92575,0.00183495,5.09836,10.1986,9.92569,0.00183431,10.0631,213,7.92411,3.26179,0.51375,10296
-7.13288e-07,2.58345e-07,-2.95486e-06,-0.000257138,-9.15752e-05,-0.00335323,9.24096,9.73518,-0.0011036,4.86819,9.73524,9.24093,-0.00113713,9.49888,213,18.5027,4.27418,0.51375,10297
9.85204e-08,5.64284e-07,-2.94194e-06,-4.06665e-05,-0.000240991,-0.00338018,10.0144,9.41637,0.0456624,4.98469,10.015,9.41577,0.0456369,9.68368,213,6.86088,2.32386,0.51375,10298
7.44434e-08,7.93011e-07,-2.96354e-06,-3.82742e-05,-0.000309571,-0.00335495,9.89159,9.08175,-0.00893291,4.95032,9.89168,9.08168,-0.00895482,9.52151,213,7.4812,1.52425,0.51375,10299
1.09807e-07,8.30584e-07,-2.9574e-06,-3.14346e-05,-0.000345715,-0.00333348,9.88716,8.94901,0.0303144,4.92847,9.88722,8.94898,0.0302818,9.42292,213,6.6648,1.42575,0.51375,10300
-7.37277e-08,7.84423e-07,-2.95659e-06,-3.4586e-05,-0.000306202,-0.00335802,9.91526,9.10446,-0.00543357,4.96062,9.91575,9.10402,-0.00548521,9.5413,213,12.6188,1.52421,0.51375,10301
-6.76855e-08,5.48357e-07,-2.94006e-06,-3.41734e-05,-0.000209929,-0.00340909,10.0611,9.5365,-0.0132419,5.03737,10.0615,9.53611,-0.0132501,9.8226,213,12.4226,2.42216,0.51375,10302
-9.81977e-08,5.69501e-07,-2.93622e-06,-3.92669e-05,-0.000242949,-0.00338315,10.0073,9.39933,0.0255917,4.99139,10.0083,9.39833,0.0255572,9.69218,213,13.239,2.3236,0.51375,10303
1.08443e-07,1.64192e-07,-2.94525e-06,-4.46651e-05,-6.15005e-05,-0.00347783,10.2493,10.1991,0.00107523,5.12486,10.2508,10.1976,0.00107513,10.2232,213,6.78256,5.82434,0.51375,10304
-3.31984e-08,4.0129e-07,-2.93167e-06,-2.7834e-05,-0.000131913,-0.00345041,10.2166,9.90588,-8.68155e-05,5.10834,10.2166,9.90588,-8.73519e-05,10.0649,213,11.3082,3.30105,0.51375,10305
-4.09253e-08,5.42902e-07,-2.94278e-06,-2.76941e-05,-0.00020967,-0.00340541,10.1135,9.57034,0.0308239,5.04137,10.1135,9.57034,0.030787,9.82242,213,11.5553,2.46191,0.51375,10306
4.04406e-08,5.38809e-07,-2.94408e-06,-2.77834e-05,-0.000216146,-0.0034026,10.1014,9.5391,0.0273117,5.0371,10.1015,9.53907,0.0272656,9.80511,213,8.54443,2.46219,0.51375,10307
6.76478e-08,5.45574e-07,-2.94557e-06,-3.41129e-05,-0.000220004,-0.00340294,10.0491,9.49418,-0.00712018,5.02821,10.0493,9.494,-0.00712677,9.79059,213,7.67729,2.42237,0.51375,10308
-5.12719e-07,3.44939e-07,-2.92469e-06,-0.000219619,-0.00010541,-0.00335722,9.41544,9.75636,0.0494846,4.85475,9.75899,9.41282,0.0494768,9.54114,213,17.7471,3.43043,0.51375,10309
-1.07863e-07,1.64035e-07,-2.945e-06,-4.56604e-05,-6.09808e-05,-0.00347765,10.2454,10.1996,0.000619245,5.12292,10.2465,10.1985,0.000619129,10.222,213,13.3065,5.81368,0.51375,10310
-7.64641e-07,7.38833e-07,-2.96959e-06,-0.000398006,-0.000399541,-0.00312737,8.11327,8.10868,-0.0341028,4.0966,8.1591,8.06285,-0.0341057,8.14551,213,18.7848,1.44693,0.51375,10311
-1.01397e-06,9.75818e-07,-2.84988e-06,-0.000582099,-0.000562314,-0.00293572,7.07144,7.1305,0.0456978,3.56989,7.18503,7.01734,0.0452604,7.05742,213,19.2648,0.968771,0.51375,10312
-7.86406e-07,1.39492e-06,-2.76112e-06,-0.000387299,-0.0011099,-0.00276428,7.07777,4.92074,-0.0177004,3.54994,7.0812,4.91828,-0.018669,6.30317,213,18.8097,0.484385,0.51375,10313
8.14844e-08,1.11814e-08,-2.95327e-06,-3.92597e-05,-2.58624e-05,-0.00349949,10.3269,10.3669,-0.00211612,5.18452,10.3669,10.3269,-0.00211693,10.3491,213,7.53125,9.92571,0.51375,10314
1.10927e-07,2.27731e-08,-2.95103e-06,-4.84928e-05,-2.59763e-05,-0.00349415,10.2866,10.3539,0.00110703,5.17641,10.3539,10.2866,0.00110687,10.3193,213,6.86002,9.46939,0.51375,10315
-3.80293e-08,1.24445e-06,-2.84443e-06,-2.95778e-05,-0.000937656,-0.0030392,8.95451,6.24383,-0.0294394,4.49228,8.95483,6.24378,-0.0297173,7.98213,213,11.3876,0.811382,0.51375,10316
3.85153e-08,1.24572e-06,-2.84001e-06,-2.64451e-05,-0.00093224,-0.00304224,8.98133,6.27746,-0.0210536,4.50183,8.98228,6.27684,-0.0213786,8.00165,213,8.71244,0.811382,0.51375,10317
4.60133e-07,-5.902e-08,-2.94407e-06,-0.000167611,-2.85473e-05,-0.00343087,9.74582,10.1609,0.00475515,5.07821,10.1612,9.74556,0.00474712,9.95513,213,2.80587,12.6089,0.51375,10318
5.95073e-10,6.83069e-08,-2.95349e-06,-2.85414e-05,-3.23338e-05,-0.00350133,10.3665,10.3552,5.2383e-06,5.18325,10.3665,10.3552,5.20868e-06,10.3608,213,10.049,7.98216,0.51375,10319
2.38957e-07,6.02972e-08,-2.93563e-06,-8.09868e-05,-3.19388e-05,-0.00347431,10.1306,10.277,0.00128012,5.13812,10.2775,10.1301,0.00127973,10.2033,213,4.7995,8.08113,0.51375,10320
1.88181e-07,6.67083e-08,-2.94344e-06,-6.78494e-05,-3.32814e-05,-0.00348066,10.1871,10.2903,-0.000401635,5.14549,10.2906,10.1868,-0.000401677,10.2395,213,5.47584,7.90586,0.51375,10321
1.82894e-07,4.60697e-08,-2.94305e-06,-6.79456e-05,-2.87553e-05,-0.00348276,10.1942,10.3112,0.000709039,5.15536,10.3114,10.194,0.000708846,10.2525,213,5.57971,8.57855,0.51375,10322
2.33935e-07,4.03929e-08,-2.93442e-06,-8.23059e-05,-2.79536e-05,-0.00347594,10.13,10.2922,-0.000279143,5.1465,10.2927,10.1295,-0.000279278,10.2124,213,4.90336,8.75383,0.51375,10323
-2.42834e-07,2.34004e-07,-2.9273e-06,-8.65218e-05,-8.28367e-05,-0.00344579,10.0255,10.0365,-0.00213552,5.02788,10.0536,10.0084,-0.00213565,10.0332,213,15.5232,4.70075,0.51375,10324
-4.86126e-08,2.12966e-07,-2.9425e-06,-3.02248e-05,-7.25943e-05,-0.00347972,10.297,10.1705,1.68137e-05,5.14865,10.2973,10.1702,1.66855e-05,10.2343,213,11.77,5.13793,0.51375,10325
3.4408e-07,3.18821e-08,-2.92682e-06,-0.000108027,-2.63461e-05,-0.00346377,10.0153,10.2591,-0.00186328,5.13089,10.2599,10.0145,-0.00186364,10.1413,213,3.80813,9.05282,0.51375,10326
1.37667e-06,8.74127e-08,-2.78953e-06,-0.0010073,-3.85231e-05,-0.00299951,5.91258,8.80445,-0.0342992,4.4197,8.80479,5.91255,-0.0346095,7.80605,213,0.59625,7.37657,0.51375,10327
-5.71404e-07,-7.84282e-07,-2.92301e-06,-0.000258223,-0.000716596,-0.00302554,8.29125,6.92298,0.0305995,4.13685,8.30354,6.91146,0.0298281,7.67297,213,18.3297,18.5375,0.51375,10328
4.85046e-08,2.1421e-07,-2.94136e-06,-3.10798e-05,-7.34122e-05,-0.00347885,10.2919,10.1656,8.65317e-05,5.14605,10.2922,10.1653,8.6425e-05,10.2293,213,8.32648,5.14147,0.51375,10329
1.65674e-07,9.745e-08,-2.94494e-06,-6.23706e-05,-4.14423e-05,-0.0034792,10.1996,10.262,5.95163e-05,5.1314,10.2629,10.1987,5.94615e-05,10.2309,213,5.78426,7.09838,0.51375,10330
1.37662e-07,1.3871e-07,-2.94547e-06,-5.43575e-05,-5.2682e-05,-0.00347758,10.2184,10.2234,-0.00018206,5.11483,10.2295,10.2123,-0.000182139,10.2211,213,6.21792,6.23944,0.51375,10331
1.06697e-07,1.12937e-07,-2.94923e-06,-4.43583e-05,-4.49542e-05,-0.00348667,10.2756,10.2739,9.99208e-05,5.14039,10.2809,10.2686,9.9859e-05,10.2747,213,6.8753,6.793,0.51375,10332
-2.75266e-07,2.66406e-08,-2.92564e-06,-9.4603e-05,-2.6099e-05,-0.00348367,10.0356,10.2401,-0.0810113,5.16151,10.242,10.0338,-0.0810624,10.2205,213,15.5668,9.24704,0.51375,10333
4.30267e-07,6.26576e-07,-2.94983e-06,-0.000158942,-0.000227684,-0.0033394,9.45772,9.25251,-0.0361847,4.75647,9.47674,9.23352,-0.0362096,9.3937,213,2.68271,1.81212,0.51375,10334
1.8532e-07,2.90852e-07,-2.92806e-06,-6.51141e-05,-9.62775e-05,-0.00344986,10.1018,10.0088,-0.00190141,5.05337,10.1048,10.0058,-0.00190235,10.0576,213,5.2873,4.12494,0.51375,10335
2.43764e-07,2.33231e-07,-2.92962e-06,-8.67053e-05,-8.21829e-05,-0.00344601,10.0258,10.0393,-0.00197772,5.02827,10.0546,10.0105,-0.00197826,10.0346,213,4.57664,4.70087,0.51375,10336
6.87454e-07,4.35574e-07,-2.9467e-06,-0.000268007,-0.000150347,-0.00331893,9.09643,9.44766,-0.0108054,4.74107,9.47127,9.07287,-0.0108637,9.28935,213,1.60328,2.68514,0.51375,10337
1.05842e-06,5.78811e-07,-2.87317e-06,-0.00083823,-0.000231843,-0.00297584,6.41541,8.22552,0.0344773,4.09689,8.22788,6.41342,0.0341053,7.45406,213,0.847604,1.93754,0.51375,10338
6.036e-07,5.76142e-07,-2.96897e-06,-0.000198059,-0.000209662,-0.0033219,9.32955,9.29491,0.00465338,4.67427,9.35317,9.2713,0.00463994,9.30787,213,1.79521,1.92508,0.51375,10339
-9.49856e-08,1.32659e-06,-2.8158e-06,-4.05932e-05,-0.00105033,-0.00297399,8.73613,5.72198,-0.0202905,4.3788,8.7369,5.72162,-0.0206991,7.70589,213,13.1267,0.712826,0.51375,10340
1.00928e-07,1.30732e-06,-2.82262e-06,-4.24859e-05,-0.0010397,-0.00297886,8.74277,5.76602,-0.0225252,4.38357,8.74398,5.76544,-0.0231571,7.72147,213,6.97331,0.712873,0.51375,10341
-1.95154e-08,1.25728e-07,-2.95125e-06,-2.85687e-05,-4.96984e-05,-0.00349235,10.3398,10.2767,0.000113416,5.16985,10.3398,10.2767,0.000113375,10.3083,213,10.748,6.5879,0.51375,10342
-2.36824e-08,1.80119e-07,-2.94689e-06,-2.88201e-05,-6.50472e-05,-0.00348418,10.3155,10.2073,0.000944852,5.15733,10.3156,10.2072,0.000944778,10.2609,213,10.9088,5.63598,0.51375,10343
3.28139e-11,1.50214e-07,-2.94871e-06,-2.70145e-05,-5.64468e-05,-0.0034897,10.3364,10.2485,-1.17693e-05,5.16821,10.3364,10.2485,-1.18225e-05,10.2927,213,10.0475,6.13403,0.51375,10344
-6.85593e-07,4.35827e-07,-2.95104e-06,-0.00026917,-0.000153984,-0.00331649,9.08548,9.42932,-0.0109972,4.73009,9.44915,9.06569,-0.0110382,9.27441,213,18.4967,2.68498,0.51375,10345
-1.08641e-06,-4.23094e-07,-2.86072e-06,-0.000829166,-0.000177795,-0.00301383,6.52215,8.46655,0.000775634,4.23353,8.46772,6.5211,0.000657346,7.68103,213,19.2524,17.5625,0.51375,10346
5.31747e-07,6.065e-08,-2.95717e-06,-0.000193289,-3.16023e-05,-0.00342015,9.61202,10.0947,-0.0204085,5.05762,10.0948,9.61191,-0.0204161,9.88263,213,2.43966,8.00324,0.51375,10347
4.03548e-07,7.17243e-08,-2.94427e-06,-0.000134935,-3.38741e-05,-0.00344508,9.88503,10.1867,0.00399473,5.0919,10.1878,9.88395,0.00399073,10.0353,213,3.17039,7.67109,0.51375,10348
7.51016e-08,1.57724e-07,-2.94695e-06,-3.78732e-05,-5.95551e-05,-0.00348257,10.2823,10.2175,-0.000396404,5.14162,10.2829,10.2169,-0.000396479,10.2505,213,7.59969,5.9649,0.51375,10349
6.81383e-10,-2.74566e-07,-2.94294e-06,-2.44383e-05,-0.000102148,-0.00347312,10.2598,10.0279,-0.0347457,5.14728,10.2598,10.0279,-0.0347512,10.1806,213,10.0506,16.2899,0.51375,10350
-1.57628e-08,-3.35838e-07,-2.94864e-06,-2.67607e-05,-0.000122583,-0.00346786,10.1974,9.91137,-0.0745431,5.13601,10.1975,9.91132,-0.0745597,10.132,213,10.6919,16.8638,0.51375,10351
6.24506e-07,9.76754e-08,-2.94546e-06,-0.000280589,-3.76669e-05,-0.00336383,9.23395,9.95909,0.0302501,4.96449,9.95921,9.23383,0.0302422,9.58689,213,2.07678,6.96984,0.51375,10352
1.39574e-07,6.66626e-07,-2.95411e-06,-4.74042e-05,-0.000238017,-0.00338739,9.95945,9.39046,-0.0106426,4.99102,9.97122,9.37886,-0.0108193,9.69944,213,5.95801,1.85487,0.51375,10353
-1.32502e-07,3.46024e-07,-2.92623e-06,-5.11625e-05,-0.000118082,-0.0034438,10.1378,9.93803,0.0105243,5.06397,10.1385,9.93737,0.0105213,10.0289,213,13.9276,3.67312,0.51375,10354
-3.66816e-07,-2.29822e-07,-2.92009e-06,-0.000120935,-7.49036e-05,-0.00343176,9.88335,10.0208,0.000293422,5.01341,10.0271,9.87705,0.000292425,9.95263,213,16.8055,16.084,0.51375,10355
-5.31386e-07,-2.3022e-07,-2.93734e-06,-0.00023402,-7.2833e-05,-0.00336937,9.39156,9.87272,0.0323226,4.92054,9.87336,9.39095,0.0322902,9.60895,213,17.7465,16.0702,0.51375,10356
5.31959e-07,-2.30319e-07,-2.93778e-06,-0.000234412,-7.44007e-05,-0.00336972,9.38307,9.86071,0.0239511,4.9185,9.86095,9.38284,0.0239442,9.60688,213,2.35352,16.0702,0.51375,10357
-1.25423e-06,3.22354e-07,-2.7862e-06,-0.000972393,-9.32475e-05,-0.00298541,5.99864,8.62296,-0.0103546,4.31718,8.62364,5.99832,-0.0107149,7.66658,213,19.4443,3.67244,0.51375,10358
-3.02466e-07,-9.04433e-08,-2.93694e-06,-0.000106395,-3.74351e-05,-0.00345949,10.0037,10.2096,-0.00549329,5.10755,10.2096,10.0037,-0.00549749,10.1137,213,16.0496,13.4904,0.51375,10359
-3.56181e-07,-6.16624e-08,-2.9426e-06,-0.000120338,-3.20742e-05,-0.00346419,9.92,10.1835,-0.061635,5.12324,10.1847,9.919,-0.0618103,10.1163,213,16.552,12.6569,0.51375,10360
-2.80802e-07,-6.58249e-08,-2.9404e-06,-9.32259e-05,-3.33025e-05,-0.00346872,10.0687,10.2475,-0.00744087,5.12749,10.2475,10.0687,-0.0074436,10.1667,213,15.8372,12.7942,0.51375,10361
4.62948e-07,4.46807e-07,-2.9145e-06,-0.00017533,-0.000165167,-0.00335623,9.50171,9.53205,0.00648309,4.77824,9.56293,9.47086,0.00645438,9.51077,213,2.54485,2.67053,0.51375,10362
-4.62908e-07,4.48396e-07,-2.91514e-06,-0.000175862,-0.000167074,-0.00335493,9.4965,9.52273,0.00672706,4.76883,9.54437,9.47489,0.0066994,9.50312,213,17.5552,2.67053,0.51375,10363
-7.01408e-07,-3.02636e-07,-2.95173e-06,-0.000284233,-0.000104743,-0.0033383,9.07974,9.61553,-0.0368891,4.83319,9.62945,9.06586,-0.0369268,9.39726,213,18.4961,16.8157,0.51375,10364
3.05521e-07,-8.95156e-08,-2.93471e-06,-0.000103874,-3.81463e-05,-0.00346145,10.0108,10.207,-0.0118267,5.10946,10.2071,10.0107,-0.0118269,10.1222,213,4.05041,13.4905,0.51375,10365
3.65298e-07,-6.12118e-08,-2.93762e-06,-0.000120858,-3.16566e-05,-0.00345333,9.95258,10.2188,0.00490568,5.10705,10.219,9.95237,0.00490412,10.0834,213,3.52036,12.6833,0.51375,10366
2.85459e-07,-6.47745e-08,-2.93692e-06,-9.44342e-05,-3.32057e-05,-0.00346853,10.0621,10.2449,-0.00978042,5.12734,10.2449,10.0621,-0.00978075,10.1645,213,4.2628,12.7942,0.51375,10367
5.16602e-07,3.45497e-07,-2.925e-06,-0.000223893,-0.000108567,-0.00335714,9.37936,9.72361,0.0263802,4.84945,9.72527,9.3777,0.0263785,9.52986,213,2.35292,3.43059,0.51375,10368
-1.79394e-07,2.22232e-07,-2.93559e-06,-6.31906e-05,-8.00159e-05,-0.00345846,10.138,10.0877,0.00281639,5.06919,10.1412,10.0845,0.00281588,10.1102,213,14.6742,4.90714,0.51375,10369
7.6703e-07,1.41223e-07,-2.94093e-06,-0.000284638,-5.38191e-05,-0.00336049,9.16838,9.85739,-0.0132773,4.93719,9.86106,9.16475,-0.0133146,9.54528,213,1.53784,6.03119,0.51375,10370
8.84744e-07,1.00579e-07,-2.92506e-06,-0.000384042,-3.89438e-05,-0.00331289,8.75453,9.78468,0.0117124,4.88672,9.78506,8.75422,0.0116335,9.30095,213,1.2925,6.95314,0.51375,10371
3.7581e-07,5.06702e-08,-2.93472e-06,-0.000117822,-2.84851e-05,-0.00345761,9.96774,10.2344,-0.00177359,5.11895,10.2361,9.96601,-0.00177361,10.1056,213,3.47973,8.35565,0.51375,10372
3.02847e-07,6.58239e-08,-2.93299e-06,-9.98887e-05,-3.2814e-05,-0.00346533,10.0399,10.2402,-0.00615874,5.12392,10.2417,10.0384,-0.00615881,10.1477,213,4.08768,7.88204,0.51375,10373
4.1852e-08,-9.32831e-07,-2.9177e-06,-2.22815e-05,-0.000900975,-0.0030512,9.07771,6.45475,0.0361633,4.52101,9.07794,6.45475,0.0359297,8.05731,213,8.20976,18.6819,0.519375,10374
3.28858e-08,-9.20279e-07,-2.90356e-06,-2.22379e-05,-0.000855669,-0.00308567,9.11235,6.6245,-0.0322216,4.57282,9.11302,6.62423,-0.0326168,8.18994,213,8.67112,18.6819,0.51375,10375
-4.0687e-08,-9.40967e-07,-2.87772e-06,-1.6554e-05,-0.000902907,-0.00305864,9.08325,6.43742,0.00238917,4.54075,9.08357,6.43742,0.00206531,8.0898,213,11.8902,18.6819,0.508125,10376
-1.30582e-07,4.71533e-07,-2.93154e-06,-5.10609e-05,-0.000151583,-0.00342832,10.0812,9.78117,-0.000135692,5.04102,10.0819,9.78046,-0.00013825,9.93476,213,13.9457,2.75275,0.51375,10377
1.31171e-06,-2.95558e-08,-2.81006e-06,-0.000960429,-3.06239e-05,-0.00302191,6.15515,8.93069,0.0014734,4.46571,8.93269,6.15335,0.00127265,7.91653,213,0.710212,11.4171,0.51375,10378
1.33318e-07,3.44195e-07,-2.92774e-06,-5.16726e-05,-0.000113055,-0.00344785,10.1377,9.95449,-0.000135827,5.06932,10.1385,9.95369,-0.000136546,10.0475,213,6.17213,3.67346,0.51375,10379
1.31597e-07,4.70956e-07,-2.93093e-06,-5.11699e-05,-0.000162382,-0.00342372,10.0609,9.72894,-0.00638207,5.03368,10.061,9.72885,-0.00638236,9.90548,213,6.1541,2.75298,0.51375,10380
-1.60227e-08,4.9249e-07,-2.93971e-06,-2.76602e-05,-0.000174302,-0.00342995,10.1481,9.71036,-0.00798439,5.07805,10.1481,9.71035,-0.00798625,9.94445,213,10.6791,2.71232,0.51375,10381
2.4338e-07,-1.06515e-07,-2.93949e-06,-8.81543e-05,-4.08143e-05,-0.00346466,10.0889,10.2302,0.00979276,5.11042,10.2306,10.0885,0.00979128,10.1505,213,4.69058,13.9034,0.51375,10382
-1.39516e-07,1.97292e-07,-2.94099e-06,-5.35288e-05,-7.05844e-05,-0.00346891,10.1942,10.1433,-0.000949627,5.09812,10.1953,10.1422,-0.000949886,10.1698,213,13.9717,5.27495,0.51375,10383
2.58027e-10,2.04851e-07,-2.94293e-06,-2.5835e-05,-7.28493e-05,-0.00348178,10.3167,10.1764,0.000485547,5.15811,10.3167,10.1764,0.000485433,10.2468,213,10.0488,5.28651,0.51375,10384
-2.41365e-07,-1.07366e-07,-2.94026e-06,-8.80469e-05,-4.11174e-05,-0.00346771,10.0789,10.219,-0.00960361,5.11433,10.219,10.0789,-0.00960454,10.1593,213,15.4094,13.9034,0.51375,10385
-2.47767e-07,-1.49312e-07,-2.93269e-06,-9.01733e-05,-5.42576e-05,-0.0034569,10.0585,10.1657,0.00855945,5.07951,10.1676,10.0567,0.00854469,10.104,213,15.5073,14.7906,0.51375,10386
-1.44961e-07,2.60501e-07,-2.93426e-06,-5.51741e-05,-9.00776e-05,-0.00345792,10.1571,10.0529,-0.000339728,5.0792,10.158,10.052,-0.00034043,10.1058,213,14.1098,4.49252,0.51375,10387
1.41108e-07,5.17299e-08,-2.94837e-06,-5.52181e-05,-2.97759e-05,-0.0034888,10.2502,10.3261,0.000663297,5.16283,10.3263,10.25,0.000663229,10.2877,213,6.25605,8.40327,0.51375,10388
4.69397e-07,-3.00457e-07,-2.93877e-06,-0.00018665,-0.000118786,-0.00337366,9.52385,9.72643,0.0103956,4.86216,9.73471,9.51558,0.0103865,9.61663,213,2.54485,16.8295,0.51375,10389
-2.81634e-07,1.1577e-06,-2.82339e-06,-9.17256e-05,-0.000877193,-0.00302314,8.81459,6.46991,0.0640904,4.37713,8.81802,6.4668,0.0637662,7.84742,213,16.0581,0.849583,0.508125,10390
-7.40525e-08,1.57303e-07,-2.94727e-06,-3.71072e-05,-5.86564e-05,-0.00348333,10.2874,10.2231,0.000208396,5.14394,10.2881,10.2224,0.000208313,10.2552,213,12.4844,5.95689,0.51375,10391
1.44092e-07,2.59335e-07,-2.93429e-06,-5.50413e-05,-8.96465e-05,-0.00345833,10.158,10.0547,-0.00108501,5.08004,10.159,10.0537,-0.0010861,10.1078,213,5.98976,4.49265,0.51375,10392
2.92913e-07,-2.39706e-08,-2.933e-06,-9.83618e-05,-2.39798e-05,-0.00347389,10.0502,10.2723,-0.0259717,5.1495,10.273,10.0495,-0.0259729,10.1891,213,4.25579,11.3681,0.51375,10393
3.35306e-07,-3.95111e-08,-2.93753e-06,-0.000106436,-2.76015e-05,-0.00346479,10.0179,10.2532,-0.0070947,5.13041,10.2537,10.0174,-0.00709537,10.1447,213,3.78556,11.9561,0.51375,10394
2.97859e-07,4.55721e-08,-2.9296e-06,-0.000101909,-2.8196e-05,-0.00346506,10.043,10.263,0.00374156,5.13003,10.2638,10.0422,0.00374094,10.1511,213,4.19155,8.55474,0.51375,10395
3.36962e-07,-3.14009e-07,-2.92773e-06,-0.000109118,-0.000126805,-0.0034079,9.86714,9.81434,0.0200134,4.93421,9.88844,9.79305,0.0200088,9.82108,213,3.43235,16.9424,0.51375,10396
3.24311e-07,-8.45417e-07,-2.87578e-06,-0.000118202,-0.000830007,-0.00303759,8.7554,6.63061,0.0408061,4.35761,8.75571,6.63061,0.040489,7.87086,213,3.1192,18.6504,0.508125,10397
1.08542e-06,-4.25635e-07,-2.85801e-06,-0.000828044,-0.000177021,-0.00301022,6.54297,8.48633,0.0290292,4.22966,8.48811,6.54143,0.0287871,7.67347,213,0.847604,17.5625,0.51375,10398
6.06255e-07,-4.04204e-07,-2.97195e-06,-0.000233806,-0.000113152,-0.00335335,9.31579,9.67596,0.00371536,4.83757,9.67886,9.3129,0.00370901,9.49746,213,1.79521,17.5749,0.51375,10399
7.5442e-07,-5.27103e-07,-2.94992e-06,-0.000432709,-0.000295022,-0.00316252,8.11961,8.53062,-0.0290893,4.28088,8.53261,8.11768,-0.029148,8.36202,213,1.31519,18.0531,0.51375,10400
7.5841e-07,7.32302e-07,-2.96162e-06,-0.000410215,-0.000405529,-0.00311691,8.05229,8.06628,-0.0273999,4.06808,8.10871,8.00991,-0.027447,8.08721,213,1.31519,1.44693,0.51375,10401
-3.38952e-07,4.76738e-07,-2.91561e-06,-0.000106145,-0.000183976,-0.00338076,9.7902,9.55787,0.0152199,4.8899,9.79502,9.55305,0.0152157,9.66109,213,16.6676,2.55757,0.51375,10402
-1.45223e-06,-5.77229e-07,-2.7342e-06,-0.0011491,-0.0002935,-0.00279396,4.88281,7.43683,-0.0272208,3.73635,7.44504,4.87504,-0.0276568,6.57581,213,19.7324,18.0406,0.51375,10403
-8.19177e-07,-3.77242e-08,-2.93531e-06,-0.000387877,-2.90077e-05,-0.00330279,8.79446,9.86572,0.0932347,4.88822,9.869,8.79186,0.0925551,9.28485,213,18.6919,11.8483,0.51375,10404
4.16156e-07,-4.29064e-07,-2.95885e-06,-0.000169057,-0.000133211,-0.00337977,9.56703,9.67403,-0.0171796,4.86558,9.71396,9.52713,-0.0172106,9.63911,213,2.68271,17.6879,0.51375,10405
7.29055e-10,-1.84991e-07,-2.942e-06,-2.54838e-05,-6.42326e-05,-0.00348803,10.3264,10.2107,-0.00955258,5.16798,10.3264,10.2107,-0.00955386,10.2786,213,10.05,15.2034,0.51375,10406
1.39372e-07,1.9747e-07,-2.94102e-06,-5.46815e-05,-7.00054e-05,-0.0034686,10.1899,10.1442,-0.000844947,5.09682,10.1928,10.1413,-0.000845128,10.168,213,6.12758,5.27546,0.51375,10407
1.74483e-07,1.67978e-07,-2.94101e-06,-6.36203e-05,-5.99904e-05,-0.00346909,10.1651,10.1759,-0.000498385,5.09155,10.1826,10.1584,-0.000498545,10.171,213,5.56294,5.69055,0.51375,10408
1.58848e-08,-3.37114e-07,-2.94745e-06,-2.52047e-05,-0.000126125,-0.00345461,10.2378,9.93654,0.000771876,5.11853,10.2378,9.93654,0.000759451,10.0898,213,9.40811,16.8638,0.51375,10409
2.18085e-08,-4.56643e-07,-2.96415e-06,-2.64168e-05,-0.000103549,-0.00346914,10.2559,10.0256,-0.0209315,5.14002,10.2591,10.0224,-0.0209587,10.1638,213,9.13248,17.6201,0.51375,10410
1.79975e-07,2.22107e-07,-2.9362e-06,-6.5177e-05,-7.93512e-05,-0.00345825,10.1285,10.0862,-7.82483e-05,5.06632,10.1326,10.0821,-7.88738e-05,10.1075,213,5.42512,4.90775,0.51375,10411
-2.96497e-07,4.58174e-08,-2.93304e-06,-9.76989e-05,-2.81558e-05,-0.00345817,10.0909,10.2985,0.059655,5.12058,10.3008,10.0887,0.0596158,10.1368,213,15.8951,8.54982,0.51375,10412
-2.34504e-07,4.06965e-08,-2.93202e-06,-8.11125e-05,-2.78101e-05,-0.00348071,10.1226,10.2817,-0.0254189,5.15428,10.2831,10.1212,-0.0254259,10.2285,213,15.1731,8.73988,0.51375,10413
-2.28697e-08,2.42417e-07,-2.93922e-06,-2.80864e-05,-8.1174e-05,-0.00347651,10.2932,10.1347,-0.000651583,5.14701,10.2934,10.1345,-0.000651763,10.2155,213,10.91,4.78846,0.51375,10414
1.14664e-07,1.3306e-06,-2.79427e-06,-2.79817e-05,-0.00106962,-0.00294877,8.83264,5.72329,0.113882,4.3598,8.83317,5.72308,0.11357,7.6541,213,6.51194,0.712873,0.508125,10415
1.14688e-07,1.33511e-06,-2.82751e-06,-2.80139e-05,-0.00107549,-0.0029505,8.80833,5.68155,0.0845079,4.36218,8.80869,5.68136,0.0843386,7.65575,213,6.51194,0.712873,0.519375,10416
2.34791e-07,1.29481e-08,-2.93346e-06,-8.97212e-05,-2.2811e-05,-0.00347619,10.0998,10.2996,-0.00901832,5.15432,10.2996,10.0998,-0.0090188,10.2102,213,4.94367,9.83552,0.51375,10417
2.58911e-07,-6.54626e-09,-2.93164e-06,-9.27591e-05,-2.44081e-05,-0.00347208,10.0891,10.2931,0.00153233,5.14587,10.2933,10.0889,0.00153188,10.1911,213,4.65592,10.6659,0.51375,10418
2.28618e-08,2.43341e-07,-2.93732e-06,-2.74957e-05,-8.20699e-05,-0.00347639,10.2943,10.1314,-0.000854752,5.14761,10.2944,10.1313,-0.00085488,10.2147,213,9.18824,4.79022,0.51375,10419
4.2758e-10,2.73717e-07,-2.93262e-06,-2.48077e-05,-8.73902e-05,-0.00347493,10.2986,10.1118,-0.000256547,5.14944,10.2986,10.1118,-0.0002567,10.2067,213,10.05,4.43898,0.51375,10420
1.44944e-06,-6.99764e-08,-2.78896e-06,-0.0011031,-2.87653e-05,-0.00293803,5.5487,8.75567,0.0712987,4.34283,8.75631,5.54872,0.0706445,7.60719,213,0.548396,12.685,0.519375,10421
1.44459e-06,-6.98385e-08,-2.75579e-06,-0.00109736,-2.84325e-05,-0.0029501,5.54681,8.73764,0.0162301,4.36117,8.73811,5.54681,0.0157587,7.64383,213,0.548396,12.685,0.508125,10422
2.02061e-07,2.51563e-08,-2.939e-06,-7.39578e-05,-2.56033e-05,-0.00348125,10.172,10.3163,0.00095242,5.15771,10.3164,10.1719,0.000951947,10.244,213,5.32708,9.33743,0.51375,10423
-6.69098e-08,-1.13165e-08,-2.95311e-06,-3.71399e-05,-2.48099e-05,-0.00350061,10.3397,10.3766,0.00102913,5.18782,10.3767,10.3396,0.00102874,10.3572,213,12.1686,10.8327,0.51375,10424
-5.18659e-08,1.21671e-08,-2.95355e-06,-3.26309e-05,-2.65898e-05,-0.00350247,10.356,10.374,-0.0017648,5.18789,10.374,10.356,-0.00176849,10.3668,213,11.7252,9.92226,0.51375,10425
-1.00941e-07,-1.05758e-08,-2.95068e-06,-4.52981e-05,-2.45407e-05,-0.00349666,10.3029,10.3649,0.000334569,5.18232,10.365,10.3028,0.000334498,10.3337,213,13.0067,10.8337,0.51375,10426
1.00104e-07,-1.11451e-08,-2.95242e-06,-4.42652e-05,-2.39613e-05,-0.0034984,10.3056,10.3662,-0.00527323,5.18576,10.3662,10.3056,-0.00527341,10.3413,213,7.09327,10.8337,0.51375,10427
5.18695e-08,1.14229e-08,-2.95414e-06,-3.23151e-05,-2.64308e-05,-0.00350338,10.3555,10.3731,-0.00585807,5.18948,10.3731,10.3555,-0.00586883,10.3702,213,8.36936,9.92471,0.51375,10428
6.65263e-08,-1.16248e-08,-2.95405e-06,-3.65829e-05,-2.44064e-05,-0.00349911,10.3492,10.3856,0.0133278,5.18618,10.3857,10.3491,0.0133102,10.3541,213,7.93138,10.8327,0.51375,10429
7.89976e-08,-1.04588e-06,-2.87386e-06,-3.43577e-05,-0.00103807,-0.00297541,8.80896,5.81281,0.0297113,4.39286,8.81315,5.81091,0.0274266,7.73469,213,6.94707,18.8284,0.51375,10430
9.2187e-08,-1.04754e-06,-2.85663e-06,-2.40805e-05,-0.00103175,-0.00295567,8.95487,5.9469,0.203866,4.37873,8.95829,5.94652,0.200829,7.70639,213,6.48571,18.8284,0.508125,10431
-9.17861e-08,-1.05531e-06,-2.89165e-06,-1.67057e-05,-0.00105109,-0.00296701,8.90298,5.81528,0.0961102,4.40344,8.90299,5.81528,0.0961049,7.73964,213,13.6143,18.8284,0.519375,10432
-8.25408e-08,-1.02967e-06,-2.88216e-06,-2.26044e-05,-0.00105699,-0.00304376,8.60449,5.51677,-0.413896,4.5175,8.61745,5.50746,-0.417545,7.95012,213,13.1529,18.8284,0.51375,10433
-1.29368e-06,6.11308e-08,-2.8038e-06,-0.00094671,-3.21489e-05,-0.00306529,6.0972,8.82724,-0.226903,4.52972,8.83153,6.09391,-0.22791,8.04778,213,19.3838,8.08965,0.51375,10434
-1.32282e-06,4.60208e-08,-2.80767e-06,-0.000961318,-2.92694e-05,-0.00303677,6.10683,8.88906,-0.0885586,4.48957,8.89043,6.10562,-0.088718,7.96084,213,19.3838,8.57715,0.519375,10435
2.44446e-07,8.31441e-08,-2.93676e-06,-8.0061e-05,-3.72667e-05,-0.00347223,10.126,10.2537,9.43368e-05,5.12703,10.2542,10.1255,9.41291e-05,10.1904,213,4.69563,7.40844,0.51375,10436
-1.3297e-06,-1.48137e-08,-2.77347e-06,-0.000959017,-2.72387e-05,-0.00302407,6.16773,8.94915,0.00338765,4.47478,8.95167,6.16648,0.00211758,7.93256,213,19.3898,10.9296,0.508125,10437
-1.30416e-06,-2.84963e-08,-2.80544e-06,-0.000946884,-2.95536e-05,-0.00299954,6.31289,9.05119,0.185563,4.43948,9.05944,6.30973,0.180473,7.87289,213,19.3898,11.4171,0.51375,10438
1.01076e-07,-1.01562e-06,-2.88593e-06,-3.49562e-05,-0.000940245,-0.00304434,8.89689,6.19454,-0.0863468,4.49211,8.89751,6.19429,-0.0867189,7.98357,213,6.02434,18.8284,0.51375,10439
-9.8077e-08,-1.02692e-06,-2.88847e-06,-3.15915e-05,-0.000950095,-0.00305697,8.8463,6.10449,-0.184696,4.51569,8.84664,6.1042,-0.184747,8.01991,213,14.0757,18.8284,0.51375,10440
-1.41143e-06,-7.62069e-07,-2.6989e-06,-0.00125768,-0.000533263,-0.00259485,4.08534,6.24779,0.0937975,3.08613,6.26229,4.0746,0.0900344,5.42031,213,19.7324,18.5281,0.508125,10441
-9.79495e-07,-7.45951e-07,-2.87503e-06,-0.000591736,-0.00047356,-0.00297521,7.16836,7.52112,0.053504,3.75237,7.55775,7.13224,0.0529989,7.3013,213,19.2648,18.5312,0.51375,10442
-1.418e-06,-7.62953e-07,-2.72812e-06,-0.0012678,-0.000536919,-0.00259122,4.02298,6.20471,0.0724836,3.07292,6.21699,4.01204,0.0711415,5.39277,213,19.7324,18.5281,0.519375,10443
-7.25928e-07,-1.12202e-06,-2.84798e-06,-0.000374758,-0.00106051,-0.00279771,7.20562,5.15861,-0.0270861,3.62145,7.21491,5.15024,-0.028001,6.46285,213,18.8097,19.0156,0.51375,10444
-2.92919e-08,-4.33908e-08,-2.95418e-06,-2.89772e-05,-2.94375e-05,-0.00350125,10.3733,10.3719,0.00833186,5.18313,10.3746,10.3707,0.0083082,10.3643,213,11.0462,12.015,0.51375,10445
-1.09323e-11,-5.92001e-08,-2.95375e-06,-2.89409e-05,-3.31082e-05,-0.00350231,10.3585,10.3461,-0.00976996,5.18418,10.3586,10.346,-0.00977219,10.3621,213,10.05,12.5109,0.51375,10446
2.92172e-08,-4.38109e-08,-2.95421e-06,-2.92011e-05,-2.95909e-05,-0.00350423,10.362,10.3608,-0.0112386,5.18684,10.3624,10.3604,-0.0112838,10.3727,213,9.05228,12.0153,0.51375,10447
-2.55666e-10,-2.9774e-08,-2.95466e-06,-2.97414e-05,-2.59497e-05,-0.00350343,10.3728,10.3841,0.00354052,5.19029,10.3841,10.3728,0.00353936,10.3749,213,10.0484,11.5194,0.51375,10448
-1.79755e-08,-7.78631e-08,-2.95263e-06,-2.86044e-05,-3.71863e-05,-0.00349814,10.3609,10.3353,0.00406066,5.17849,10.361,10.3352,0.00405317,10.3441,213,10.6901,13.045,0.51375,10449
4.15554e-10,-9.91075e-08,-2.95117e-06,-2.74365e-05,-4.16124e-05,-0.00349738,10.3564,10.3141,-0.00160553,5.17901,10.3564,10.3141,-0.0016081,10.3369,213,10.0499,13.5792,0.51375,10450
1.83779e-08,-7.81593e-08,-2.95258e-06,-2.85444e-05,-3.71447e-05,-0.00349901,10.3586,10.333,-0.000957447,5.17979,10.3586,10.333,-0.000976722,10.3468,213,9.40978,13.0451,0.51375,10451
1.26229e-06,-2.31608e-07,-2.79629e-06,-0.000959362,-7.52373e-05,-0.00300122,6.08585,8.72503,-0.00924176,4.36807,8.72643,6.08491,-0.00970241,7.76022,213,0.656279,15.8282,0.51375,10452
1.28064e-06,-2.69351e-07,-2.80443e-06,-0.000994797,-8.89782e-05,-0.00296265,5.94642,8.65036,0.0722271,4.28965,8.65115,5.94601,0.0718492,7.59697,213,0.656279,16.3157,0.519375,10453
8.07817e-07,-2.4191e-07,-2.93318e-06,-0.000299426,-6.55905e-05,-0.00333777,9.11206,9.81007,0.0423674,4.88388,9.8101,9.11206,0.0423432,9.43811,213,1.41256,16.0564,0.51375,10454
1.27635e-06,-2.69267e-07,-2.77108e-06,-0.000989852,-8.91741e-05,-0.00296384,5.97248,8.66106,0.0799687,4.29128,8.66201,5.97206,0.0794388,7.60326,213,0.656279,16.3157,0.508125,10455
4.20789e-07,-3.80713e-08,-2.94405e-06,-0.000137453,-2.65487e-05,-0.00344749,9.88513,10.2162,0.0044371,5.106,10.2164,9.8849,0.0044348,10.0503,213,3.07107,11.8817,0.51375,10456
-1.82157e-07,4.62446e-08,-2.93999e-06,-6.73228e-05,-2.81641e-05,-0.00348322,10.1984,10.3153,0.00174756,5.15722,10.3162,10.1975,0.00174755,10.2556,213,14.4795,8.56812,0.51375,10457
-9.40275e-07,-1.14329e-06,-2.76066e-06,-0.000617616,-0.00117114,-0.00259949,5.98822,4.33592,0.072183,2.96764,6.00455,4.3225,0.0692733,5.29843,213,19.2711,19.0156,0.508125,10458
-9.42657e-07,-1.14791e-06,-2.78986e-06,-0.00062229,-0.00117929,-0.00258208,5.98878,4.3261,0.13865,2.93477,6.00563,4.3118,0.136099,5.23244,213,19.2711,19.0156,0.519375,10459
-1.00673e-06,1.41076e-06,-2.69366e-06,-0.00062948,-0.00122527,-0.0025585,5.87347,4.09499,0.115186,2.88451,5.88253,4.08762,0.113502,5.11356,213,19.2711,0.484385,0.519375,10460
-1.00391e-06,1.40424e-06,-2.66475e-06,-0.000624598,-0.00121566,-0.00256881,5.90133,4.13697,0.097709,2.90902,5.91186,4.13032,0.0938282,5.16317,213,19.2711,0.484385,0.508125,10461
-1.37212e-06,-5.18694e-08,-2.79551e-06,-0.000975271,-3.42272e-05,-0.00303509,6.01055,8.81964,-0.138147,4.47893,8.8197,6.01051,-0.138164,7.9354,213,19.5021,12.1311,0.51375,10462
-1.36648e-06,8.76263e-08,-2.78868e-06,-0.000984396,-4.12848e-05,-0.00298258,6.09854,8.91379,0.13382,4.39088,8.91469,6.09853,0.132927,7.76655,213,19.5037,7.37656,0.51375,10463
1.3833e-06,1.06156e-07,-2.80337e-06,-0.00106221,-3.72944e-05,-0.00295268,5.72694,8.78639,0.0837509,4.35214,8.78729,5.72679,0.0830089,7.64798,213,0.59625,6.88907,0.519375,10464
1.37873e-06,1.0613e-07,-2.77004e-06,-0.00105677,-3.71569e-05,-0.00296574,5.71946,8.76308,0.0210465,4.37161,8.76375,5.71931,0.0205323,7.68728,213,0.59625,6.88907,0.508125,10465
1.72928e-07,1.11254e-08,-2.94389e-06,-6.37267e-05,-2.35634e-05,-0.00348772,10.2209,10.3408,1.08427e-05,5.1704,10.3408,10.2209,1.07951e-05,10.2814,213,5.75081,9.92104,0.51375,10466
-1.36651e-06,1.08176e-07,-2.7707e-06,-0.00102644,-4.20789e-05,-0.00297072,5.87473,8.81313,0.070908,4.37173,8.81375,5.87473,0.0702901,7.70641,213,19.5037,6.88906,0.508125,10467
-1.01854e-07,-5.64525e-08,-2.95093e-06,-4.36801e-05,-3.12163e-05,-0.00349378,10.3008,10.338,0.0019969,5.16826,10.3385,10.3003,0.00199517,10.3175,213,13.0732,12.465,0.51375,10468
-1.53155e-07,-4.2e-08,-2.94731e-06,-5.84059e-05,-2.88137e-05,-0.00348992,10.23,10.3184,-0.013283,5.16613,10.319,10.2295,-0.0132937,10.2878,213,14.0584,12.0223,0.51375,10469
-1.33822e-07,-7.6574e-08,-2.9486e-06,-5.18441e-05,-3.62407e-05,-0.00348974,10.2474,10.294,-0.0149419,5.15477,10.2946,10.2468,-0.0149662,10.2858,213,13.7699,13.0849,0.51375,10470
1.01451e-06,1.41648e-06,-2.68351e-06,-0.000649543,-0.00123337,-0.00254084,5.78029,4.03754,0.134621,2.82926,5.78816,4.03464,0.129646,5.0171,213,0.828946,0.484385,0.508125,10471
1.85081e-07,-1.92825e-07,-2.9312e-06,-6.57941e-05,-7.09576e-05,-0.0034637,10.134,10.1186,-0.00896599,5.07637,10.1438,10.1088,-0.00896617,10.1353,213,5.33643,15.4309,0.51375,10472
1.7329e-07,-1.38039e-07,-2.94089e-06,-6.26627e-05,-5.42365e-05,-0.00347784,10.1615,10.1866,-0.0330863,5.11144,10.1898,10.1583,-0.0330957,10.2072,213,5.58421,14.5417,0.51375,10473
1.00652e-07,-1.56971e-07,-2.94321e-06,-4.43694e-05,-5.77209e-05,-0.0034798,10.2569,10.217,0.00182983,5.12816,10.2581,10.2158,0.0018202,10.2352,213,6.9194,14.8495,0.51375,10474
7.42957e-08,-1.29871e-07,-2.94633e-06,-3.78307e-05,-4.84123e-05,-0.00348912,10.2971,10.2655,-0.00525613,5.15184,10.2984,10.2642,-0.00525946,10.2866,213,7.59527,14.3075,0.51375,10475
6.94699e-08,-1.72712e-07,-2.94285e-06,-3.63271e-05,-6.39068e-05,-0.00347731,10.2947,10.2123,0.0230939,5.13626,10.2956,10.2114,0.0230698,10.2307,213,7.67358,15.072,0.51375,10476
-6.7164e-07,-1.04864e-08,-2.95885e-06,-0.000271101,-2.27994e-05,-0.00340724,9.20182,9.94302,-0.159794,5.05291,9.94457,9.20174,-0.161259,9.75565,213,18.3225,10.8214,0.51375,10477
-1.8461e-07,-1.90569e-07,-2.93246e-06,-6.6663e-05,-6.52204e-05,-0.00346131,10.1545,10.1588,0.021209,5.07588,10.173,10.1403,0.0212079,10.1355,213,14.7636,15.4309,0.51375,10478
-1.72422e-07,-1.38984e-07,-2.94151e-06,-6.26027e-05,-5.26811e-05,-0.00347085,10.189,10.2186,0.0150848,5.10301,10.2211,10.1865,0.0150776,10.1888,213,14.5158,14.5417,0.51375,10479
-7.26306e-08,-7.08584e-08,-2.95194e-06,-3.78646e-05,-3.51423e-05,-0.00349473,10.3212,10.3293,0.00217326,5.16422,10.3306,10.32,0.00214131,10.3231,213,12.3785,12.8843,0.51375,10480
-5.23193e-08,-1.03672e-07,-2.9505e-06,-3.24279e-05,-4.34957e-05,-0.00349805,10.3176,10.2846,-0.0274934,5.17272,10.3179,10.2843,-0.0275371,10.3287,213,11.8373,13.7063,0.51375,10481
-4.11733e-08,-7.19248e-08,-2.95275e-06,-3.0944e-05,-3.58006e-05,-0.0034997,10.3459,10.3314,-0.00857611,5.17744,10.3463,10.331,-0.00859132,10.3473,213,11.4642,12.8969,0.51375,10482
-9.69609e-08,-3.25157e-08,-2.95147e-06,-4.2959e-05,-2.81855e-05,-0.00349717,10.3041,10.3482,-0.00696905,5.17768,10.3484,10.3039,-0.00697056,10.3332,213,12.9322,11.6597,0.51375,10483
-5.8494e-08,-4.28803e-08,-2.95348e-06,-3.53169e-05,-2.89885e-05,-0.0034978,10.3466,10.3655,0.010845,5.17743,10.3657,10.3464,0.0108342,10.3452,213,11.9604,12.0024,0.51375,10484
-4.84368e-07,-1.1952e-08,-2.96092e-06,-0.000162086,-2.25025e-05,-0.00337271,9.98347,10.4001,0.39951,5.00883,10.4092,9.9824,0.391513,9.81123,213,17.4205,10.8314,0.51375,10485
-3.52701e-07,-4.58302e-09,-2.93639e-06,-9.71986e-05,-2.37729e-05,-0.00349534,9.99,10.2092,-0.153709,5.18208,10.2102,9.98931,-0.153985,10.2555,213,16.3698,10.4937,0.51375,10486
-3.70688e-07,-2.14183e-08,-2.94598e-06,-0.00010612,-2.33563e-05,-0.00348201,9.97866,10.2257,-0.0986343,5.16349,10.2283,9.97616,-0.098703,10.2033,213,16.6102,11.2169,0.51375,10487
-9.11484e-08,-2.23992e-07,-2.94109e-06,-4.006e-05,-7.87437e-05,-0.00346937,10.2498,10.1343,0.0130579,5.11897,10.251,10.1331,0.0130452,10.1795,213,13.042,15.7977,0.51375,10488
-1.36365e-07,-1.83927e-07,-2.93896e-06,-5.43383e-05,-6.49054e-05,-0.00347554,10.1862,10.1547,-0.0263391,5.10806,10.1898,10.1511,-0.0263435,10.1969,213,13.9538,15.2858,0.51375,10489
-1.00657e-07,-1.58972e-07,-2.94393e-06,-4.29497e-05,-5.79699e-05,-0.00348289,10.255,10.2102,-0.0134765,5.13504,10.2566,10.2086,-0.0134889,10.2462,213,13.1806,14.8495,0.51375,10490
-2.61392e-07,-7.83882e-09,-2.92992e-06,-8.82107e-05,-2.47965e-05,-0.0034563,10.1659,10.3552,0.111898,5.12222,10.3562,10.165,0.111785,10.1502,213,15.4443,10.7074,0.51375,10491
-2.7477e-07,-2.60476e-08,-2.93588e-06,-8.98893e-05,-2.47458e-05,-0.0034673,10.1208,10.3153,0.0390288,5.13895,10.3169,10.1192,0.0390161,10.1805,213,15.6847,11.4306,0.51375,10492
-1.37948e-06,-6.87143e-08,-2.81152e-06,-0.00102223,-3.40548e-05,-0.00297527,5.91169,8.86147,0.08173,4.39034,8.86192,5.91173,0.0812398,7.73946,213,19.5021,12.6186,0.519375,10493
-6.31701e-08,-2.61699e-07,-2.94277e-06,-3.33513e-05,-8.78327e-05,-0.00347512,10.244,10.0814,-0.0299037,5.13729,10.2446,10.0808,-0.0299585,10.1937,213,12.3254,16.2174,0.51375,10494
-4.55581e-08,-2.0449e-07,-2.94439e-06,-3.00644e-05,-7.329e-05,-0.00349296,10.2538,10.1248,-0.0831655,5.16864,10.254,10.1246,-0.0832371,10.2732,213,11.7099,15.4917,0.51375,10495
-3.86464e-08,-2.62281e-07,-2.94325e-06,-2.84726e-05,-8.82256e-05,-0.00346406,10.3079,10.1295,0.0524345,5.12782,10.3081,10.1293,0.0524344,10.1674,213,11.5139,16.2021,0.51375,10496
-6.14037e-07,1.33989e-08,-2.96127e-06,-0.000182502,-2.34367e-05,-0.00342987,9.67353,10.1484,-0.0200916,5.08429,10.1484,9.67361,-0.0201818,9.9397,213,18.0736,9.76425,0.51375,10497
-1.68866e-07,-9.80091e-08,-2.94597e-06,-6.01933e-05,-4.05003e-05,-0.00348024,10.2127,10.2714,0.00356667,5.1342,10.2719,10.2122,0.00352577,10.2387,213,14.4179,13.6544,0.51375,10498
-6.32824e-08,-3.73469e-07,-2.94757e-06,-3.07882e-05,-0.000159697,-0.00342646,10.1862,9.80143,0.0498977,5.06898,10.1874,9.80074,0.0494191,9.95027,213,12.4507,17.1272,0.51375,10499
-8.83178e-08,-2.87728e-07,-2.9411e-06,-3.91252e-05,-0.000103664,-0.00346701,10.184,9.99135,-0.0484817,5.11687,10.1852,9.9902,-0.04853,10.1376,213,13.0626,16.5191,0.51375,10500
5.25684e-08,-1.03536e-07,-2.94969e-06,-3.13667e-05,-4.25943e-05,-0.00349023,10.3518,10.3183,0.0268287,5.16286,10.3525,10.3177,0.0267732,10.3083,213,8.2627,13.7063,0.51375,10501
4.1404e-08,-7.23921e-08,-2.95274e-06,-3.07995e-05,-3.54321e-05,-0.00349701,10.3565,10.3427,0.00959686,5.17357,10.3567,10.3426,0.00954825,10.3401,213,8.63579,12.8969,0.51375,10502
-1.92304e-07,-8.63982e-09,-2.93871e-06,-6.88814e-05,-2.4664e-05,-0.00348538,10.1931,10.3251,-0.00538325,5.16529,10.3252,10.193,-0.00538343,10.2651,213,14.588,10.7587,0.51375,10503
1.6971e-07,-9.75173e-08,-2.94541e-06,-6.22801e-05,-3.92472e-05,-0.00347846,10.2094,10.2782,0.0118771,5.13356,10.279,10.2086,0.0118725,10.2321,213,5.68208,13.6544,0.51375,10504
2.27707e-07,-7.96625e-08,-2.94165e-06,-8.1148e-05,-3.6479e-05,-0.00347399,10.1162,10.2496,-0.0116536,5.1308,10.2499,10.1159,-0.0116638,10.1952,213,4.90297,13.2071,0.51375,10505
1.9024e-07,-8.8019e-09,-2.94246e-06,-6.82078e-05,-2.44828e-05,-0.00348346,10.2039,10.3344,0.00910031,5.16265,10.3344,10.2039,0.00909938,10.2607,213,5.4983,10.7518,0.51375,10506
1.47112e-07,-2.01208e-08,-2.94875e-06,-5.8615e-05,-2.49217e-05,-0.0034907,10.2386,10.3392,-0.0064207,5.17286,10.3393,10.2385,-0.0064213,10.2957,213,6.16953,11.2081,0.51375,10507
9.28834e-08,-4.19593e-07,-2.94823e-06,-3.89239e-05,-0.000196121,-0.00341436,10.059,9.58976,-0.0169159,5.03845,10.06,9.58878,-0.0169219,9.84976,213,6.79964,17.3756,0.51375,10508
8.93257e-08,-2.89755e-07,-2.94308e-06,-4.00146e-05,-0.000107675,-0.00345334,10.2092,10.0072,0.020151,5.09478,10.2097,10.0067,0.0201402,10.0896,213,7.03741,16.5191,0.51375,10509
6.57197e-08,-3.94378e-07,-2.95111e-06,-3.37966e-05,-0.000163372,-0.00343531,10.128,9.74119,-0.0257885,5.07718,10.1286,9.74063,-0.0257889,9.96605,213,7.57335,17.2601,0.51375,10510
3.81146e-08,-2.64129e-07,-2.94053e-06,-2.67391e-05,-9.14652e-05,-0.00347287,10.2804,10.0872,-0.0065848,5.14357,10.2805,10.0871,-0.00659916,10.1918,213,8.58613,16.2021,0.51375,10511
3.9799e-08,-3.73641e-07,-2.94972e-06,-2.57621e-05,-0.000152074,-0.00343704,10.2078,9.83072,0.0248455,5.09152,10.2079,9.83064,0.0248433,9.99976,213,8.46089,17.1119,0.51375,10512
4.43296e-08,-5.08942e-07,-2.96649e-06,-2.51575e-05,-0.000172798,-0.00342963,10.1693,9.72857,0.00669635,5.08163,10.1699,9.728,0.00665284,9.94967,213,8.18527,17.8682,0.51375,10513
6.58406e-08,-5.37447e-07,-2.96419e-06,-3.12014e-05,-0.00020826,-0.00340463,10.0989,9.57035,0.0289373,5.03558,10.0997,9.56991,0.0285572,9.81699,213,7.41156,17.9837,0.51375,10514
-2.63742e-07,-2.06634e-07,-2.92274e-06,-9.32825e-05,-7.09723e-05,-0.00344984,10.0087,10.0753,-0.0108812,5.04662,10.0824,10.0016,-0.0108813,10.0531,213,15.793,15.721,0.51375,10515
9.44757e-07,-1.15109e-06,-2.79023e-06,-0.00063418,-0.0011868,-0.00257958,5.89969,4.25007,0.0925214,2.9126,5.9159,4.23567,0.090707,5.19311,213,0.828946,19.0156,0.519375,10516
-1.4754e-07,-1.99054e-08,-2.94645e-06,-5.85384e-05,-2.55738e-05,-0.00348835,10.2445,10.3429,0.00620951,5.16851,10.3432,10.2442,0.00620686,10.2879,213,13.9174,11.2169,0.51375,10517
9.13156e-08,-2.23036e-07,-2.9416e-06,-4.10921e-05,-8.17342e-05,-0.00347971,10.2012,10.0798,-0.0633575,5.1326,10.2018,10.0792,-0.0633972,10.2045,213,7.05803,15.7977,0.51375,10518
3.44549e-08,-2.07625e-08,-2.95452e-06,-3.0062e-05,-2.54259e-05,-0.0035027,10.3748,10.3886,0.00869204,5.19006,10.3888,10.3747,0.0086571,10.3731,213,8.90158,11.1757,0.51375,10519
5.83679e-08,-4.34049e-08,-2.95383e-06,-3.52021e-05,-2.92516e-05,-0.00350358,10.3282,10.3459,-0.025212,5.18566,10.3461,10.328,-0.0252332,10.3623,213,8.13721,12.0022,0.51375,10520
7.26362e-08,-7.10248e-08,-2.95211e-06,-3.74897e-05,-3.43459e-05,-0.00349945,10.311,10.3204,-0.0231592,5.17252,10.3219,10.3096,-0.023194,10.3389,213,7.72072,12.8838,0.51375,10521
1.42523e-06,-7.6736e-07,-2.72502e-06,-0.00127799,-0.000540581,-0.00258408,3.97125,6.17248,0.0724858,3.05579,6.18254,3.96271,0.0709639,5.35839,213,0.367583,18.5281,0.519375,10522
1.41836e-06,-7.66414e-07,-2.69586e-06,-0.00126706,-0.00053672,-0.00258875,4.03598,6.21609,0.0906233,3.07111,6.2287,4.02752,0.0864741,5.38999,213,0.367583,18.5281,0.508125,10523
1.30173e-07,-1.17914e-07,-2.9457e-06,-5.18578e-05,-4.56247e-05,-0.00348743,10.2249,10.2435,-0.0305388,5.13816,10.2458,10.2227,-0.0305625,10.2648,213,6.35741,14.1054,0.51375,10524
9.00558e-08,-5.93508e-07,-2.95583e-06,-3.19879e-05,-0.000282514,-0.00337189,9.96238,9.21455,-0.00746867,4.98575,9.96402,9.21294,-0.00749412,9.61799,213,6.63994,18.1258,0.51375,10525
1.70401e-08,-2.27208e-07,-2.93908e-06,-2.57836e-05,-8.13146e-05,-0.00347211,10.3208,10.1551,0.0333087,5.14375,10.3208,10.1551,0.033301,10.2057,213,9.4087,15.7773,0.51375,10526
-7.0084e-08,-1.74162e-07,-2.9445e-06,-3.62674e-05,-6.34421e-05,-0.00348557,10.2703,10.1892,-0.0261248,5.14858,10.271,10.1886,-0.0261683,10.2562,213,12.4264,15.072,0.51375,10527
6.27487e-08,-2.63113e-07,-2.94212e-06,-3.43168e-05,-9.26894e-05,-0.00346862,10.2433,10.0691,-0.00832334,5.12615,10.244,10.0684,-0.00833301,10.1657,213,7.77457,16.2174,0.51375,10528
4.5089e-08,-2.0422e-07,-2.9412e-06,-2.87648e-05,-7.52952e-05,-0.00346595,10.3411,10.2022,0.0808506,5.13036,10.3415,10.2019,0.0807801,10.1916,213,8.39011,15.4917,0.51375,10529
1.28538e-07,-4.43585e-07,-2.96195e-06,-5.08509e-05,-0.000174828,-0.00341649,10.0463,9.67626,-0.000343096,5.04063,10.0808,9.64182,-0.000434292,9.86909,213,5.9369,17.6925,0.51375,10530
-6.53447e-08,-5.44882e-07,-2.9639e-06,-3.48094e-05,-0.000212774,-0.00342158,10.0086,9.47738,-0.101139,5.05501,10.0087,9.47737,-0.101274,9.85508,213,12.6884,17.9837,0.51375,10531
-9.29899e-08,-4.14797e-07,-2.94907e-06,-4.12737e-05,-0.000196439,-0.0034028,10.0802,9.617,0.0457844,5.01804,10.0818,9.61551,0.0457009,9.81125,213,13.3004,17.3756,0.51375,10532
-9.53723e-08,-5.90209e-07,-2.96329e-06,-2.95037e-05,-0.000278371,-0.00337037,9.99563,9.25274,0.0228881,4.98643,9.99571,9.25269,0.0228569,9.62288,213,13.4601,18.1258,0.51375,10533
1.36906e-07,-1.84443e-07,-2.93943e-06,-5.472e-05,-6.7814e-05,-0.00346351,10.2128,10.1737,0.0372809,5.08872,10.2147,10.1718,0.0372787,10.156,213,6.14621,15.2858,0.51375,10534
1.34383e-07,-7.64681e-08,-2.94879e-06,-5.29614e-05,-3.56116e-05,-0.00348646,10.253,10.3048,0.00372516,5.15083,10.3054,10.2524,0.0037226,10.2753,213,6.33011,13.0849,0.51375,10535
1.01817e-07,-5.67547e-08,-2.95168e-06,-4.39963e-05,-3.08287e-05,-0.00349342,10.3012,10.3406,0.00445809,5.16826,10.341,10.3008,0.00445737,10.3165,213,7.026,12.4645,0.51375,10536
8.58002e-08,7.04639e-08,-2.95209e-06,-3.98347e-05,-3.5416e-05,-0.00349396,10.3106,10.3238,-0.000222563,5.16238,10.3245,10.3099,-0.000222581,10.3174,213,7.40667,7.87498,0.51375,10537
1.45411e-06,9.79852e-07,-2.66904e-06,-0.00126542,-0.000622324,-0.00254274,3.92052,5.84019,0.107598,2.87356,5.84919,3.91704,0.102077,5.0654,213,0.367583,0.971886,0.508125,10538
1.01757e-06,1.42348e-06,-2.71217e-06,-0.000656259,-0.00124485,-0.0025445,5.6909,3.9339,0.0543564,2.82038,5.69433,3.93125,0.0535737,4.99815,213,0.828946,0.484385,0.519375,10539
1.46182e-06,9.8234e-07,-2.69769e-06,-0.00127805,-0.000628558,-0.00254366,3.82004,5.75883,0.042112,2.86067,5.7627,3.81691,0.0413723,5.03857,213,0.367583,0.971886,0.519375,10540
9.93335e-08,4.45915e-08,-2.95192e-06,-4.49331e-05,-2.83523e-05,-0.00349494,10.2985,10.348,-1.52485e-05,5.17409,10.3482,10.2983,-1.53272e-05,10.3234,213,7.09584,8.67778,0.51375,10541
2.81035e-10,1.8527e-08,-2.95443e-06,-2.9048e-05,-2.70975e-05,-0.00350353,10.3731,10.3789,0.00147942,5.18871,10.3789,10.3731,0.00147906,10.3745,213,10.043,9.67452,0.51375,10542
1.84831e-08,2.926e-09,-2.95458e-06,-3.03861e-05,-2.60606e-05,-0.00350491,10.3637,10.3766,-0.00799488,5.1923,10.3766,10.3637,-0.00800042,10.3782,213,9.42545,10.2531,0.51375,10543
3.21016e-08,2.71022e-08,-2.9542e-06,-3.12663e-05,-2.78217e-05,-0.00350169,10.3629,10.3732,0.00345332,5.18489,10.3732,10.3629,0.0034518,10.3646,213,8.98693,9.34613,0.51375,10544
1.08233e-09,4.24381e-08,-2.95407e-06,-2.85537e-05,-2.94179e-05,-0.00350271,10.3713,10.3688,0.000734536,5.18528,10.3713,10.3688,0.000734479,10.3693,213,10.0268,8.82834,0.51375,10545
-3.15891e-08,2.77955e-08,-2.95393e-06,-3.17082e-05,-2.7246e-05,-0.00350233,10.36,10.3733,-4.39309e-05,5.1867,10.3734,10.3599,-4.39868e-05,10.3667,213,11.1006,9.34368,0.51375,10546
-6.68896e-07,3.97158e-08,-2.95927e-06,-0.000271074,-2.60613e-05,-0.00334635,9.38478,10.1162,0.204861,4.95675,10.1173,9.38475,0.203801,9.56827,213,18.3247,8.69962,0.51375,10547
-3.44425e-08,-2.0522e-08,-2.9544e-06,-2.98534e-05,-2.54949e-05,-0.0035039,10.372,10.385,0.00172241,5.19172,10.3852,10.3718,0.00171443,10.3768,213,11.1969,11.1754,0.51375,10548
-2.95064e-07,6.79292e-08,-2.93763e-06,-9.20173e-05,-3.38683e-05,-0.00348,10.0385,10.2121,-0.0748289,5.14512,10.2154,10.0353,-0.0748896,10.2014,213,15.9781,7.82778,0.51375,10549
-3.82323e-07,4.93525e-08,-2.94798e-06,-0.000111795,-2.83072e-05,-0.00345432,10.0158,10.2651,0.0381598,5.11545,10.269,10.0119,0.0381364,10.1048,213,16.722,8.40191,0.51375,10550
-1.43929e-06,9.7038e-07,-2.65331e-06,-0.00124605,-0.000602264,-0.00256818,4.02272,5.94446,0.0760682,2.94194,5.95604,4.01506,0.0721546,5.19297,213,19.7324,0.971886,0.508125,10551
-1.44643e-06,9.72657e-07,-2.68219e-06,-0.00125664,-0.000606964,-0.00255772,3.9758,5.91512,0.0919759,2.91745,5.92512,3.96756,0.0902191,5.14353,213,19.7324,0.971886,0.519375,10552
-1.12055e-06,2.37505e-08,-2.84696e-06,-0.000819605,-2.49795e-05,-0.00307093,6.8846,9.25661,0.164233,4.54885,9.25926,6.88461,0.161563,8.17333,213,19.1409,9.38497,0.51375,10553
-4.44937e-08,-5.17512e-07,-2.96408e-06,-2.02204e-05,-0.000181435,-0.0034301,10.1708,9.68955,-0.00795752,5.08944,10.1709,9.68946,-0.00797524,9.9469,213,11.9147,17.8682,0.51375,10554
-4.05059e-08,-3.72834e-07,-2.94917e-06,-2.51917e-05,-0.000158078,-0.00344027,10.182,9.78532,-0.0122774,5.09714,10.182,9.78532,-0.0122787,10.0018,213,11.6391,17.1119,0.51375,10555
-3.12334e-07,-4.2149e-08,-2.94207e-06,-9.60719e-05,-2.85356e-05,-0.00345383,10.1135,10.3151,0.0903365,5.11288,10.316,10.1128,0.0901961,10.1257,213,16.155,12.0186,0.51375,10556
-7.47094e-08,-1.31076e-07,-2.94755e-06,-3.76501e-05,-4.95979e-05,-0.00348495,10.3077,10.272,0.0172054,5.14563,10.3084,10.2713,0.0171856,10.2727,213,12.5047,14.3075,0.51375,10557
-1.29791e-07,-1.18962e-07,-2.94602e-06,-5.09547e-05,-4.6684e-05,-0.00347629,10.2625,10.2752,0.0375817,5.12072,10.2789,10.2588,0.037513,10.2314,213,13.7426,14.1054,0.51375,10558
9.42347e-07,-1.14626e-06,-2.76112e-06,-0.000629021,-0.00117773,-0.00258236,5.9514,4.31346,0.120539,2.92738,5.97056,4.29904,0.115795,5.22359,213,0.828946,19.0156,0.508125,10559
-1.84817e-08,3.28955e-09,-2.95444e-06,-3.01764e-05,-2.64137e-05,-0.00350298,10.37,10.3812,0.00343255,5.18889,10.3812,10.37,0.00342888,10.3722,213,10.6676,10.2531,0.51375,10560
-1.29591e-07,-4.5038e-07,-2.95989e-06,-4.63816e-05,-0.000180856,-0.0034192,10.0461,9.64472,-0.0219785,5.04742,10.0728,9.61801,-0.0220064,9.87529,213,14.1631,17.6925,0.51375,10561
9.6308e-08,-3.27915e-08,-2.95275e-06,-4.2454e-05,-2.80658e-05,-0.00349433,10.3166,10.3596,0.0125217,5.17361,10.3597,10.3165,0.0125181,10.3257,213,7.16701,11.6592,0.51375,10562
-1.14635e-06,-1.6428e-07,-2.84563e-06,-0.00089753,-5.22968e-05,-0.00304198,6.41001,8.93309,0.00866984,4.46438,8.93718,6.40616,0.00842439,7.97057,213,19.2584,14.9984,0.51375,10563
2.29454e-07,-4.00323e-07,-2.95226e-06,-7.81078e-05,-0.000129117,-0.00343689,9.95879,9.80652,-0.0674401,5.01341,9.95938,9.80593,-0.0674436,9.95099,213,4.41318,17.5278,0.51375,10564
-6.04288e-07,-3.99045e-07,-2.97469e-06,-0.00023183,-0.000134079,-0.00334391,9.29153,9.58333,0.00173771,4.79331,9.58834,9.28654,0.00172149,9.43934,213,18.3048,17.5749,0.51375,10565
1.52104e-07,-7.23687e-07,-2.92449e-06,-6.56426e-05,-0.000667782,-0.00315585,9.21846,7.42103,-0.00602747,4.61243,9.21876,7.42081,-0.00610085,8.47023,213,5.34626,18.3773,0.51375,10566
5.34331e-08,-9.20017e-07,-2.90045e-06,-2.84541e-05,-0.000915061,-0.00304738,9.00714,6.36055,-0.00459188,4.50666,9.00856,6.35931,-0.00476977,8.02372,213,7.74839,18.6819,0.51375,10567
-5.05343e-08,-9.21416e-07,-2.89847e-06,-2.909e-05,-0.00091364,-0.00304365,9.01959,6.37914,0.0209105,4.50144,9.02359,6.37533,0.0207202,8.01393,213,12.3516,18.6819,0.51375,10568
7.75808e-08,-8.54439e-08,-2.95073e-06,-3.8473e-05,-3.84385e-05,-0.00349241,10.3143,10.3144,0.00407933,5.15767,10.3194,10.3093,0.0040751,10.3103,213,7.56798,13.287,0.51375,10569
-7.77919e-08,-8.56729e-08,-2.9509e-06,-3.85061e-05,-3.91661e-05,-0.00349226,10.3123,10.3103,0.00260002,5.15661,10.3158,10.3068,0.00257503,10.3087,213,12.532,13.287,0.51375,10570
-2.39358e-07,1.19952e-06,-2.83643e-06,-8.75849e-05,-0.000826241,-0.00305866,8.88904,6.6841,0.0201712,4.43697,8.89409,6.67907,0.0201508,7.99982,213,15.5967,0.849583,0.51375,10571
3.89528e-07,-8.5707e-07,-2.89604e-06,-0.000164208,-0.000789479,-0.00304281,8.58416,6.71768,-0.00866324,4.29646,8.58421,6.71768,-0.00871044,7.82836,213,2.65784,18.6504,0.51375,10572
-3.07455e-08,5.18571e-08,-2.95359e-06,-3.14791e-05,-2.95599e-05,-0.00350139,10.3571,10.3628,-0.000865773,5.18206,10.3633,10.3566,-0.00086589,10.3608,213,11.0844,8.49751,0.51375,10573
1.25146e-06,-3.18354e-07,-2.79428e-06,-0.000943962,-0.000121079,-0.00298454,6.08815,8.54452,-0.00313072,4.27389,8.54458,6.08814,-0.00318777,7.62243,213,0.656279,16.8032,0.51375,10574
1.72711e-09,-7.61449e-07,-2.92906e-06,-1.82351e-05,-0.000725973,-0.00314524,9.35942,7.24677,0.025085,4.66839,9.36183,7.24439,0.0250523,8.47873,213,9.58864,18.4382,0.51375,10575
1.13416e-06,-1.65631e-07,-2.84885e-06,-0.000879587,-5.76727e-05,-0.00304722,6.48682,8.9403,0.0162861,4.46425,8.94433,6.48324,0.0158282,7.98757,213,0.853224,15.0111,0.51375,10576
1.30615e-06,-1.10559e-06,-2.67868e-06,-0.001094,-0.00100576,-0.00245028,4.05302,4.31643,0.00442941,2.23399,4.46924,3.90337,0.00126865,4.21363,213,0.367583,19.0156,0.51375,10577
9.80208e-07,-7.46124e-07,-2.87453e-06,-0.000606353,-0.000474957,-0.00296837,7.09563,7.48786,0.0448308,3.73703,7.51826,7.06586,0.0442037,7.25844,213,0.835166,18.5312,0.51375,10578
1.3892e-06,1.36151e-06,-2.56098e-06,-0.00110295,-0.00107918,-0.00240832,3.89812,3.96908,0.00151724,2.06505,4.13039,3.73804,0.000291023,3.94857,213,0.367583,0.484385,0.51375,10579
1.01578e-06,9.76427e-07,-2.87198e-06,-0.000611836,-0.000584665,-0.00291061,6.89713,6.97823,0.0351193,3.47957,6.99373,6.88216,0.0345917,6.90403,213,0.835166,0.968771,0.51375,10580
-1.29819e-06,-1.09874e-06,-2.68342e-06,-0.00108208,-0.00100369,-0.00245743,4.11032,4.34431,0.00479444,2.26077,4.52324,3.93449,0.00169453,4.25781,213,19.7324,19.0156,0.51375,10581
-1.36524e-06,1.34097e-06,-2.56533e-06,-0.00107632,-0.00105975,-0.00243348,4.04389,4.09335,-0.00733818,2.1611,4.31396,3.82417,-0.00823124,4.0993,213,19.7324,0.484385,0.51375,10582
1.22996e-07,7.9338e-08,-2.9496e-06,-5.00758e-05,-3.74264e-05,-0.00348765,10.2612,10.299,-0.000219777,5.15001,10.2998,10.2604,-0.000219879,10.2804,213,6.56448,7.5958,0.51375,10583
4.80196e-07,4.07889e-08,-2.95111e-06,-0.000161826,-2.70266e-05,-0.00343718,9.76623,10.1686,-0.0109628,5.08996,10.169,9.76587,-0.0109629,9.98448,213,2.749,8.6878,0.51375,10584
3.99024e-08,2.93771e-07,-2.93457e-06,-2.9173e-05,-9.95669e-05,-0.00346618,10.2609,10.0508,0.00115683,5.12991,10.261,10.0507,0.00115674,10.1563,213,8.55886,4.22154,0.51375,10585
2.07809e-07,1.20909e-07,-2.93982e-06,-7.25513e-05,-4.83926e-05,-0.0034705,10.1424,10.2146,-0.00068339,5.1082,10.2157,10.1413,-0.000683532,10.1794,213,5.12928,6.54949,0.51375,10586
-3.45637e-07,-1.67444e-07,-2.92473e-06,-0.000113866,-6.02538e-05,-0.0034431,9.93736,10.0974,-0.00064616,5.05059,10.1005,9.93423,-0.000646168,10.0191,213,16.5198,15.1536,0.51375,10587
5.94031e-08,-2.92147e-07,-2.94296e-06,-3.30279e-05,-0.000109255,-0.00345444,10.2437,10.0161,0.0304764,5.10687,10.2442,10.0156,0.0304561,10.1014,213,7.84897,16.5038,0.51375,10588
3.89333e-07,-8.62484e-08,-2.93374e-06,-0.000132252,-3.56055e-05,-0.00344188,9.90619,10.1947,0.0266981,5.084,10.1947,9.90619,0.0266978,10.0269,213,3.33592,13.4161,0.51375,10589
1.8273e-07,3.98526e-07,-2.915e-06,-6.15193e-05,-0.000143937,-0.00343011,10.0354,9.7894,-0.020066,5.02843,10.0368,9.78801,-0.0200712,9.93481,213,5.26927,3.20447,0.51375,10590
4.60864e-07,-1.23206e-07,-2.93414e-06,-0.000171514,-4.64572e-05,-0.00342261,9.69117,10.0645,-0.013608,5.0394,10.0652,9.69049,-0.0136095,9.89677,213,2.83621,14.3227,0.51375,10591
1.45578e-06,-5.80639e-07,-2.73395e-06,-0.00117775,-0.000283795,-0.00278391,4.76903,7.43757,-0.0254582,3.73421,7.44265,4.76427,-0.0257733,6.55345,213,0.367583,18.0406,0.51375,10592
-7.51175e-07,-5.27412e-07,-2.95523e-06,-0.000428023,-0.000312793,-0.00315858,8.10462,8.44859,-0.046297,4.24791,8.44952,8.1037,-0.046305,8.3283,213,18.7848,18.0531,0.51375,10593
1.46735e-06,7.51834e-07,-2.74566e-06,-0.00120418,-0.000358542,-0.00273391,4.52783,7.05213,-0.0385156,3.54659,7.05436,4.5259,-0.0388219,6.22668,213,0.367583,1.45939,0.51375,10594
-2.40921e-08,6.77081e-07,-2.96612e-06,-2.93951e-05,-0.000208703,-0.00341394,10.0791,9.54382,-0.0240652,5.05235,10.0806,9.54233,-0.0240857,9.8466,213,10.9262,1.87317,0.51375,10595
2.34699e-08,6.74064e-07,-2.96926e-06,-2.83874e-05,-0.000217333,-0.00341023,10.0697,9.50565,-0.0253977,5.04845,10.0715,9.50389,-0.0254209,9.82541,213,9.1738,1.87317,0.51375,10596
-4.18013e-07,-4.2735e-07,-2.95657e-06,-0.000167242,-0.00014799,-0.00337635,9.54217,9.59964,-0.0372719,4.8481,9.65891,9.48292,-0.0372928,9.60942,213,17.4173,17.6879,0.51375,10597
6.02906e-07,1.03968e-06,-2.89589e-06,-0.000254945,-0.000789409,-0.00299157,8.18826,6.59284,0.0192354,4.08731,8.19344,6.58808,0.0188181,7.50189,213,1.77033,0.962542,0.51375,10598
5.71946e-07,-7.70065e-07,-2.92536e-06,-0.000254029,-0.000737177,-0.00301647,8.28056,6.83833,0.034456,4.12796,8.29005,6.82916,0.0341327,7.63108,213,1.77033,18.5375,0.51375,10599
1.26746e-07,1.31177e-06,-2.8162e-06,-3.96334e-05,-0.000999321,-0.00300511,8.80516,5.94042,-0.047007,4.42692,8.80603,5.94035,-0.0478057,7.82498,213,6.05058,0.712873,0.51375,10600
-3.19004e-07,9.39902e-08,-2.94016e-06,-0.000106497,-3.99341e-05,-0.00345831,9.99894,10.1976,-0.00647358,5.10206,10.1976,9.9989,-0.00647538,10.1062,213,16.2801,7.12015,0.51375,10601
4.89926e-07,2.60118e-07,-2.93403e-06,-0.000180295,-9.03972e-05,-0.00339296,9.59181,9.86016,0.0017735,4.93107,9.86392,9.58806,0.00176803,9.72715,213,2.53883,4.26261,0.51375,10602
3.38565e-07,2.57473e-07,-2.92258e-06,-0.000110249,-9.11605e-05,-0.00342916,9.9058,9.96278,-0.00140936,4.98662,9.97183,9.89675,-0.0014101,9.93591,213,3.58023,4.34639,0.51375,10603
7.21157e-07,6.16172e-08,-2.96289e-06,-0.000277798,-3.31691e-05,-0.00337564,9.22794,9.95818,-0.019347,4.99042,9.96144,9.22474,-0.0194046,9.63364,213,1.65539,7.98654,0.51375,10604
3.29712e-07,9.01629e-08,-2.93528e-06,-0.000109016,-3.85935e-05,-0.00345605,9.99485,10.2051,0.00370907,5.10071,10.2051,9.99482,0.00370796,10.0979,213,3.77834,7.19748,0.51375,10605
7.23633e-07,-1.13294e-06,-2.84666e-06,-0.000373014,-0.00109489,-0.00278408,7.15055,4.99571,-0.0466509,3.60305,7.15915,4.98739,-0.0469379,6.40269,213,1.29031,19.0156,0.51375,10606
7.86871e-07,1.40523e-06,-2.77793e-06,-0.000396634,-0.00113237,-0.00275083,6.99171,4.79549,-0.0357384,3.51467,6.9933,4.7942,-0.0360395,6.22811,213,1.29031,0.484385,0.51375,10607
-2.0944e-08,-2.1512e-07,-2.94243e-06,-2.7753e-05,-7.53425e-05,-0.0034807,10.3004,10.1584,-0.00687538,5.15365,10.3004,10.1584,-0.00687677,10.237,213,10.8726,15.6282,0.51375,10608
7.57405e-10,4.04656e-07,-2.92944e-06,-2.5228e-05,-0.000143648,-0.00344858,10.2012,9.84772,-0.0177359,5.10947,10.2012,9.84772,-0.0177364,10.0469,213,10.05,3.28128,0.51375,10609
4.49048e-08,1.5117e-07,-2.94736e-06,-3.07462e-05,-5.81644e-05,-0.00348689,10.3168,10.235,-2.74391e-05,5.1585,10.317,10.2348,-2.75269e-05,10.2762,213,8.48392,6.10168,0.51375,10610
2.36197e-08,1.80441e-07,-2.94431e-06,-2.87096e-05,-6.53709e-05,-0.00348423,10.315,10.2055,-1.51833e-05,5.15753,10.315,10.2055,-1.52501e-05,10.2607,213,9.18701,5.63775,0.51375,10611
1.33626e-07,2.53846e-11,-2.949e-06,-5.4263e-05,-2.39082e-05,-0.00349239,10.2633,10.3539,0.000191492,5.17686,10.3539,10.2633,0.000191405,10.3087,213,6.42204,10.3774,0.51375,10612
-1.56967e-08,-5.79232e-09,-2.95456e-06,-2.93257e-05,-2.62406e-05,-0.0035039,10.3729,10.3821,0.00102711,5.19054,10.3821,10.3729,0.00102439,10.3765,213,10.5723,10.5968,0.51375,10613
7.27728e-07,-1.79006e-07,-2.95048e-06,-0.000247898,-6.65105e-05,-0.00337101,9.32096,9.86241,-0.00176974,4.93328,9.86477,9.31862,-0.00179045,9.60514,213,1.6095,15.2393,0.51375,10614
-1.05299e-06,5.77832e-07,-2.88148e-06,-0.000827947,-0.000241065,-0.00297597,6.44907,8.20096,0.037064,4.08421,8.20453,6.44644,0.0361213,7.44668,213,19.2524,1.93754,0.51375,10615
7.016e-07,-3.05328e-07,-2.95081e-06,-0.000280162,-0.000107749,-0.00333937,9.09187,9.60654,-0.0400971,4.83062,9.6211,9.07736,-0.0401395,9.40117,213,1.60388,16.8157,0.51375,10616
1.35365e-06,1.23667e-07,-2.79217e-06,-0.00103689,-4.46776e-05,-0.00298183,5.76693,8.72877,-0.0388411,4.38452,8.72983,5.76622,-0.0391985,7.72599,213,0.59625,6.40157,0.51375,10617
-1.35689e-07,8.17735e-10,-2.94585e-06,-5.62439e-05,-2.40876e-05,-0.00349138,10.2537,10.3497,-0.000451856,5.17508,10.3497,10.2537,-0.000451868,10.3025,213,13.6773,10.3755,0.51375,10618
-4.47943e-08,1.51378e-07,-2.94921e-06,-3.03848e-05,-5.73481e-05,-0.00348755,10.3196,10.2391,-0.000316618,5.16003,10.3197,10.239,-0.000316681,10.2799,213,11.6092,6.08985,0.51375,10619
-1.26529e-06,-2.31491e-07,-2.79766e-06,-0.000958824,-7.76463e-05,-0.00300297,6.07597,8.70635,-0.025959,4.36681,8.70723,6.07552,-0.0263858,7.76,213,19.4443,15.8276,0.51375,10620
1.25394e-06,3.21278e-07,-2.78528e-06,-0.000961126,-9.64431e-05,-0.00298983,6.04385,8.625,-0.0119762,4.31852,8.62503,6.04385,-0.0120085,7.67901,213,0.655674,3.6726,0.51375,10621
-2.3366e-07,6.21738e-08,-2.93612e-06,-7.77842e-05,-3.25976e-05,-0.00347761,10.1378,10.2726,-0.0109881,5.1424,10.2738,10.1366,-0.0109887,10.2169,213,15.2457,8.02021,0.51375,10622
-4.67899e-07,-2.98767e-07,-2.93705e-06,-0.000185282,-0.000116482,-0.00337383,9.53902,9.7444,0.0209561,4.86646,9.75386,9.52957,0.0209488,9.62273,213,17.5552,16.8295,0.51375,10623
7.12397e-07,2.58056e-07,-2.95343e-06,-0.000256077,-9.02343e-05,-0.00335394,9.24949,9.74455,0.0021353,4.87138,9.74486,9.24921,0.0020979,9.50464,213,1.59726,4.27722,0.51375,10624
-1.59179e-08,3.30737e-07,-2.93015e-06,-2.6891e-05,-0.000110498,-0.00346235,10.2524,10.0029,-0.00264554,5.12753,10.2524,10.0029,-0.00264616,10.1326,213,10.6791,3.87002,0.51375,10625
7.08175e-08,1.08092e-07,-2.9508e-06,-3.7478e-05,-4.36195e-05,-0.00349077,10.3092,10.2909,0.00086281,5.15458,10.31,10.2901,0.000862772,10.2992,213,7.75953,6.92978,0.51375,10626
5.95546e-07,-3.8399e-08,-2.95699e-06,-0.000244809,-2.80011e-05,-0.00339481,9.38663,10.0338,-0.0163639,5.02531,10.0343,9.38618,-0.0163697,9.74277,213,2.16315,11.8716,0.51375,10627
1.43729e-06,-5.58085e-08,-2.7764e-06,-0.00103652,-3.11045e-05,-0.00298312,5.80819,8.80942,-0.00258099,4.40634,8.80977,5.80816,-0.00290665,7.7602,213,0.548396,12.1975,0.51375,10628
-3.35398e-07,-3.17487e-07,-2.92534e-06,-0.000109676,-0.000131372,-0.0034019,9.86827,9.8035,0.0407335,4.92528,9.89124,9.78058,0.0406759,9.79571,213,16.6676,16.9424,0.51375,10629
3.39e-07,4.75745e-07,-2.91688e-06,-0.000107633,-0.000180219,-0.00337835,9.80062,9.58395,0.0372927,4.88331,9.80384,9.58081,0.0372208,9.65703,213,3.43235,2.55757,0.51375,10630
2.72458e-07,2.65822e-08,-2.927e-06,-9.7439e-05,-2.58522e-05,-0.00346938,10.0643,10.2779,-0.00123971,5.14005,10.2789,10.0633,-0.00123975,10.1741,213,4.51995,9.25192,0.51375,10631
3.00155e-10,1.03694e-07,-2.9521e-06,-2.80099e-05,-4.43177e-05,-0.00349538,10.3507,10.302,0.000347091,5.17518,10.3507,10.302,0.000347022,10.3261,213,10.0483,7.0581,0.51375,10632
1.99065e-08,1.25435e-07,-2.94996e-06,-2.86166e-05,-5.00438e-05,-0.00349222,10.3388,10.2748,-0.000338571,5.1696,10.3389,10.2747,-0.00033861,10.3073,213,9.34445,6.59796,0.51375,10633
-4.03599e-08,2.93314e-07,-2.93549e-06,-2.91477e-05,-0.00010226,-0.00346477,10.257,10.0387,0.0014031,5.12782,10.257,10.0387,0.00140296,10.1482,213,11.5391,4.21949,0.51375,10634
-1.35267e-06,1.28685e-07,-2.78345e-06,-0.00102685,-4.58079e-05,-0.00296319,5.88431,8.81279,0.104205,4.35602,8.81457,5.88421,0.102523,7.67837,213,19.5037,6.40156,0.51375,10635
8.42978e-07,-4.02697e-08,-2.94829e-06,-0.000416342,-2.89509e-05,-0.00330669,8.60704,9.76343,-0.0208536,4.89313,9.7653,8.60529,-0.0209682,9.26091,213,1.35861,11.9147,0.51375,10636
-1.37067e-06,-8.47311e-08,-2.78095e-06,-0.00102361,-3.7612e-05,-0.00300444,5.79939,8.74267,-0.113535,4.42811,8.74268,5.79939,-0.113541,7.81211,213,19.5021,13.1061,0.51375,10637
-1.45838e-06,7.5107e-07,-2.73107e-06,-0.00118805,-0.000350386,-0.00274383,4.62154,7.12204,-0.0225737,3.57493,7.12651,4.61783,-0.0233393,6.28309,213,19.7324,1.45939,0.51375,10638
1.56829e-07,3.02429e-08,-2.94597e-06,-5.94145e-05,-2.6556e-05,-0.00348858,10.2352,10.3333,-0.0010711,5.16722,10.3334,10.2351,-0.00107118,10.2857,213,6.00343,9.16216,0.51375,10639
1.28136e-07,-2.35165e-07,-2.93708e-06,-5.19921e-05,-8.72675e-05,-0.00346201,10.1726,10.0673,-0.00650762,5.08992,10.1733,10.0666,-0.00651182,10.1269,213,6.24824,15.9428,0.51375,10640
7.78138e-08,-1.01433e-06,-2.8802e-06,-3.34283e-05,-0.000978542,-0.00301998,8.86209,6.04085,-0.0529944,4.45757,8.86213,6.04082,-0.0530075,7.89222,213,6.97468,18.7974,0.51375,10641
2.44948e-07,-4.64654e-08,-2.93984e-06,-8.26693e-05,-2.96131e-05,-0.00347495,10.1256,10.284,-0.000597077,5.14234,10.2841,10.1255,-0.000597286,10.2063,213,4.73302,12.2063,0.51375,10642
-1.33605e-06,3.242e-08,-2.78348e-06,-0.00096731,-2.69287e-05,-0.00304061,6.06519,8.8723,-0.123772,4.49916,8.87351,6.06502,-0.124815,7.97407,213,19.3838,9.06465,0.51375,10643
-1.34569e-06,-2.00951e-09,-2.78218e-06,-0.000973437,-2.45447e-05,-0.00297787,6.23403,9.06655,0.250663,4.41424,9.07289,6.23395,0.244401,7.80629,213,19.3898,10.4421,0.51375,10644
-1.27746e-07,-2.32712e-07,-2.93644e-06,-5.19623e-05,-8.20888e-05,-0.00346489,10.1801,10.0902,-0.00774695,5.095,10.1822,10.0881,-0.00774982,10.1432,213,13.8518,15.9428,0.51375,10645
-8.16669e-08,-9.97065e-07,-2.88941e-06,-4.4291e-05,-0.000951977,-0.00296452,9.05538,6.34587,0.338292,4.36377,9.06099,6.3451,0.333449,7.73583,213,13.1253,18.7974,0.51375,10646
-2.30028e-07,-4.08555e-07,-2.94907e-06,-7.91554e-05,-0.000121816,-0.00344125,9.96166,9.83432,-0.07445,5.01808,9.9617,9.83428,-0.0744556,9.97306,213,15.6868,17.5278,0.51375,10647
-1.50202e-07,-7.23554e-07,-2.92987e-06,-6.90546e-05,-0.000668637,-0.00314752,9.22114,7.43134,0.0316865,4.59523,9.22165,7.43132,0.0311977,8.43894,213,14.7537,18.3773,0.51375,10648
-3.94885e-07,7.28847e-08,-2.95419e-06,-0.000124616,-3.49668e-05,-0.00343537,9.9759,10.2435,0.0930651,5.07568,10.2442,9.97539,0.0928516,10.0197,213,16.9295,7.64976,0.51375,10649
-7.2718e-07,-1.77819e-07,-2.95295e-06,-0.000250376,-6.65255e-05,-0.00337068,9.30671,9.85552,-0.00761877,4.93294,9.85823,9.30401,-0.0076365,9.60077,213,18.4911,15.2387,0.51375,10650
4.14995e-10,2.79683e-07,-2.86391e-06,-2.49246e-05,-9.00619e-05,-0.00325957,99.0463,97.05,-0.0916038,49.5691,99.0466,97.0498,-0.0916313,98.155,213,10.0494,4.3678,0.49375,10651
1.61711e-08,3.38483e-07,-2.86e-06,-2.54875e-05,-0.000111606,-0.00325066,98.5955,95.956,-0.252028,49.424,98.5958,95.9559,-0.252238,97.5549,213,9.42004,3.79912,0.49375,10652
3.8991e-08,3.23374e-07,-2.86623e-06,-2.88042e-05,-0.000108101,-0.00325607,98.3222,95.8919,-0.589434,49.4563,98.3228,95.8915,-0.589687,97.7196,213,8.58272,3.9356,0.49375,10653
2.19627e-08,2.67625e-07,-2.86652e-06,-2.71426e-05,-8.91019e-05,-0.00325104,99.2174,97.3185,0.408985,49.4044,99.2177,97.3182,0.408983,97.8728,213,9.2121,4.50428,0.49375,10654
-2.2103e-08,-1.71337e-07,-2.87716e-06,-2.8334e-05,-6.14892e-05,-0.00327279,99.3343,98.3181,-0.104428,49.7198,99.3352,98.3172,-0.104431,98.9346,213,10.8879,14.9957,0.49375,10655
6.3829e-10,-1.80298e-07,-2.87468e-06,-2.55797e-05,-6.26921e-05,-0.00327091,99.5315,98.3941,0.0660667,49.7327,99.5315,98.3941,0.0660633,98.9016,213,10.0506,15.1322,0.49375,10656
-3.97495e-08,-2.09976e-07,-2.87631e-06,-2.91639e-05,-7.5382e-05,-0.00326163,99.1919,97.7754,0.120876,49.5361,99.1929,97.7745,0.120778,98.3706,213,11.5173,15.5644,0.49375,10657
-1.56559e-08,-2.20735e-07,-2.87377e-06,-2.7271e-05,-7.79566e-05,-0.0032625,99.1988,97.6453,0.042903,49.578,99.1989,97.6452,0.042868,98.3884,213,10.68,15.7009,0.49375,10658
7.77713e-07,1.46086e-07,-2.87635e-06,-0.000301549,-5.55695e-05,-0.00314774,86.2857,93.8246,-0.946677,47.4065,93.865,86.2466,-0.947997,91.2427,213,1.48999,5.95709,0.49375,10659
9.01029e-07,1.03471e-07,-2.85809e-06,-0.000408092,-4.04193e-05,-0.00305991,82.9032,94.1719,1.62823,46.2828,94.1839,82.9012,1.61829,87.4717,213,1.24465,6.87904,0.49375,10660
6.31725e-07,9.93057e-08,-2.87924e-06,-0.000283229,-3.85079e-05,-0.00313538,88.4163,95.9166,1.00125,47.4594,95.9184,88.4161,0.999611,91.3989,213,2.04919,6.9221,0.49375,10661
5.5863e-07,1.39321e-07,-2.87854e-06,-0.000216313,-5.24743e-05,-0.00315485,91.5676,96.589,1.50504,47.5549,96.6022,91.567,1.49247,92.6947,213,2.29453,6.00014,0.49375,10662
-9.10695e-07,-6.24169e-08,-2.8522e-06,-0.000414991,-3.67205e-05,-0.00310156,81.2177,92.8112,-1.12238,46.9699,92.8143,81.2177,-1.12546,88.7118,213,18.8554,12.621,0.49375,10663
-6.34827e-07,-5.90655e-08,-2.88099e-06,-0.000288112,-3.14986e-05,-0.00317916,86.8978,94.7626,-1.70923,48.2404,94.7695,86.8929,-1.71122,92.7935,213,18.0508,12.5779,0.49375,10664
-5.71236e-07,-8.75683e-08,-2.87424e-06,-0.0002141,-3.62698e-05,-0.0032226,90.014,95.4643,-2.19282,48.8387,95.4754,90.0121,-2.20201,95.0636,213,17.8055,13.4999,0.49375,10665
-7.88543e-07,-9.89888e-08,-2.87917e-06,-0.000313841,-4.3537e-05,-0.00312299,86.714,94.9985,0.617095,47.2049,95.0229,86.6936,0.613128,90.5329,213,18.61,13.5429,0.49375,10666
-8.98353e-07,1.04617e-07,-2.84796e-06,-0.000408451,-4.26854e-05,-0.00306396,82.6729,93.8832,1.28487,46.3103,93.8944,82.6727,1.27387,87.5507,213,18.8554,6.87903,0.49375,10667
-7.78697e-07,1.46807e-07,-2.86992e-06,-0.000301905,-5.38334e-05,-0.0031402,86.5681,94.1712,-0.422066,47.3155,94.2081,86.5321,-0.422976,91.0361,213,18.61,5.95708,0.49375,10668
-5.63097e-07,1.39462e-07,-2.87871e-06,-0.000215786,-5.11614e-05,-0.00316453,91.326,96.3715,0.9505,47.7209,96.382,91.3258,0.940183,93.0168,213,17.8055,6.00014,0.49375,10669
-6.27953e-07,9.9716e-08,-2.88075e-06,-0.000284469,-3.95528e-05,-0.00314036,88.1394,95.6458,0.609716,47.522,95.6525,88.1341,0.608386,91.5168,213,18.0508,6.92208,0.49375,10670
6.36387e-07,-5.90302e-08,-2.88065e-06,-0.000287838,-3.05722e-05,-0.0031788,86.9574,94.8423,-1.64697,48.2461,94.844,86.9569,-1.64818,92.8004,213,2.04918,12.5779,0.49375,10671
5.68091e-07,-8.80106e-08,-2.87626e-06,-0.000213217,-3.72447e-05,-0.00322763,89.8727,95.2661,-2.51532,48.903,95.2793,89.8709,-2.52672,95.2171,213,2.29453,13.4999,0.49375,10672
7.87897e-07,-9.78457e-08,-2.88519e-06,-0.000315975,-4.38431e-05,-0.00311346,86.8816,95.2221,1.14218,47.0549,95.2478,86.8601,1.13801,90.2089,213,1.48999,13.5429,0.49375,10673
9.14677e-07,-6.18825e-08,-2.86363e-06,-0.000424179,-3.40229e-05,-0.00310274,80.684,92.6418,-1.4106,47.0297,92.6456,80.6835,-1.41389,88.6856,213,1.24465,12.621,0.49375,10674
1.84206e-07,2.89712e-07,-2.8612e-06,-6.48066e-05,-9.59613e-05,-0.00323305,97.191,96.2361,0.0881253,48.5671,97.2222,96.2049,0.0881177,96.6295,213,5.30338,4.13348,0.49375,10675
1.43204e-07,2.58402e-07,-2.86712e-06,-5.48886e-05,-8.92024e-05,-0.00324184,97.7541,96.7025,0.0779282,48.8438,97.7655,96.6911,0.0779268,97.1548,213,6.00584,4.50119,0.49375,10676
1.78857e-07,2.21319e-07,-2.86906e-06,-6.4759e-05,-7.88691e-05,-0.00324394,97.3979,96.9654,-0.0401499,48.7395,97.4388,96.9245,-0.0401514,97.2228,213,5.4412,4.91629,0.49375,10677
-1.81417e-07,-1.40779e-07,-2.87309e-06,-6.54345e-05,-5.29476e-05,-0.00325508,97.8409,98.2236,0.0822486,49.0819,98.2461,97.8184,0.082244,97.9507,213,14.6588,14.5837,0.49375,10678
-1.45262e-07,-1.65372e-07,-2.87255e-06,-5.66195e-05,-5.95107e-05,-0.00325795,98.0908,98.0022,-0.0259077,49.0946,98.1632,97.9298,-0.0259195,98.0726,213,14.0942,14.9988,0.49375,10679
-1.87056e-07,-1.86052e-07,-2.86555e-06,-6.76246e-05,-6.35488e-05,-0.00325059,97.501,97.6259,-0.0528798,48.8955,97.7381,97.3888,-0.0528858,97.6168,213,14.7966,15.3665,0.49375,10680
1.79953e-07,-2.68553e-07,-2.86321e-06,-6.38836e-05,-9.25186e-05,-0.00324163,97.0807,96.2031,-0.313386,48.735,97.1562,96.128,-0.313775,96.96,213,5.30233,16.3599,0.49375,10681
1.74355e-07,-3.56726e-07,-2.88455e-06,-6.27373e-05,-6.79185e-05,-0.00325713,97.4528,97.294,-0.451267,49.1078,97.7636,96.9838,-0.451887,97.8279,213,5.25371,17.2354,0.49375,10682
1.2929e-07,-3.32949e-07,-2.87792e-06,-5.15334e-05,-0.000112625,-0.00322728,97.6759,95.8035,0.343108,48.6818,97.7067,95.7727,0.343063,96.4112,213,6.0915,16.9363,0.49375,10683
-1.33385e-07,5.0164e-07,-2.87088e-06,-5.17207e-05,-0.000168654,-0.00321485,96.2313,92.6474,-0.714718,48.4799,96.2448,92.6341,-0.714914,95.2057,213,14.0085,2.56374,0.49375,10684
-1.80307e-07,4.05786e-07,-2.85261e-06,-6.27574e-05,-0.000135693,-0.00321388,96.6453,94.4099,0.0670887,48.3,96.6669,94.3883,0.0670195,95.481,213,14.7977,3.14006,0.49375,10685
-1.81376e-07,5.38902e-07,-2.88833e-06,-6.31146e-05,-0.00014712,-0.00320458,96.5527,93.978,0.270462,48.1503,96.5707,93.9605,0.270028,95.0224,213,14.8463,2.26464,0.49375,10686
1.32307e-07,3.43082e-07,-2.86091e-06,-5.14601e-05,-0.000113017,-0.0032337,97.4569,95.5703,-0.0747467,48.7702,97.4656,95.5616,-0.0747818,96.6025,213,6.18821,3.682,0.49375,10687
-1.3149e-07,-2.22346e-07,-2.86922e-06,-5.29586e-05,-7.82563e-05,-0.00324397,98.1665,97.3912,0.365987,48.9137,98.1933,97.3645,0.365927,97.4156,213,13.9118,15.818,0.49375,10688
-6.73214e-07,-1.31622e-07,-2.89611e-06,-0.000204255,-4.07592e-05,-0.00319106,91.5283,96.5392,-0.0136761,48.278,96.5423,91.5253,-0.0137099,94.1478,213,18.3052,14.4065,0.49375,10689
6.63636e-07,1.95869e-07,-2.89298e-06,-0.000194013,-6.17188e-05,-0.0031877,91.6003,95.655,-0.152568,47.9096,95.6666,91.5888,-0.152663,93.8468,213,1.79481,5.09353,0.49375,10690
6.77181e-07,-1.32232e-07,-2.89902e-06,-0.000201912,-4.18035e-05,-0.0031906,91.6578,96.5649,0.0580058,48.254,96.5659,91.6568,0.0579592,94.1495,213,1.79481,14.4065,0.49375,10691
-6.62451e-07,1.94145e-07,-2.89291e-06,-0.000199329,-6.22316e-05,-0.0031864,91.2887,95.4906,-0.261253,47.8843,95.5073,91.2721,-0.2613,93.7228,213,18.3052,5.09352,0.49375,10692
5.14846e-08,-7.52854e-09,-2.88613e-06,-3.25815e-05,-2.44805e-05,-0.00329134,99.6714,99.9197,-0.205435,50.0633,99.9208,99.6707,-0.205816,100.002,213,8.37481,10.6594,0.49375,10693
8.13441e-08,-7.20409e-09,-2.88535e-06,-3.95063e-05,-2.39726e-05,-0.00328296,99.5236,99.9997,0.115721,49.9424,100,99.5235,0.115408,99.6473,213,7.5367,10.6604,0.49375,10694
7.81851e-08,-2.83119e-08,-2.88555e-06,-3.85696e-05,-2.7476e-05,-0.00328516,99.3957,99.7357,-0.108262,49.9225,99.7366,99.3948,-0.108344,99.6745,213,7.61044,11.4859,0.49375,10695
-7.76492e-08,6.59497e-08,-2.88384e-06,-3.83798e-05,-3.42964e-05,-0.00327875,99.3944,99.5195,0.0811454,49.725,99.5311,99.3829,0.0810933,99.376,213,12.4896,8.01408,0.49375,10696
-5.1485e-08,4.15067e-08,-2.88508e-06,-3.27922e-05,-2.75334e-05,-0.00328225,99.8563,100.017,0.264324,49.8788,100.022,99.8522,0.263889,99.6731,213,11.7252,8.84059,0.49375,10697
-8.15214e-08,4.07592e-08,-2.88366e-06,-3.98542e-05,-2.69721e-05,-0.00328212,99.4305,99.8253,0.059038,49.8844,99.8278,99.4282,0.0588787,99.5697,213,12.5633,8.83959,0.49375,10698
-7.95122e-08,-7.46935e-08,-2.88345e-06,-3.951e-05,-3.60285e-05,-0.00328119,99.1852,99.2919,-0.168365,49.7364,99.3044,99.1727,-0.168405,99.407,213,12.5632,12.9973,0.49375,10699
-1.09875e-07,-5.98394e-08,-2.88242e-06,-4.54074e-05,-3.19202e-05,-0.00327623,99.1089,99.5223,0.088341,49.7198,99.528,99.1032,0.0883378,99.2279,213,13.2579,12.578,0.49375,10700
-7.30647e-08,-5.60787e-08,-2.88449e-06,-3.83455e-05,-3.13496e-05,-0.00328214,99.3819,99.5964,-0.036263,49.8185,99.6006,99.3779,-0.0364012,99.5258,213,12.3737,12.4412,0.49375,10701
-4.79792e-08,-7.03607e-08,-2.88464e-06,-3.20022e-05,-3.53182e-05,-0.00328278,99.6333,99.5316,0.000964732,49.8193,99.6392,99.526,0.000584849,99.5821,213,11.679,12.8605,0.49375,10702
1.08373e-07,1.07117e-07,-2.88159e-06,-4.47952e-05,-4.33783e-05,-0.00327122,98.9356,98.9791,0.0496027,49.4863,99.0222,98.8925,0.0495905,98.9078,213,6.84207,6.922,0.49375,10703
7.85362e-08,1.27949e-07,-2.88139e-06,-3.88426e-05,-5.02766e-05,-0.00326948,99.1443,98.7938,0.129176,49.5116,99.1523,98.7858,0.129141,98.8404,213,7.5368,6.50273,0.49375,10704
4.74377e-08,1.22223e-07,-2.88204e-06,-3.16447e-05,-4.90329e-05,-0.00327818,99.3563,98.8234,-0.146079,49.7528,99.3591,98.8211,-0.146569,99.2378,213,8.42102,6.63952,0.49375,10705
7.22742e-08,1.02421e-07,-2.88313e-06,-3.7722e-05,-4.23894e-05,-0.00327416,99.3207,99.1776,0.127702,49.6016,99.3307,99.1679,0.127434,99.122,213,7.7263,7.05879,0.49375,10706
9.6688e-08,5.77522e-07,-2.87705e-06,-4.09763e-05,-0.000246628,-0.00316964,95.8368,89.5339,-0.0528943,47.9462,95.8394,89.5313,-0.0529106,92.899,213,6.90395,2.27198,0.49375,10707
1.09543e-07,8.33583e-07,-2.89247e-06,-3.46437e-05,-0.000349856,-0.00311872,94.5198,84.8589,-0.00349144,47.262,94.5202,84.8586,-0.00368718,90.0826,213,6.66617,1.41548,0.49375,10708
1.39437e-07,6.68941e-07,-2.88845e-06,-4.82331e-05,-0.000247491,-0.00315607,95.7935,89.6865,0.542097,47.6736,95.8849,89.5996,0.537624,92.3651,213,5.96314,1.8487,0.49375,10709
-1.29032e-07,-4.46276e-07,-2.89146e-06,-4.72982e-05,-0.000171205,-0.00321994,96.2609,92.4633,-0.97686,48.7474,96.5137,92.2148,-0.981131,95.418,213,14.1369,17.6513,0.49375,10710
-9.51937e-08,-5.78722e-07,-2.89757e-06,-3.22194e-05,-0.00025076,-0.00316959,96.259,89.561,0.102565,48.0819,96.2655,89.5554,0.101666,92.9905,213,13.4338,18.0845,0.49375,10711
-8.95596e-08,-3.88199e-07,-2.88055e-06,-4.08556e-05,-0.000180519,-0.00319556,97.1654,92.8849,0.47769,48.3496,97.1757,92.8758,0.476481,94.6226,213,13.1961,17.228,0.49375,10712
-1.36983e-07,-1.20555e-07,-2.87783e-06,-5.34999e-05,-4.71786e-05,-0.00326685,98.4016,98.5953,-0.0836828,49.353,98.6223,98.3746,-0.0836946,98.5824,213,13.8856,14.1474,0.49375,10713
-1.77706e-07,-9.9531e-08,-2.87781e-06,-6.27312e-05,-4.07248e-05,-0.00326367,98.1319,98.8064,0.0271028,49.3916,98.8102,98.1281,0.0270993,98.4438,213,14.5609,13.6965,0.49375,10714
-1.408e-07,-7.87151e-08,-2.88034e-06,-5.41054e-05,-3.65078e-05,-0.00326974,98.6187,99.1581,0.0633375,49.5498,99.1628,98.614,0.0633159,98.8262,213,13.906,13.1476,0.49375,10715
-1.06386e-07,-9.74022e-08,-2.8809e-06,-4.45756e-05,-4.20749e-05,-0.0032733,98.9243,99.0009,-0.0320125,49.5347,99.0373,98.8879,-0.0320182,98.9947,213,13.2306,13.5985,0.49375,10716
1.34894e-07,1.92376e-07,-2.87415e-06,-5.33552e-05,-6.8322e-05,-0.00325467,98.1162,97.6575,-0.000166573,49.0723,98.1444,97.6293,-0.000172086,97.888,213,6.21439,5.35261,0.49375,10717
1.04763e-07,1.59648e-07,-2.87809e-06,-4.36227e-05,-6.0129e-05,-0.00326423,98.6895,98.1836,-0.0181522,49.3609,98.7036,98.1695,-0.0181562,98.4558,213,6.86937,5.9015,0.49375,10718
1.39237e-07,1.32744e-07,-2.87798e-06,-5.48046e-05,-5.08636e-05,-0.00326256,98.3385,98.4592,0.0245688,49.2371,98.4987,98.299,0.0245471,98.3745,213,6.19404,6.3524,0.49375,10719
1.76381e-07,1.61194e-07,-2.87367e-06,-6.39297e-05,-5.78397e-05,-0.00325439,97.7983,97.9849,0.0146352,49.0091,98.0329,97.7503,0.0146325,97.8773,213,5.53906,5.80352,0.49375,10720
-2.4049e-07,6.03614e-07,-2.89372e-06,-7.97129e-05,-0.000210059,-0.0031759,94.3726,90.3777,-0.521769,47.4488,94.3755,90.3752,-0.522116,92.962,213,15.6893,1.99156,0.49375,10721
-2.56444e-07,4.38032e-07,-2.85051e-06,-8.93955e-05,-0.000148957,-0.00319505,95.1365,93.311,-0.0479481,47.6024,95.1567,93.2908,-0.047985,94.2856,213,15.8271,2.84997,0.49375,10722
2.05271e-07,-8.9885e-07,-2.82845e-06,-7.69608e-05,-0.000757127,-0.00288335,86.1824,65.3362,0.169916,43.0377,86.245,65.2741,0.1695,77.7411,213,4.50329,18.6504,0.49375,10723
2.42013e-07,-8.65776e-07,-2.82021e-06,-8.1159e-05,-0.00080821,-0.00284565,85.4761,63.1929,0.747796,42.3972,85.5382,63.1347,0.74392,76.1072,213,4.04193,18.6504,0.489375,10724
2.9629e-07,-4.47208e-07,-2.89015e-06,-8.66488e-05,-0.0001155,-0.00319835,96.3021,95.4179,0.93243,47.9023,96.7366,94.9838,0.932015,94.9403,213,3.57022,17.8008,0.49375,10725
2.42072e-07,-8.67345e-07,-2.8451e-06,-8.12747e-05,-0.000810466,-0.00284974,85.2602,62.9114,0.410242,42.4555,85.3191,62.8545,0.408231,76.2039,213,4.04193,18.6504,0.498125,10726
2.39798e-07,1.19503e-06,-2.77587e-06,-8.49221e-05,-0.00085672,-0.00282513,84.3171,60.6624,0.332998,42.0054,84.3386,60.6461,0.327742,75.0249,213,4.50329,0.849583,0.49375,10727
2.80236e-07,1.16662e-06,-2.76164e-06,-8.95757e-05,-0.000880641,-0.00281071,83.7094,59.4642,0.30993,41.7117,83.7287,59.4494,0.305424,74.3201,213,4.04193,0.849583,0.489375,10728
-2.39586e-07,1.19388e-06,-2.77713e-06,-8.71718e-05,-0.000823238,-0.00283282,85.022,62.4625,0.871229,42.1004,85.0698,62.4169,0.869066,75.4687,213,15.5967,0.849583,0.49375,10729
-2.81541e-07,1.15201e-06,-2.76942e-06,-9.09467e-05,-0.000868477,-0.00281127,84.0036,60.1733,0.629029,41.7074,84.0406,60.1396,0.625762,74.4016,213,16.0581,0.849583,0.489375,10730
-3.15027e-07,6.71409e-07,-2.89433e-06,-8.19692e-05,-0.000199818,-0.00315521,95.2459,91.634,1.0549,47.1168,95.2882,91.592,1.0546,92.4409,213,16.5298,1.69917,0.49375,10731
-2.8161e-07,1.15472e-06,-2.794e-06,-9.12814e-05,-0.000872245,-0.00281462,83.7485,59.813,0.281614,41.7517,83.7831,59.7802,0.279753,74.4623,213,16.0581,0.849583,0.498125,10732
-2.05303e-07,-8.90326e-07,-2.83392e-06,-8.13332e-05,-0.000740093,-0.00288969,86.2564,66.0662,0.183763,43.079,86.3415,65.9814,0.183421,77.9972,213,15.5967,18.6504,0.49375,10733
-2.44384e-07,-8.51886e-07,-2.82415e-06,-8.46831e-05,-0.000791685,-0.00285231,85.5765,63.9078,0.752254,42.4475,85.6435,63.8446,0.748461,76.3658,213,16.0581,18.6504,0.489375,10734
3.15987e-07,6.67027e-07,-2.89617e-06,-8.22569e-05,-0.00023565,-0.00314755,94.3017,89.6004,0.354236,47.0033,94.3593,89.5445,0.352562,91.6942,213,3.57022,1.69917,0.49375,10735
2.8034e-07,1.16938e-06,-2.78622e-06,-8.95857e-05,-0.000884734,-0.00280857,83.6446,59.2743,0.311119,41.6783,83.6633,59.26,0.306728,74.2271,213,4.04193,0.849583,0.498125,10736
-2.98107e-07,-4.57896e-07,-2.88883e-06,-8.60563e-05,-9.19981e-05,-0.00320747,96.8122,96.6301,1.14455,48.138,97.4203,96.0223,1.14429,95.5847,213,16.5298,17.8008,0.49375,10737
-2.44463e-07,-8.53458e-07,-2.84908e-06,-8.48591e-05,-0.000794043,-0.0028562,85.36,63.6243,0.42175,42.5022,85.4239,63.5625,0.41961,76.4548,213,16.0581,18.6504,0.498125,10738
3.89483e-07,-8.53255e-07,-2.83717e-06,-0.000163957,-0.000783427,-0.00282942,81.5652,62.5792,-0.127956,40.8492,81.5679,62.5792,-0.130637,74.0532,213,2.65784,18.6504,0.49375,10739
3.24371e-07,-8.43625e-07,-2.84628e-06,-0.000118327,-0.000826532,-0.00282413,83.2206,61.515,0.291108,41.4666,83.2224,61.5151,0.289194,74.4907,213,3.1192,18.6504,0.498125,10740
4.22015e-07,1.11784e-06,-2.78634e-06,-0.000155425,-0.000867398,-0.00279265,80.5558,58.7347,-0.271984,40.4162,80.5588,58.7334,-0.273686,72.4295,213,2.65784,0.849583,0.49375,10741
3.64931e-07,1.14692e-06,-2.78233e-06,-0.000107801,-0.000927721,-0.00277094,82.3115,57.1819,0.689431,40.8158,82.3167,57.181,0.685093,72.4131,213,3.1192,0.849583,0.498125,10742
-4.19341e-07,1.12275e-06,-2.79405e-06,-0.000150276,-0.0008577,-0.00279696,81.0599,59.3783,-0.0576301,40.5644,81.067,59.3754,-0.0618324,72.7503,213,17.4422,0.849583,0.49375,10743
-3.65511e-07,1.14468e-06,-2.78778e-06,-0.000103527,-0.000927316,-0.00276662,82.7382,57.4901,1.11749,40.8147,82.745,57.4852,1.11561,72.3842,213,16.9808,0.849583,0.498125,10744
-1.74235e-07,-3.58209e-07,-2.87669e-06,-6.28022e-05,-7.43012e-05,-0.00325009,97.4702,97.1177,-0.216286,48.9638,97.7113,96.8767,-0.216321,97.513,213,14.8436,17.2222,0.49375,10745
-1.49949e-07,-7.11996e-07,-2.8702e-06,-6.94851e-05,-0.000658652,-0.00291711,88.7844,70.7271,1.50832,43.6548,88.8012,70.727,1.4916,79.8223,213,14.7511,18.3642,0.49375,10746
1.80804e-07,5.57335e-07,-2.86906e-06,-6.27378e-05,-0.000136432,-0.0032106,96.7301,94.4714,0.251846,48.2605,96.7706,94.433,0.249694,95.3736,213,5.25636,2.27783,0.49375,10747
1.72837e-07,9.79478e-07,-2.84988e-06,-7.33559e-05,-0.000730463,-0.00290886,86.4494,66.3099,-0.455336,43.4555,86.4532,66.3086,-0.457831,78.7943,213,5.34892,1.13583,0.49375,10748
3.24462e-07,-8.41895e-07,-2.82161e-06,-0.000118407,-0.000824426,-0.00282348,83.3058,61.6672,0.398561,41.4564,83.3086,61.6672,0.395809,74.4885,213,3.1192,18.6504,0.489375,10749
3.65075e-07,1.14392e-06,-2.75809e-06,-0.000108189,-0.000923326,-0.00276992,82.4648,57.4819,0.885977,40.802,82.4778,57.4812,0.873734,72.417,213,3.1192,0.849583,0.489375,10750
-3.65684e-07,1.14173e-06,-2.76357e-06,-0.000103986,-0.000923559,-0.00277284,82.6283,57.5094,0.83137,40.9033,82.6359,57.504,0.829207,72.5809,213,16.9808,0.849583,0.489375,10751
-6.44609e-08,-5.42024e-07,-2.89714e-06,-3.431e-05,-0.000195263,-0.00321078,96.5963,91.6632,-0.758699,48.6778,96.5967,91.6628,-0.758771,94.9847,213,12.6601,17.969,0.49375,10752
7.5958e-08,7.91247e-07,-2.89785e-06,-3.8747e-05,-0.000293486,-0.003142,95.3469,87.5395,0.236082,47.5567,95.3487,87.5384,0.235383,91.4586,213,7.43988,1.53098,0.49375,10753
-6.37722e-08,1.04337e-07,-2.88353e-06,-3.61378e-05,-4.19364e-05,-0.00327733,99.3323,99.1546,-0.00607298,49.6725,99.3388,99.1482,-0.00613903,99.2498,213,12.1539,7.02854,0.49375,10754
-3.94216e-08,7.25337e-08,-2.88504e-06,-3.06182e-05,-3.54729e-05,-0.00328224,99.7338,99.585,0.0756424,49.8319,99.7392,99.5798,0.075435,99.5842,213,11.3895,7.85505,0.49375,10755
6.48058e-08,-5.76492e-08,-2.885e-06,-3.65957e-05,-3.12671e-05,-0.00328256,99.4817,99.6451,-0.00318733,49.8258,99.6482,99.4788,-0.00332172,99.5669,213,7.94615,12.4715,0.49375,10756
3.98646e-08,-3.32571e-08,-2.88624e-06,-3.07371e-05,-2.80424e-05,-0.00328679,99.821,99.9035,0.0269699,49.9407,99.9081,99.8166,0.0267637,99.8356,213,8.71051,11.6449,0.49375,10757
1.00908e-07,1.31032e-06,-2.76143e-06,-3.87671e-05,-0.00105235,-0.00275573,83.1,52.0349,-0.171492,41.6491,83.1248,52.012,-0.173376,72.9037,213,6.97468,0.702609,0.49375,10758
6.48184e-08,1.22764e-06,-2.78657e-06,-3.85671e-05,-0.000970184,-0.00279707,84.4547,55.9017,-0.089945,42.2857,84.4812,55.8755,-0.0901601,74.5075,213,7.74839,0.818111,0.49375,10759
-5.09634e-08,-9.17673e-07,-2.83918e-06,-3.00799e-05,-0.000905489,-0.0028209,86.3366,59.5064,0.801337,42.7973,86.3848,59.4695,0.790097,75.8095,213,12.3516,18.6819,0.49375,10760
-8.15206e-08,-9.90669e-07,-2.83159e-06,-3.24092e-05,-0.000986295,-0.00278233,84.8005,55.5651,0.518804,42.1622,84.8336,55.5418,0.509076,74.1526,213,13.1253,18.7974,0.49375,10761
1.24405e-06,-3.18578e-07,-2.73655e-06,-0.000944488,-0.000120449,-0.00276757,55.8122,81.068,-0.0628588,40.5684,81.0712,55.8119,-0.0657355,71.915,213,0.656279,16.8032,0.49375,10762
1.27278e-06,-2.69189e-07,-2.74225e-06,-0.000984914,-8.92838e-05,-0.00274153,55.1245,82.5745,1.28636,40.649,82.5813,55.1207,1.28335,71.6307,213,0.656279,16.3157,0.498125,10763
1.24727e-06,4.40801e-07,-2.72863e-06,-0.000949597,-0.00016085,-0.00274568,54.8791,79.0533,-0.168674,39.6119,79.0542,54.879,-0.169512,70.3249,213,0.656279,2.69678,0.49375,10764
1.25184e-06,3.7144e-07,-2.71044e-06,-0.000956244,-0.000122806,-0.00275401,55.4338,80.9776,0.3346,40.3316,80.99,55.4293,0.326737,71.401,213,0.656279,3.18428,0.489375,10765
-8.18363e-07,-3.74282e-08,-2.87076e-06,-0.000384854,-2.88569e-05,-0.00313189,82.3936,93.3045,-1.79962,47.5877,93.3538,82.3663,-1.82161,90.1851,213,18.6935,11.8406,0.49375,10766
-5.82976e-07,-3.64051e-08,-2.89251e-06,-0.000244653,-2.78981e-05,-0.0030889,92.7426,99.3859,5.56992,47.0586,99.5404,92.7349,5.42318,90.9057,213,17.9093,11.8239,0.49375,10767
-4.50652e-07,-5.80423e-08,-2.88591e-06,-0.000170036,-2.87102e-05,-0.00319831,93.8595,98.1909,1.04658,48.5799,98.2048,93.8473,1.04491,95.0561,213,17.2665,12.5612,0.49375,10768
8.12087e-07,7.27262e-08,-2.88543e-06,-0.000374156,-3.56294e-05,-0.00306505,85.047,95.4224,2.5743,46.4714,95.4832,85.0202,2.54036,88.1781,213,1.40646,7.65943,0.49375,10769
5.86107e-07,7.12191e-08,-2.89117e-06,-0.000234061,-3.40455e-05,-0.00330926,85.9713,92.1015,-8.27974,50.3555,92.268,85.9681,-8.44303,97.7135,213,2.19074,7.67613,0.49375,10770
4.49682e-07,9.77487e-08,-2.8797e-06,-0.000167785,-3.81009e-05,-0.00322211,92.9115,96.8862,-0.699871,48.7938,96.887,92.9115,-0.70065,95.6619,213,2.83346,6.93879,0.49375,10771
-8.09613e-07,7.29919e-08,-2.86998e-06,-0.000381279,-3.6125e-05,-0.00307319,84.3108,94.8893,1.80687,46.5755,94.935,84.2879,1.78402,88.3101,213,18.6935,7.65942,0.49375,10772
-5.77866e-07,7.11436e-08,-2.89305e-06,-0.000242099,-3.44685e-05,-0.00324929,87.4175,93.7812,-4.74932,49.3898,93.9085,87.4119,-4.87101,95.6967,213,17.9093,7.67607,0.49375,10773
-4.44788e-07,9.85056e-08,-2.88668e-06,-0.000170403,-3.8845e-05,-0.00321989,92.7937,96.8258,-0.669358,48.7521,96.8338,92.7866,-0.670312,95.5449,213,17.2665,6.93873,0.49375,10774
4.55222e-07,-5.74076e-08,-2.87768e-06,-0.000164187,-2.8353e-05,-0.00320744,93.9426,98.1058,0.670651,48.7199,98.1094,93.9401,0.669566,95.4235,213,2.83346,12.5613,0.49375,10775
8.22249e-07,-3.76425e-08,-2.88663e-06,-0.000386989,-2.85833e-05,-0.0031393,82.0235,93.0082,-2.33126,47.7113,93.0641,81.995,-2.35861,90.3978,213,1.40646,11.8406,0.49375,10776
5.88159e-07,-3.67228e-08,-2.89151e-06,-0.000238999,-2.77986e-05,-0.00303957,94.7264,101.199,8.89232,46.3578,101.406,94.7207,8.69067,89.5602,213,2.19073,11.8239,0.49375,10777
2.36329e-08,-1.58335e-07,-2.87607e-06,-2.78896e-05,-5.71876e-05,-0.00327684,99.3709,98.4729,-0.205531,49.789,99.3724,98.4715,-0.205633,99.1307,213,9.19059,14.7827,0.49375,10778
1.67766e-08,-2.21139e-07,-2.87154e-06,-2.59645e-05,-7.89117e-05,-0.00325557,99.4781,97.8553,0.494526,49.4918,99.4781,97.8553,0.494507,98.1823,213,9.42148,15.7012,0.49375,10779
4.64014e-08,-1.83654e-07,-2.87427e-06,-2.92005e-05,-6.88398e-05,-0.00327049,99.1134,97.8985,-0.228077,49.6727,99.1173,97.8947,-0.228167,98.7398,213,8.36802,15.2075,0.49375,10780
3.79056e-08,-2.57354e-07,-2.87276e-06,-2.6973e-05,-8.85148e-05,-0.00325564,99.0962,97.21,0.141407,49.4783,99.098,97.2082,0.141391,98.0254,213,8.59891,16.1259,0.49375,10781
-4.6182e-08,2.85478e-07,-2.86869e-06,-2.9946e-05,-0.000100015,-0.00324964,98.7267,96.5792,0.0470308,49.3404,98.7278,96.5782,0.0469697,97.6238,213,11.732,4.29249,0.49375,10782
-3.86983e-08,3.91602e-07,-2.86516e-06,-2.85564e-05,-0.000127876,-0.00323734,98.3036,95.2596,-0.0416236,49.1727,98.3037,95.2595,-0.0416568,96.8592,213,11.5011,3.37405,0.49375,10783
-1.59719e-08,3.38548e-07,-2.86233e-06,-2.68789e-05,-0.000113432,-0.00324294,98.7007,96.048,0.132389,49.2847,98.7013,96.0479,0.131951,97.2698,213,10.6785,3.79884,0.49375,10784
-2.28041e-08,2.47992e-07,-2.8708e-06,-2.80382e-05,-8.31353e-05,-0.00325035,99.3793,97.6907,0.619484,49.3806,99.3806,97.6895,0.619357,97.9267,213,10.9094,4.71728,0.49375,10785
-7.51585e-11,1.07507e-06,-2.84866e-06,-1.20752e-05,-0.000811375,-0.00288761,88.3809,63.8833,0.249248,44.068,88.3831,63.8833,0.247066,78.7965,213,10.05,1.06179,0.498125,10786
-5.68191e-09,1.05422e-06,-2.83987e-06,-2.43832e-05,-0.000799593,-0.00288215,88.1657,64.4065,0.578658,43.811,88.1924,64.3881,0.570373,78.476,213,10.5114,1.06179,0.49375,10787
3.87628e-10,-7.80041e-07,-2.84983e-06,-4.05202e-06,-0.000732788,-0.00293951,89.7675,67.4326,-0.200687,44.9844,89.7677,67.4327,-0.201007,81.1404,213,10.05,18.4382,0.489375,10788
-1.74941e-09,-7.6033e-07,-2.8624e-06,-2.16791e-05,-0.000714928,-0.00293944,89.2373,67.9901,-0.188432,44.7271,89.2657,67.9617,-0.188439,80.9331,213,10.5114,18.4382,0.49375,10789
3.88938e-10,-7.81181e-07,-2.87548e-06,-3.85407e-06,-0.000734114,-0.00293946,89.7381,67.3565,-0.234752,44.9865,89.7382,67.3566,-0.234911,81.1317,213,10.05,18.4382,0.498125,10790
-2.19329e-10,-4.07677e-07,-2.89607e-06,-1.2918e-05,-5.15497e-05,-0.00328142,100.357,99.1726,0.181011,50.088,100.357,99.1726,0.180979,99.5891,213,10.05,17.3764,0.49375,10791
-1.03764e-10,1.07272e-06,-2.82344e-06,-1.22538e-05,-0.000808613,-0.00289111,88.3451,63.9377,0.11162,44.118,88.3464,63.9377,0.110371,78.9155,213,10.05,1.06179,0.489375,10792
5.44109e-10,6.07489e-07,-2.89698e-06,-1.73216e-05,-0.000135231,-0.00323775,98.7621,95.1483,0.0600304,49.3512,98.7624,95.1482,0.0599,96.9459,213,10.05,2.12359,0.49375,10793
1.89265e-09,-7.5892e-07,-2.86785e-06,-1.8315e-05,-0.000721217,-0.00293924,89.2506,67.7075,-0.272287,44.7745,89.2765,67.6818,-0.272506,80.9418,213,9.58864,18.4382,0.49375,10794
5.78118e-08,4.08695e-07,-2.86938e-06,-3.356e-05,-0.000129506,-0.00323279,98.0816,95.141,0.0290562,49.0266,98.0822,95.1405,0.0290035,96.6159,213,7.96717,3.20992,0.49375,10795
8.99012e-08,4.10443e-07,-2.86787e-06,-3.96323e-05,-0.00013129,-0.00322818,97.789,94.9798,0.0639263,48.8642,97.7923,94.9765,0.063919,96.3513,213,7.10003,3.17009,0.49375,10796
6.70402e-08,3.25779e-07,-2.86809e-06,-3.58885e-05,-0.000109466,-0.00325443,97.8813,95.6262,-0.763047,49.3239,97.8842,95.6239,-0.763606,97.5373,213,7.71558,3.89577,0.49375,10797
-5.66244e-08,-2.69081e-07,-2.87542e-06,-3.19127e-05,-9.13043e-05,-0.0032528,98.7843,96.9641,0.0681977,49.3604,98.7888,96.9597,0.0681059,97.819,213,12.1328,16.2901,0.49375,10798
-6.70404e-08,-2.11239e-07,-2.87556e-06,-3.48898e-05,-7.55563e-05,-0.00325583,99.0132,97.7668,0.295446,49.3625,99.0202,97.7601,0.295155,98.1011,213,12.3844,15.6042,0.49375,10799
-8.69298e-08,-2.69317e-07,-2.8734e-06,-3.86668e-05,-9.1311e-05,-0.00325065,98.4256,96.8121,-0.0179062,49.2277,98.4376,96.8001,-0.0179115,97.6471,213,13,16.3299,0.49375,10800
-1.33922e-06,-2.21198e-09,-2.72361e-06,-0.000967061,-2.49777e-05,-0.00287654,53.9348,82.8085,-4.58826,43.7457,82.8562,53.9342,-4.63527,77.2063,213,19.3898,10.4421,0.49375,10801
-1.32658e-06,-1.5036e-08,-2.74412e-06,-0.000955475,-2.74252e-05,-0.00282178,56.39,84.8336,-0.809819,42.8282,84.8465,56.3772,-0.80991,75.5575,213,19.3898,10.9296,0.498125,10802
1.33988e-06,-2.28714e-09,-2.73147e-06,-0.000978714,-2.57197e-05,-0.00289575,52.5391,81.7472,-6.21556,44.0317,81.7974,52.5392,-6.26588,77.6828,213,0.710212,10.4421,0.49375,10803
1.3311e-06,-1.56084e-08,-2.75031e-06,-0.000968006,-2.85123e-05,-0.00281831,55.6724,84.4667,-1.03712,42.7565,84.4754,55.6642,-1.03768,75.3581,213,0.710212,10.9296,0.498125,10804
5.02507e-08,1.2474e-06,-2.76942e-06,-2.73321e-05,-0.000963764,-0.00279898,85.3165,56.616,0.368973,42.4778,85.3206,56.616,0.364897,74.8519,213,8.20976,0.818111,0.489375,10805
-4.06029e-08,-9.39281e-07,-2.84798e-06,-1.69922e-05,-0.000898989,-0.00285319,86.3204,59.2883,-0.605423,43.464,86.3212,59.2888,-0.606737,77.0542,213,11.8902,18.6819,0.498125,10806
-1.14877e-06,2.09049e-07,-2.7895e-06,-0.000881833,-5.94895e-05,-0.00283165,59.6889,84.8928,-0.0706446,42.4821,84.8932,59.6888,-0.0709856,75.5825,213,19.2584,4.99211,0.498125,10807
-1.14169e-06,1.81204e-07,-2.78128e-06,-0.000869388,-5.95581e-05,-0.00283778,60.2757,85.096,-0.0531558,42.585,85.1117,60.2652,-0.058345,75.8624,213,19.2584,5.47961,0.49375,10808
1.16822e-06,-1.44988e-07,-2.77187e-06,-0.000888338,-3.93961e-05,-0.00284044,59.6474,85.6664,-0.182193,42.927,85.6687,59.6482,-0.185327,76.2497,213,0.84159,14.5079,0.489375,10809
1.16009e-06,-1.26954e-07,-2.78982e-06,-0.000878106,-4.35503e-05,-0.00283588,60.3107,85.8888,0.307388,42.7977,85.9023,60.2977,0.306858,76.0956,213,0.84159,14.0204,0.49375,10810
-1.17062e-06,-1.44788e-07,-2.76714e-06,-0.000891486,-3.80448e-05,-0.00283779,59.579,85.7359,-0.0727839,42.9085,85.74,59.5793,-0.0771052,76.1834,213,19.2584,14.5079,0.489375,10811
-1.16576e-06,-1.27588e-07,-2.78204e-06,-0.000882069,-4.05332e-05,-0.00283131,60.3083,86.1004,0.566546,42.7742,86.1147,60.2942,0.566285,76.0022,213,19.2584,14.0204,0.49375,10812
1.14882e-06,2.10819e-07,-2.79466e-06,-0.000882104,-6.00651e-05,-0.002831,59.6743,84.8687,-0.0570656,42.4631,84.8689,59.6743,-0.0572764,75.5483,213,0.841591,4.99212,0.498125,10813
1.13738e-06,1.82296e-07,-2.78966e-06,-0.000870304,-6.43256e-05,-0.00282651,60.4312,85.1335,0.47582,42.3415,85.1518,60.4199,0.468777,75.4222,213,0.841591,5.47962,0.49375,10814
5.42799e-08,-9.19129e-07,-2.84073e-06,-2.88049e-05,-0.000911914,-0.00280853,86.613,59.5468,1.41793,42.6365,86.6576,59.5356,1.38458,75.4607,213,7.71869,18.6863,0.49375,10815
4.25192e-08,-9.32431e-07,-2.85282e-06,-2.25215e-05,-0.000897984,-0.00285184,86.0465,59.2146,-0.668696,43.3602,86.0488,59.2153,-0.671637,76.899,213,8.18005,18.6863,0.498125,10816
-5.27379e-08,1.24449e-06,-2.77131e-06,-2.96009e-05,-0.000968639,-0.00278185,85.5752,56.7948,1.22228,42.1991,85.5978,56.7948,1.19967,74.3084,213,11.9199,0.813717,0.489375,10817
-6.74244e-08,1.23268e-06,-2.78498e-06,-3.36079e-05,-0.000980854,-0.00281202,83.9274,54.8954,-1.22768,42.5851,83.9392,54.887,-1.23103,74.9907,213,12.3813,0.813717,0.49375,10818
4.611e-07,-1.23204e-07,-2.86756e-06,-0.000171831,-4.64095e-05,-0.00320632,92.9005,96.7445,-0.102789,48.4272,96.7515,92.8937,-0.103004,94.9844,213,2.83621,14.3227,0.49375,10819
3.23129e-07,-1.19116e-07,-2.86446e-06,-0.000106483,-4.33247e-05,-0.00324062,96.025,97.9607,-0.0325558,49.0019,97.9712,96.0145,-0.0325588,97.0402,213,3.86597,14.2232,0.49375,10820
3.45334e-07,-1.66401e-07,-2.85736e-06,-0.000114095,-5.98613e-05,-0.00322796,95.4141,97.0763,-0.022071,48.5636,97.1051,95.3853,-0.0220724,96.2788,213,3.58023,15.1536,0.49375,10821
4.9889e-07,-1.73294e-07,-2.87245e-06,-0.000185841,-5.9921e-05,-0.00318848,92.1529,96.0122,0.125664,47.9515,96.0286,92.1366,0.125558,94.0175,213,2.55047,15.2531,0.49375,10822
3.61868e-07,3.51656e-07,-2.84897e-06,-0.000115853,-0.000112612,-0.00319916,94.5155,94.6148,0.0159942,47.4187,94.8533,94.277,0.0159918,94.5505,213,3.29449,3.41598,0.49375,10823
4.87949e-07,2.61395e-07,-2.86767e-06,-0.000180605,-9.06065e-05,-0.00317995,91.7574,94.5158,-0.168714,47.3612,94.5536,91.7196,-0.168776,93.3377,213,2.55047,4.2469,0.49375,10824
3.385e-07,2.57354e-07,-2.85589e-06,-0.000110374,-9.10789e-05,-0.00321354,95.0984,95.6898,-0.00989821,47.8952,95.7805,95.0077,-0.00990161,95.4064,213,3.58023,4.34639,0.49375,10825
-3.45625e-07,-1.67356e-07,-2.85775e-06,-0.000114193,-6.02141e-05,-0.00322759,95.4087,97.0631,-0.0129055,48.5535,97.0942,95.3776,-0.0129078,96.2603,213,16.5198,15.1536,0.49375,10826
-4.98208e-07,-1.73317e-07,-2.87227e-06,-0.000184072,-5.9914e-05,-0.0031899,92.2189,96.0242,0.0940916,47.9735,96.0409,92.2022,0.0940076,94.0863,213,17.5495,15.2531,0.49375,10827
-3.67034e-07,-2.29689e-07,-2.85334e-06,-0.00012117,-7.51551e-05,-0.00321593,94.8578,96.2681,0.00731249,48.1625,96.3323,94.7936,0.00729762,95.565,213,16.8055,16.084,0.49375,10828
1.07945e-06,-4.26202e-07,-2.79961e-06,-0.000819549,-0.000177508,-0.00279644,60.9235,80.6013,0.334283,40.149,80.6252,60.9067,0.327151,72.4793,213,0.847604,17.5625,0.49375,10829
7.53052e-07,-5.27039e-07,-2.88827e-06,-0.000426005,-0.000290109,-0.00295271,77.0826,81.2476,-0.357788,40.8196,81.2812,77.0491,-0.357975,79.6076,213,1.31519,18.0531,0.49375,10830
1.44612e-06,-5.80965e-07,-2.68015e-06,-0.00116286,-0.000282637,-0.00257219,43.0331,70.0109,-0.161237,35.1229,70.0763,42.976,-0.169518,61.3614,213,0.367583,18.0406,0.49375,10831
9.76669e-07,-7.44914e-07,-2.81698e-06,-0.000595942,-0.000466775,-0.00276034,66.8053,70.7641,0.469295,35.3032,71.0697,66.5056,0.463356,68.4385,213,0.835166,18.5312,0.49375,10832
3.66875e-07,-2.28848e-07,-2.85485e-06,-0.000121336,-7.52758e-05,-0.0032158,94.8475,96.2591,0.0060162,48.1521,96.3103,94.7963,0.0060007,95.5563,213,3.29449,16.084,0.49375,10833
-4.61595e-07,-1.22359e-07,-2.8658e-06,-0.000169625,-4.6475e-05,-0.0032076,92.9965,96.7709,-0.113611,48.4487,96.7837,92.9839,-0.113815,95.0546,213,17.2638,14.3227,0.49375,10834
-3.24302e-07,-1.19252e-07,-2.86284e-06,-0.000109782,-4.2882e-05,-0.0032397,95.8604,97.9108,-0.0677797,48.9916,97.9154,95.8558,-0.0677802,96.9698,213,16.234,14.2232,0.49375,10835
3.1634e-07,1.86167e-07,-2.85826e-06,-0.000103519,-6.34376e-05,-0.00323155,95.8504,97.0788,-0.0200261,48.5633,97.1067,95.8226,-0.0200301,96.491,213,3.86597,5.2768,0.49375,10836
4.50704e-07,1.89386e-07,-2.86293e-06,-0.000168599,-6.55457e-05,-0.0032011,92.6484,95.8069,-0.293959,48.0587,95.8233,92.6321,-0.294124,94.5623,213,2.83621,5.17731,0.49375,10837
-3.23642e-07,1.12817e-06,-2.77505e-06,-8.48051e-05,-0.000947807,-0.00278155,82.7634,56.3135,0.111676,41.3319,82.773,56.3064,0.109198,73.116,213,16.5194,0.849583,0.49375,10838
2.80274e-07,-8.42484e-07,-2.8297e-06,-7.88292e-05,-0.000883017,-0.00281786,84.0789,59.4315,0.131,41.9827,84.0946,59.4176,0.129182,74.7471,213,3.58056,18.6504,0.49375,10839
-2.83575e-07,-8.3094e-07,-2.8316e-06,-7.98081e-05,-0.000873419,-0.00282162,84.2087,59.8855,0.17569,42.0191,84.2115,59.8852,0.173265,74.8989,213,16.5194,18.6504,0.49375,10840
3.22496e-07,1.14986e-06,-2.76845e-06,-8.4828e-05,-0.000927854,-0.00278422,83.3297,57.492,0.596565,41.3791,83.3423,57.4919,0.58409,73.3337,213,3.58056,0.849583,0.49375,10841
-4.50582e-07,1.88906e-07,-2.86393e-06,-0.000168084,-6.48479e-05,-0.00320015,92.7353,95.8993,-0.193844,48.0617,95.9295,92.7052,-0.193904,94.5525,213,17.2638,5.17731,0.49375,10842
-3.80758e-07,1.39256e-07,-2.86581e-06,-0.000135064,-5.00228e-05,-0.00321885,94.7053,97.3117,0.191099,48.5606,97.312,94.7052,0.190869,95.8443,213,16.7641,6.08393,0.49375,10843
-3.17043e-07,1.86371e-07,-2.85942e-06,-0.000104304,-6.29058e-05,-0.00323148,95.8205,97.0893,-0.0235229,48.5696,97.1156,95.7942,-0.0235288,96.4852,213,16.234,5.2768,0.49375,10844
3.89277e-07,-8.60615e-08,-2.86671e-06,-0.000132619,-3.57048e-05,-0.00322704,95.0619,98.0322,0.22167,48.9053,98.0323,95.0619,0.221614,96.3598,213,3.33592,13.4161,0.49375,10845
-9.74002e-08,-9.94258e-07,-2.83489e-06,-2.70827e-05,-0.000931832,-0.00283648,85.1493,57.4199,-0.955131,43.0584,85.1601,57.4108,-0.956794,76.1345,213,14.048,18.7974,0.49375,10846
1.26598e-07,1.31378e-06,-2.75488e-06,-3.64423e-05,-0.00101092,-0.00278054,83.7939,53.9274,-0.309301,42.0581,83.8025,53.9232,-0.313747,73.8579,213,6.05196,0.702609,0.49375,10847
-1.26523e-07,-3.10553e-07,-2.87269e-06,-5.17971e-05,-0.000107843,-0.00323082,97.7001,95.9824,0.266994,48.7291,97.7247,95.9583,0.26649,96.5871,213,13.9408,16.7532,0.49375,10848
1.31099e-07,4.72469e-07,-2.86458e-06,-5.13052e-05,-0.0001628,-0.00321313,96.5064,93.0892,-0.399777,48.4537,96.5074,93.0884,-0.399971,95.2439,213,6.15923,2.74681,0.49375,10849
4.16276e-07,-4.29651e-07,-2.89315e-06,-0.000169141,-0.000131734,-0.00316482,91.6311,92.7776,-0.182703,46.6802,93.1775,91.2314,-0.182899,92.4027,213,2.68271,17.6879,0.49375,10850
6.06497e-07,-4.04769e-07,-2.90676e-06,-0.000231607,-0.000112158,-0.00313872,89.1647,92.8257,0.0651944,46.3941,92.8532,89.1373,0.0650758,90.9871,213,1.79521,17.5749,0.49375,10851
5.72252e-07,-7.66512e-07,-2.86681e-06,-0.000252587,-0.000731907,-0.0028026,78.5104,63.8199,0.355537,39.1345,78.6165,63.7218,0.347589,71.9867,213,1.77033,18.5375,0.49375,10852
4.30327e-07,6.2753e-07,-2.88496e-06,-0.000159822,-0.000225618,-0.0031283,90.3376,88.321,-0.64257,45.5927,90.5428,88.1159,-0.642672,89.9966,213,2.68271,1.81212,0.49375,10853
6.03803e-07,1.03428e-06,-2.8378e-06,-0.000253314,-0.000781663,-0.00277922,77.5974,61.4042,0.181452,38.736,77.6503,61.3545,0.178238,70.7461,213,1.77033,0.962542,0.49375,10854
6.04493e-07,5.77121e-07,-2.9044e-06,-0.000195491,-0.000207666,-0.00310783,89.3349,88.9618,0.0753496,44.7414,89.5581,88.7388,0.0752107,89.076,213,1.79521,1.92508,0.49375,10855
-4.30884e-07,6.28314e-07,-2.87991e-06,-0.000164486,-0.000230467,-0.00312528,89.9813,87.9591,-0.763406,45.4712,90.179,87.7614,-0.763454,89.7581,213,17.4173,1.81212,0.49375,10856
-6.04197e-07,1.02899e-06,-2.8424e-06,-0.000262475,-0.000764691,-0.00278176,77.49,62.0977,0.277064,38.6388,77.5521,62.0381,0.274584,70.8069,213,18.3297,0.962542,0.49375,10857
-6.1203e-07,5.8436e-07,-2.90815e-06,-0.000195165,-0.000210722,-0.00310631,89.3052,88.8284,0.0823233,44.6672,89.4165,88.7173,0.0821417,88.9868,213,18.3048,1.92508,0.49375,10858
3.81707e-07,1.38344e-07,-2.86287e-06,-0.000130722,-5.05064e-05,-0.00321905,94.9584,97.4169,0.304796,48.5573,97.4192,94.9563,0.304562,95.9069,213,3.33592,6.08393,0.49375,10859
-3.88823e-07,-8.70967e-08,-2.86782e-06,-0.000137744,-3.45838e-05,-0.00322424,94.8651,98.0268,0.267693,48.8804,98.0285,94.8634,0.26764,96.2174,213,16.7641,13.4161,0.49375,10860
-2.65064e-07,-2.06989e-07,-2.85553e-06,-9.38833e-05,-7.12815e-05,-0.00323258,96.1708,96.8635,-0.0264642,48.481,96.9355,96.0988,-0.0264664,96.5463,213,15.8091,15.7295,0.49375,10861
-2.55134e-07,-2.87965e-07,-2.85674e-06,-9.11301e-05,-0.000105521,-0.00321766,95.7106,95.2696,-0.113796,47.9715,95.8292,95.151,-0.113801,95.6057,213,15.8271,16.65,0.49375,10862
2.55221e-07,4.38679e-07,-2.8493e-06,-9.01862e-05,-0.000156562,-0.00318965,95.0137,92.9793,0.0188771,47.5156,95.0501,92.943,0.0188379,93.9954,213,4.27286,2.84999,0.49375,10863
2.60661e-07,3.19744e-07,-2.85215e-06,-9.17631e-05,-0.000105136,-0.00321701,95.7046,95.2948,-0.0802691,47.9467,95.813,95.1864,-0.0802783,95.5815,213,4.29089,3.77046,0.49375,10864
-3.26098e-07,-8.44673e-07,-2.84544e-06,-0.000109963,-0.000840124,-0.00281042,83.7556,61.377,0.989821,41.3849,83.7575,61.3772,0.987712,74.1573,213,16.9808,18.6504,0.498125,10865
-7.63163e-07,7.3756e-07,-2.90912e-06,-0.000391402,-0.000393878,-0.00291487,77.1136,77.0378,-0.227485,38.9184,77.6092,76.5424,-0.227682,77.309,213,18.7848,1.44693,0.49375,10866
-1.00964e-06,9.72112e-07,-2.79298e-06,-0.000571967,-0.000553044,-0.00272739,66.5757,67.1557,0.514768,33.6111,67.7313,66.0058,0.509143,66.3762,213,19.2648,0.968771,0.49375,10867
-7.84664e-07,1.38549e-06,-2.7076e-06,-0.00038065,-0.00109634,-0.00255756,66.453,44.5182,-0.266499,33.3787,66.4863,44.4896,-0.271183,58.9234,213,18.8097,0.484385,0.49375,10868
7.85948e-07,1.39633e-06,-2.72474e-06,-0.00039017,-0.00111698,-0.0025425,65.665,43.3893,-0.301103,32.9965,65.6877,43.3709,-0.305367,58.1409,213,1.29031,0.484385,0.49375,10869
1.01218e-06,9.73557e-07,-2.81556e-06,-0.000599152,-0.00057302,-0.00270446,64.946,65.7469,0.4208,32.7612,65.9378,64.7607,0.415295,64.9419,213,0.835166,0.968771,0.49375,10870
7.5733e-07,7.316e-07,-2.90105e-06,-0.000403189,-0.000399193,-0.00290653,76.4641,76.5866,-0.260324,38.68,77.0992,75.9519,-0.260757,76.7928,213,1.31519,1.44693,0.49375,10871
-7.4976e-07,-5.27056e-07,-2.89395e-06,-0.000421978,-0.000308826,-0.00294643,76.9295,80.3974,-0.441947,40.4283,80.4145,76.9126,-0.442121,79.1638,213,18.7848,18.0531,0.49375,10872
-9.75835e-07,-7.44494e-07,-2.81734e-06,-0.000582293,-0.000465967,-0.00276634,67.5016,71.0669,0.56339,35.4384,71.435,67.1387,0.558249,68.8292,213,19.2648,18.5312,0.49375,10873
-7.24367e-07,-1.11608e-06,-2.79385e-06,-0.00037012,-0.00104989,-0.00258708,67.6781,46.8439,-0.268953,34.0302,67.782,46.7494,-0.278377,60.3581,213,18.8097,19.0156,0.49375,10874
-5.71786e-07,-7.81025e-07,-2.86421e-06,-0.000256284,-0.000711921,-0.00281122,78.6494,64.6847,0.343785,39.2198,78.7766,64.5644,0.336948,72.3876,213,18.3297,18.5375,0.49375,10875
7.22169e-07,-1.12707e-06,-2.79286e-06,-0.000369523,-0.00108359,-0.00257154,67.119,45.2336,-0.369981,33.8014,67.2254,45.1345,-0.377311,59.7054,213,1.29031,19.0156,0.49375,10876
2.29239e-07,-4.00793e-07,-2.88552e-06,-7.83742e-05,-0.000127364,-0.00322153,95.6759,94.1744,-0.657923,48.1699,95.6818,94.1685,-0.657925,95.5921,213,4.41318,17.5278,0.49375,10877
1.51688e-07,-7.20795e-07,-2.86336e-06,-6.65788e-05,-0.000664512,-0.0029154,88.8325,70.5066,1.51961,43.6813,88.8603,70.5007,1.49771,79.7832,213,5.34626,18.3773,0.49375,10878
-1.7385e-07,1.01146e-06,-2.84043e-06,-7.04688e-05,-0.000747547,-0.00290957,86.0482,65.2965,-0.966637,43.514,86.061,65.284,-0.966924,78.7233,213,14.7537,1.12267,0.49375,10879
3.16457e-08,-9.23673e-07,-2.84215e-06,-3.10453e-05,-0.000826054,-0.00282655,88.7004,64.3344,3.02171,42.9489,88.8146,64.3252,2.9167,76.6459,213,8.71244,18.6886,0.49375,10880
2.06097e-08,-4.57088e-07,-2.89727e-06,-2.62214e-05,-0.000117275,-0.00324782,98.4557,95.6651,-0.282381,49.3816,98.4802,95.6411,-0.282907,97.3746,213,9.1738,17.6268,0.49375,10881
-3.79215e-08,1.23913e-06,-2.78511e-06,-3.42038e-05,-0.00090574,-0.00287254,84.3693,57.6578,-2.62231,43.5226,84.399,57.6519,-2.6461,77.2273,213,11.3876,0.811382,0.49375,10882
-2.38493e-08,6.78036e-07,-2.89974e-06,-2.87377e-05,-0.000217446,-0.00318104,97.1988,91.4151,0.584714,48.3183,97.2157,91.4038,0.579081,93.8657,213,10.9262,1.87317,0.49375,10883
-3.4245e-08,-9.23153e-07,-2.84067e-06,-3.28445e-05,-0.000815145,-0.00284674,88.281,64.3044,2.0385,43.16,88.3223,64.2992,2.00237,77.1659,213,11.3876,18.6886,0.49375,10884
-2.20045e-08,-4.53975e-07,-2.89736e-06,-2.62575e-05,-0.000123908,-0.00324969,98.1741,95.1813,-0.620068,49.4129,98.2054,95.1503,-0.620367,97.3342,213,10.9262,17.6268,0.49375,10885
2.47838e-07,-1.49503e-07,-2.86375e-06,-8.84123e-05,-5.63435e-05,-0.00324216,96.6944,97.6773,0.0359735,48.8345,97.705,96.6667,0.0359652,97.1541,213,4.57679,14.7993,0.49375,10886
2.43599e-07,2.33063e-07,-2.86258e-06,-8.62551e-05,-8.22027e-05,-0.0032304,96.3681,96.4923,0.00403434,48.326,96.6561,96.2043,0.00402897,96.427,213,4.57664,4.70087,0.49375,10887
-2.48965e-07,-1.49528e-07,-2.86517e-06,-8.9768e-05,-5.45294e-05,-0.0032435,96.6239,97.7039,-0.0340614,48.8809,97.7278,96.6001,-0.0340915,97.2029,213,15.5234,14.7991,0.49375,10888
2.65055e-07,-2.08229e-07,-2.85458e-06,-9.32284e-05,-7.41918e-05,-0.00323414,96.0654,96.6489,-0.199711,48.4722,96.7446,95.9697,-0.199712,96.5592,213,4.29105,15.7297,0.49375,10889
-4.86463e-07,2.61437e-07,-2.8671e-06,-0.000180711,-9.13403e-05,-0.00317669,91.8336,94.5727,0.0104916,47.2994,94.6092,91.7973,0.0103559,93.2247,213,17.5495,4.2469,0.49375,10890
-5.12619e-07,3.44577e-07,-2.85941e-06,-0.000218588,-0.000105931,-0.00314395,90.0244,93.4772,0.365687,46.569,93.5032,89.999,0.365097,91.4364,213,17.7465,3.42977,0.49375,10891
-7.10057e-07,2.59317e-07,-2.88929e-06,-0.000293402,-8.97141e-05,-0.0031209,86.5631,92.8059,-0.0963223,46.4519,92.8064,86.5638,-0.097455,89.9451,213,18.4911,4.26151,0.49375,10892
-7.73832e-07,3.42724e-07,-2.8752e-06,-0.000318375,-9.98808e-05,-0.00309754,85.4106,92.1072,0.232628,45.9388,92.1096,85.409,0.231874,88.7174,213,18.688,3.44438,0.49375,10893
7.27315e-07,-1.78567e-07,-2.88494e-06,-0.000302022,-6.39853e-05,-0.00315895,85.6109,92.9064,-1.9503,47.4427,92.9278,85.5968,-1.95764,91.4406,213,1.6089,15.2385,0.49375,10894
5.31931e-07,-2.30251e-07,-2.87227e-06,-0.000233768,-7.48305e-05,-0.00315387,89.7564,94.6277,0.258992,47.1855,94.63,89.7541,0.258992,92.03,213,2.35352,16.0702,0.49375,10895
8.07062e-07,-2.41823e-07,-2.86828e-06,-0.000300527,-7.3358e-05,-0.00312375,86.5546,93.5171,0.0264882,46.7457,93.5175,86.5546,0.0260942,90.2117,213,1.41195,16.0556,0.49375,10896
-7.26713e-07,-1.77512e-07,-2.88737e-06,-0.000303641,-6.42766e-05,-0.00315802,85.529,92.8652,-1.95403,47.4249,92.8887,85.5124,-1.96097,91.3851,213,18.4911,15.2385,0.49375,10897
-5.3138e-07,-2.30087e-07,-2.87176e-06,-0.000233857,-7.41214e-05,-0.00315404,89.7683,94.664,0.268227,47.1996,94.6674,89.7649,0.268227,92.0459,213,17.7465,16.0702,0.49375,10898
-8.07397e-07,-2.41518e-07,-2.86967e-06,-0.000302716,-7.29272e-05,-0.00312266,86.4653,93.508,0.0373376,46.7358,93.5086,86.4652,0.0368768,90.1566,213,18.688,16.0556,0.49375,10899
-1.81225e-07,-2.5685e-07,-2.86121e-06,-6.41666e-05,-9.29349e-05,-0.00324066,97.0811,96.1994,-0.274441,48.7049,97.1352,96.1453,-0.274505,96.9186,213,14.8147,16.287,0.49375,10900
1.81626e-07,3.97391e-07,-2.84835e-06,-6.1363e-05,-0.000144058,-0.00321385,96.46,93.9255,-0.159978,48.3169,96.4737,93.9119,-0.160027,95.3786,213,5.28535,3.21301,0.49375,10901
1.05224e-06,5.80055e-07,-2.81539e-06,-0.000829961,-0.000230954,-0.00276242,59.6236,77.9824,0.395934,38.8083,78.0078,59.6029,0.391244,70.2463,213,0.847604,1.93754,0.49375,10902
5.16535e-07,3.45163e-07,-2.85978e-06,-0.000222813,-0.000109067,-0.00313719,89.8751,93.3613,0.552918,46.4127,93.3781,89.8586,0.5526,91.1168,213,2.35352,3.42977,0.49375,10903
-3.61484e-07,3.51642e-07,-2.84886e-06,-0.000113496,-0.000113176,-0.00319984,94.6241,94.6339,0.0313582,47.4538,94.939,94.319,0.031356,94.5992,213,16.8055,3.41598,0.49375,10904
7.82105e-07,3.42621e-07,-2.87116e-06,-0.000318585,-0.000100157,-0.00310063,85.2865,91.981,0.0200973,45.9823,91.9844,85.2835,0.0196977,88.8041,213,1.41195,3.44438,0.49375,10905
6.87467e-07,4.36097e-07,-2.8822e-06,-0.000263845,-0.000151261,-0.00310522,86.9331,90.3836,-0.151552,45.3925,90.6331,86.6841,-0.15197,88.8764,213,1.60388,2.68432,0.49375,10906
-7.01209e-07,-3.029e-07,-2.88692e-06,-0.000285886,-0.000105371,-0.00312019,86.5493,92.0818,-0.318643,46.2648,92.2105,86.4212,-0.319217,89.7752,213,18.4961,16.8157,0.49375,10907
-6.85763e-07,4.36452e-07,-2.88654e-06,-0.000264178,-0.00015491,-0.0031024,86.8846,90.2336,-0.103297,45.2734,90.4432,86.6753,-0.103606,88.7229,213,18.4961,2.68432,0.49375,10908
7.01334e-07,-3.05613e-07,-2.88595e-06,-0.000282402,-0.000108576,-0.00312099,86.6388,91.9664,-0.360489,46.2304,92.0998,86.5059,-0.360995,89.7946,213,1.60388,16.8157,0.49375,10909
-4.63539e-07,4.48585e-07,-2.8499e-06,-0.000177019,-0.00016833,-0.00314007,90.7412,91.0076,-0.0727243,45.6547,91.2366,90.5122,-0.0727331,90.9493,213,17.5552,2.67053,0.49375,10910
4.63499e-07,4.47079e-07,-2.84926e-06,-0.000175925,-0.00016588,-0.00314104,90.8595,91.1674,-0.0175368,45.7486,91.4797,90.5472,-0.0175422,91.0346,213,2.54485,2.67053,0.49375,10911
-6.04701e-07,-3.99489e-07,-2.90969e-06,-0.000229554,-0.000132887,-0.00312945,88.9185,91.8812,0.0402804,45.9455,91.931,88.8689,0.040076,90.3988,213,18.3048,17.5749,0.49375,10912
-4.68349e-07,-2.98993e-07,-2.87141e-06,-0.000185396,-0.000117023,-0.00315753,91.3218,93.4174,0.229743,46.6429,93.5155,91.2238,0.229669,92.1613,213,17.5552,16.8295,0.49375,10913
4.69815e-07,-3.00712e-07,-2.87319e-06,-0.000186309,-0.000119768,-0.00315872,91.1343,93.1737,0.0334879,46.6149,93.2633,91.0448,0.0334115,92.1407,213,2.54485,16.8295,0.49375,10914
6.40909e-10,-2.74738e-07,-2.87523e-06,-2.42251e-05,-0.000102649,-0.00325865,98.7075,96.3039,-0.423599,49.5656,98.7076,96.3039,-0.423697,97.9516,213,10.0506,16.2899,0.49375,10915
1.55504e-08,-3.28058e-07,-2.87897e-06,-2.51391e-05,-0.000120951,-0.00324975,98.3402,95.4036,-0.490314,49.4155,98.3405,95.4034,-0.490493,97.3957,213,9.4209,16.7877,0.49375,10916
-1.60044e-08,4.92945e-07,-2.87301e-06,-2.75306e-05,-0.000175122,-0.00320851,97.7635,93.24,0.27043,48.7467,97.7636,93.24,0.270312,95.312,213,10.6791,2.71232,0.49375,10917
7.13824e-10,4.15307e-07,-2.8635e-06,-2.49848e-05,-0.000147813,-0.00322892,98.1519,94.3874,-0.0447283,49.0986,98.1522,94.3874,-0.0449825,96.3699,213,10.0494,3.2101,0.49375,10918
1.00009e-07,1.55827e-08,-2.88398e-06,-4.51276e-05,-2.57736e-05,-0.00328033,99.194,99.7871,0.0391265,49.8741,99.7873,99.1939,0.039057,99.4529,213,7.09327,9.75,0.49375,10919
1.3311e-07,2.70596e-08,-2.88078e-06,-5.38386e-05,-2.60848e-05,-0.00326989,98.9734,99.824,0.405409,49.7099,99.8249,98.9728,0.405126,98.9965,213,6.42204,9.29368,0.49375,10920
1.72594e-07,1.5183e-08,-2.87598e-06,-6.34903e-05,-2.40396e-05,-0.00327179,98.3653,99.5744,0.0350377,49.7698,99.5746,98.3652,0.0350119,98.9404,213,5.7515,9.75189,0.49375,10921
1.33483e-07,4.09371e-09,-2.88094e-06,-5.40163e-05,-2.41389e-05,-0.00328267,98.6059,99.5216,-0.348462,49.9352,99.5217,98.6059,-0.34863,99.4156,213,6.42273,10.2082,0.49375,10922
-1.35629e-07,4.8907e-09,-2.87776e-06,-5.5929e-05,-2.42461e-05,-0.00328528,98.3954,99.3665,-0.580091,49.9738,99.367,98.3954,-0.580568,99.4653,213,13.678,10.2063,0.49375,10923
-1.01111e-07,1.63795e-08,-2.88197e-06,-4.62479e-05,-2.56071e-05,-0.00328287,99.0448,99.6774,-0.153529,49.9156,99.6775,99.0447,-0.153601,99.5162,213,13.0067,9.75,0.49375,10924
-1.76208e-07,1.57256e-08,-2.87116e-06,-6.65089e-05,-2.37719e-05,-0.00327184,98.1806,99.4904,-0.0589016,49.7749,99.4909,98.1801,-0.0589355,98.901,213,14.3485,9.74811,0.49375,10925
-1.35115e-07,2.76637e-08,-2.87759e-06,-5.5618e-05,-2.55151e-05,-0.00326987,98.8798,99.8024,0.366956,49.7185,99.8037,98.8788,0.366678,98.9778,213,13.6773,9.29179,0.49375,10926
-8.2751e-08,-7.438e-09,-2.88401e-06,-4.04863e-05,-2.45256e-05,-0.00328459,99.3896,99.8787,-0.0382666,49.959,99.8795,99.3891,-0.0385666,99.6738,213,12.5855,10.6907,0.49375,10927
-6.60111e-08,1.5779e-08,-2.88473e-06,-3.47691e-05,-2.6455e-05,-0.00328626,99.6344,99.8892,-0.0198977,49.9547,99.8893,99.6344,-0.0200003,99.7821,213,12.1421,9.78028,0.49375,10928
8.17889e-08,4.13478e-08,-2.88486e-06,-3.93071e-05,-2.78086e-05,-0.00328628,99.3012,99.6536,-0.214428,49.9352,99.6556,99.2995,-0.214776,99.6928,213,7.51445,8.8093,0.49375,10929
6.56094e-08,1.66842e-08,-2.88566e-06,-3.42448e-05,-2.66704e-05,-0.00328582,99.675,99.9072,0.0181668,49.9446,99.9073,99.675,0.0180336,99.7733,213,7.95789,9.71972,0.49375,10930
1.01067e-07,-1.01168e-06,-2.82686e-06,-3.01813e-05,-0.000950519,-0.00282851,84.6002,56.393,-1.16501,42.8873,84.6086,56.3856,-1.16604,75.7166,213,6.02434,18.8284,0.49375,10931
-1.2971e-07,1.33687e-06,-2.75348e-06,-3.96973e-05,-0.00102608,-0.00276893,83.4703,53.2388,-0.177336,41.826,83.4733,53.2372,-0.178764,73.3661,213,14.0757,0.671629,0.49375,10932
-3.26204e-07,-8.42922e-07,-2.82086e-06,-0.000110178,-0.00083789,-0.00281507,83.6625,61.359,0.76075,41.4538,83.6654,61.359,0.757822,74.3093,213,16.9808,18.6504,0.489375,10933
3.3868e-07,4.76548e-07,-2.85121e-06,-0.000107829,-0.000182414,-0.0031622,93.9455,91.6596,0.332729,46.823,93.9788,91.6264,0.332715,92.4923,213,3.43235,2.55757,0.49375,10934
-3.35443e-07,-3.17799e-07,-2.85911e-06,-0.000110057,-0.000131674,-0.00318663,94.6688,94.0063,0.375604,47.2643,94.9039,93.7715,0.375313,93.9675,213,16.6676,16.9424,0.49375,10935
3.37044e-07,-3.14338e-07,-2.86151e-06,-0.000109563,-0.000126785,-0.00318465,94.9261,94.3983,0.678566,47.234,95.1452,94.1806,0.677223,93.9894,213,3.43235,16.9424,0.49375,10936
2.56027e-07,-2.87225e-07,-2.85822e-06,-9.15747e-05,-9.82093e-05,-0.00322171,95.7895,95.5862,-0.145376,48.0729,96.0004,95.3753,-0.14544,95.8349,213,4.27287,16.65,0.49375,10937
1.1461e-07,1.33409e-06,-2.73792e-06,-2.79032e-05,-0.0010698,-0.00271822,84.4493,52.5165,1.99442,41.2398,84.4627,52.5144,1.98309,72.0312,213,6.51332,0.702609,0.489375,10938
-9.10019e-08,-1.01896e-06,-2.83537e-06,-1.71745e-05,-0.00100767,-0.00274893,86.1633,55.8057,2.4383,41.8726,86.1737,55.8051,2.42845,73.4322,213,13.5867,18.7974,0.498125,10939
-2.4269e-07,2.33764e-07,-2.86027e-06,-8.64105e-05,-8.26249e-05,-0.00323311,96.2553,96.3714,-0.187002,48.3664,96.5458,96.0809,-0.187018,96.5012,213,15.5232,4.70075,0.49375,10940
-2.3526e-07,1.77537e-07,-2.86834e-06,-8.59087e-05,-6.16733e-05,-0.00324272,96.6598,97.4026,-0.0926054,48.7565,97.4204,96.642,-0.0926188,97.1262,213,15.3851,5.48319,0.49375,10941
2.40567e-07,-1.11152e-07,-2.87172e-06,-8.7493e-05,-4.18694e-05,-0.00325087,96.9422,98.3405,-0.0114074,49.1788,98.3461,96.9366,-0.0114426,97.6604,213,4.71495,14.0168,0.49375,10942
-2.3889e-07,-1.12023e-07,-2.87233e-06,-8.79998e-05,-4.27869e-05,-0.00324942,96.9275,98.3132,0.033891,49.1409,98.3155,96.9253,0.0337854,97.594,213,15.3855,14.0163,0.49375,10943
2.35941e-07,1.77646e-07,-2.8672e-06,-8.49367e-05,-6.22471e-05,-0.00324191,96.7293,97.4247,-0.0280346,48.7412,97.4542,96.6999,-0.0281107,97.1073,213,4.71445,5.48368,0.49375,10944
-2.38751e-08,1.72562e-07,-2.87981e-06,-2.88318e-05,-6.28482e-05,-0.00327092,99.3195,98.277,-0.0465657,49.6835,99.3204,98.2762,-0.0465928,98.849,213,10.9114,5.75219,0.49375,10945
-2.30809e-08,2.32808e-07,-2.87284e-06,-2.81612e-05,-7.93295e-05,-0.00326305,99.079,97.5108,-0.0664448,49.5733,99.0802,97.5097,-0.0664989,98.3708,213,10.9126,4.90467,0.49375,10946
-4.88718e-08,2.04431e-07,-2.87577e-06,-3.02735e-05,-7.02918e-05,-0.0032651,99.1747,97.9482,0.031287,49.5734,99.178,97.9449,0.0312639,98.536,213,11.7726,5.25414,0.49375,10947
2.45987e-08,-1.06299e-07,-2.88195e-06,-2.91328e-05,-4.33865e-05,-0.00328035,99.6303,99.1935,-0.0153553,49.8234,99.6314,99.1924,-0.0153944,99.428,213,9.18858,13.7478,0.49375,10948
2.38631e-08,-1.4786e-07,-2.87734e-06,-2.81736e-05,-5.482e-05,-0.00327521,99.4842,98.6675,-0.0335047,49.7594,99.4853,98.6664,-0.0335222,99.1119,213,9.18735,14.5953,0.49375,10949
4.96039e-08,-1.28196e-07,-2.87887e-06,-3.02915e-05,-4.78009e-05,-0.0032765,99.5381,99.0014,0.0458027,49.7496,99.5451,98.9944,0.0457915,99.2251,213,8.32736,14.2459,0.49375,10950
7.87596e-08,-1.04047e-06,-2.81574e-06,-3.38797e-05,-0.00102134,-0.00277159,83.9083,53.6437,0.000859834,41.9605,83.9179,53.638,-0.00302917,73.6103,213,6.94707,18.8284,0.49375,10951
9.22808e-08,-1.0448e-06,-2.82785e-06,-2.41747e-05,-0.00102814,-0.00273833,85.3947,54.6245,2.20924,41.6037,85.4075,54.621,2.19999,72.8672,213,6.48571,18.8284,0.498125,10952
-1.14947e-07,1.36537e-06,-2.733e-06,-3.57025e-05,-0.00109271,-0.00270422,83.6612,51.2653,1.87429,40.9096,83.6778,51.2643,1.85862,71.3651,213,13.6143,0.671629,0.489375,10953
-9.67413e-08,1.36341e-06,-2.74408e-06,-4.16475e-05,-0.00108655,-0.0027285,82.6883,50.6634,0.339628,41.1847,82.7024,50.6558,0.33309,71.9169,213,13.1529,0.671629,0.49375,10954
2.99492e-07,1.44892e-07,-2.8623e-06,-0.000101509,-5.31295e-05,-0.00324436,95.8957,97.3785,-0.428954,48.9073,97.3856,95.8886,-0.42898,97.0748,213,4.05041,6.00955,0.49375,10955
-3.02325e-07,-9.03504e-08,-2.86961e-06,-0.000106646,-3.74563e-05,-0.00324794,95.9671,98.0876,-0.309737,49.1988,98.0877,95.9671,-0.309837,97.3546,213,16.0496,13.4904,0.49375,10956
-2.94037e-07,1.47499e-07,-2.86494e-06,-0.000101432,-5.31019e-05,-0.0032407,96.022,97.5032,-0.192728,48.8487,97.5046,96.0207,-0.192827,96.964,213,16.0216,5.97304,0.49375,10957
3.02384e-07,-9.09003e-08,-2.86754e-06,-0.000103408,-3.84198e-05,-0.00324103,96.3681,98.3599,0.203842,49.0787,98.3613,96.3667,0.203835,97.1755,213,4.07836,13.527,0.49375,10958
-1.38208e-07,6.60783e-07,-2.89612e-06,-5.15447e-05,-0.000253946,-0.00315431,95.4288,89.2255,0.332805,47.6301,95.5892,89.069,0.328963,92.1732,213,14.1395,1.83549,0.49375,10959
-1.00468e-07,6.16593e-07,-2.87184e-06,-4.03005e-05,-0.00026637,-0.00316355,95.431,88.5022,-0.292939,47.8666,95.4394,88.4947,-0.293798,92.4566,213,13.3017,2.13459,0.49375,10960
1.27955e-07,-4.4139e-07,-2.89449e-06,-5.01331e-05,-0.00016048,-0.00322347,96.3174,92.9354,-0.941494,48.8317,96.7165,92.5416,-0.946807,95.6442,213,5.9605,17.6645,0.49375,10961
9.29796e-08,-4.1762e-07,-2.88194e-06,-3.94332e-05,-0.000195636,-0.00319828,96.6695,91.882,-0.145317,48.4179,96.6905,91.861,-0.145324,94.5137,213,6.79829,17.3654,0.49375,10962
1.31796e-06,4.74032e-08,-2.72621e-06,-0.000969312,-2.98027e-05,-0.00278269,56.7177,85.5125,1.1399,42.2296,85.559,56.7112,1.09986,74.3578,213,0.710212,8.57036,0.489375,10963
1.29701e-06,6.23775e-08,-2.75038e-06,-0.000960683,-3.17575e-05,-0.00274277,58.5136,86.984,3.89492,41.6548,87.1051,58.4918,3.79554,73.3175,213,0.710212,8.08286,0.49375,10964
-1.31884e-06,4.68297e-08,-2.71811e-06,-0.000955858,-3.00718e-05,-0.00280368,56.8736,85.2479,0.240328,42.5336,85.2838,56.8615,0.216605,75.0096,213,19.3898,8.57036,0.489375,10965
-1.29273e-06,6.1955e-08,-2.7435e-06,-0.000944658,-3.23192e-05,-0.00277975,58.2975,86.2596,2.05421,42.1834,86.3567,58.2646,1.98997,74.4102,213,19.3898,8.08286,0.49375,10966
-1.29784e-06,-2.9079e-08,-2.74678e-06,-0.000940167,-2.94575e-05,-0.00286013,56.0352,83.9473,-2.80925,43.4196,84.0049,56.0027,-2.83438,76.7691,213,19.3898,11.4171,0.49375,10967
1.30547e-06,-3.02272e-08,-2.75134e-06,-0.000952874,-3.03859e-05,-0.0028811,54.5082,82.7813,-4.58961,43.7315,82.8394,54.4839,-4.62347,77.29,213,0.710212,11.4171,0.49375,10968
-1.56869e-08,-3.36283e-07,-2.88129e-06,-2.64477e-05,-0.000122163,-0.00324143,98.4908,95.5572,-0.0444807,49.2683,98.4921,95.5559,-0.0444823,97.1018,213,10.6919,16.8638,0.49375,10969
-3.87648e-08,-3.73488e-07,-2.88249e-06,-2.54823e-05,-0.000157281,-0.00321898,98.1359,94.0964,0.259169,48.9385,98.1363,94.0961,0.259161,95.9208,213,11.5681,17.1142,0.49375,10970
1.68221e-08,5.04771e-07,-2.87292e-06,-2.61923e-05,-0.000176694,-0.00321662,97.5302,92.9175,-0.252584,48.8923,97.5319,92.9159,-0.252625,95.5601,213,9.40811,2.63622,0.49375,10971
4.08579e-08,5.56152e-07,-2.87973e-06,-2.78626e-05,-0.00022456,-0.00317528,97.2096,91.181,0.745016,48.2332,97.2107,91.1806,0.744361,93.5971,213,8.53191,2.38581,0.49375,10972
2.33178e-08,6.74931e-07,-2.90295e-06,-2.82677e-05,-0.000214256,-0.00318892,97.0743,91.374,0.204226,48.4479,97.0962,91.3559,0.200445,94.1569,213,9.1738,1.87317,0.49375,10973
2.2524e-07,-8.38338e-08,-2.87421e-06,-8.07492e-05,-3.71436e-05,-0.0032578,97.2981,98.6345,-0.0746527,49.3563,98.6378,97.2949,-0.074799,98.0481,213,4.92733,13.3206,0.49375,10974
-2.18996e-07,1.39178e-07,-2.87196e-06,-7.76493e-05,-5.2212e-05,-0.00325077,97.2307,98.0103,-0.021685,49.0194,98.0169,97.2244,-0.0219489,97.645,213,15.1727,6.17943,0.49375,10975
1.40779e-06,-7.64589e-07,-2.64984e-06,-0.00124815,-0.000530355,-0.00238934,35.4842,57.4838,0.508317,28.5559,57.5918,35.4045,0.48007,49.8685,213,0.367583,18.5281,0.489375,10976
1.41295e-06,-7.65276e-07,-2.67072e-06,-0.00125636,-0.000533306,-0.00237663,35.2836,57.4443,0.948707,28.3189,57.5596,35.1952,0.921768,49.4099,213,0.367583,18.5281,0.498125,10977
1.24598e-06,3.21172e-07,-2.72759e-06,-0.000956508,-9.21535e-05,-0.0027743,55.7573,82.2487,0.044059,41.1046,82.2519,55.7555,0.0427187,72.6784,213,0.656279,3.67178,0.49375,10978
3.4809e-07,-3.32025e-09,-2.85752e-06,-0.00011494,-2.31154e-05,-0.00327398,95.0557,97.8701,-1.76495,49.8227,97.8771,95.0521,-1.76835,98.2634,213,3.80823,10.4472,0.49375,10979
2.72597e-07,3.01895e-09,-2.86042e-06,-9.89872e-05,-2.37801e-05,-0.00324751,96.9173,99.2223,0.419065,49.4028,99.2242,96.9159,0.418536,97.672,213,4.53019,10.2572,0.49375,10980
3.17502e-07,1.42714e-08,-2.85221e-06,-0.00010121,-2.41486e-05,-0.00325655,96.4668,98.8286,-0.240504,49.5353,98.83,96.4655,-0.240623,97.9098,213,4.13654,9.75,0.49375,10981
-9.99098e-07,1.39417e-06,-2.61912e-06,-0.000616709,-0.00119875,-0.00235718,54.6796,36.8408,1.33625,26.76,54.8056,36.7655,1.28554,47.1628,213,19.2711,0.484385,0.489375,10982
-1.00122e-06,1.39908e-06,-2.6398e-06,-0.000620562,-0.00120592,-0.00236232,54.03,36.0894,0.647131,26.7398,54.1156,36.0149,0.636003,47.1135,213,19.2711,0.484385,0.498125,10983
9.39892e-07,-1.14264e-06,-2.73602e-06,-0.000624491,-0.00116877,-0.00236938,54.7697,38.0883,1.29089,26.8456,54.9507,37.9387,1.25952,47.5264,213,0.828946,19.0156,0.498125,10984
9.3807e-07,-1.13905e-06,-2.71518e-06,-0.000620549,-0.00116198,-0.00238419,54.7565,38.1622,0.703179,27.1297,54.9301,38.0211,0.670678,48.0888,213,0.828946,19.0156,0.489375,10985
1.01156e-06,1.41094e-06,-2.65876e-06,-0.000643701,-0.00122207,-0.00234309,52.6619,34.9357,0.57784,26.0688,52.7051,34.9029,0.567463,45.903,213,0.828946,0.484385,0.498125,10986
1.00925e-06,1.40564e-06,-2.63825e-06,-0.000638471,-0.00121327,-0.00233839,53.4378,35.8209,1.33739,26.1224,53.5284,35.7841,1.28362,46.0144,213,0.828946,0.484385,0.489375,10987
-9.37901e-07,-1.13981e-06,-2.73545e-06,-0.000613704,-0.00116243,-0.00237884,55.3521,38.5344,1.25272,27.1439,55.5196,38.388,1.23168,48.069,213,19.2711,19.0156,0.498125,10988
-9.3608e-07,-1.13638e-06,-2.71455e-06,-0.000610355,-0.00115614,-0.00238682,55.5092,38.7815,1.06274,27.3379,55.6943,38.6406,1.01854,48.4546,213,19.2711,19.0156,0.489375,10989
-1.36007e-06,8.76967e-08,-2.73039e-06,-0.000976421,-4.02922e-05,-0.00280597,55.1564,83.8476,-0.916955,42.3826,83.848,55.1563,-0.917294,74.6747,213,19.5037,7.37656,0.49375,10990
1.38062e-06,-5.3378e-08,-2.73432e-06,-0.000996032,-2.99003e-05,-0.00275664,55.8734,85.4842,1.91283,41.8089,85.5098,55.8686,1.89203,73.4303,213,0.596249,12.1234,0.49375,10991
1.36992e-06,8.75515e-08,-2.73122e-06,-0.00100453,-3.83611e-05,-0.00278531,54.1133,83.7252,-0.465425,42.0977,83.7285,54.1115,-0.46692,73.9758,213,0.59625,7.37657,0.49375,10992
-1.36751e-06,-5.19516e-08,-2.73666e-06,-0.000969531,-3.34101e-05,-0.00276831,57.0577,85.7487,1.92727,41.926,85.7642,57.0573,1.91218,73.8113,213,19.5037,12.1234,0.49375,10993
3.85403e-07,5.08639e-08,-2.86892e-06,-0.000121284,-2.84316e-05,-0.00324162,95.5417,98.3876,-0.0926193,49.2499,98.4071,95.5222,-0.09267,97.0895,213,3.40213,8.35069,0.49375,10994
4.93503e-07,4.08903e-08,-2.88637e-06,-0.000162275,-2.68741e-05,-0.00309623,97.7678,101.918,7.84583,47.216,102.101,97.7617,7.66891,92.339,213,2.6714,8.68284,0.49375,10995
4.14635e-07,7.18044e-08,-2.87864e-06,-0.000140532,-3.3636e-05,-0.00321193,95.1237,98.4,0.989107,48.7137,98.4142,95.1118,0.986778,95.8189,213,3.09279,7.66613,0.49375,10996
2.60756e-07,-5.58654e-08,-2.87123e-06,-8.71627e-05,-3.15124e-05,-0.00325399,97.201,98.9067,0.141689,49.3832,98.9077,97.2005,0.141216,97.924,213,4.53474,12.5172,0.49375,10997
2.23429e-07,-3.76671e-08,-2.87389e-06,-7.64854e-05,-2.7442e-05,-0.00326078,97.7899,99.293,0.195236,49.5501,99.2951,97.7881,0.194913,98.3554,213,5.01226,11.8931,0.49375,10998
1.97498e-07,-7.1323e-08,-2.87666e-06,-7.00029e-05,-3.50108e-05,-0.0032609,97.9488,99.0212,0.151582,49.4378,99.0269,97.9434,0.151236,98.3384,213,5.31385,12.9645,0.49375,10999
2.6276e-07,9.59012e-08,-2.86739e-06,-8.67057e-05,-4.08731e-05,-0.00324964,97.0653,98.47,0.125082,49.1737,98.4722,97.0633,0.124821,97.6506,213,4.46524,7.07537,0.49375,11000
3.56069e-07,1.02913e-07,-2.86773e-06,-0.000117812,-4.15485e-05,-0.00322841,95.7652,98.1026,0.429211,48.8374,98.1033,95.7652,0.42854,96.5269,213,3.54795,6.86442,0.49375,11001
1.06149e-07,2.25252e-07,-2.87169e-06,-4.38148e-05,-7.71359e-05,-0.00325475,98.43,97.4087,0.0188676,49.2106,98.4401,97.3986,0.0188603,97.9046,213,6.77903,4.93751,0.49375,11002
7.34427e-08,2.17152e-07,-2.87356e-06,-3.72015e-05,-7.42593e-05,-0.00326231,98.6959,97.5601,-0.149849,49.4252,98.7006,97.5554,-0.149859,98.2829,213,7.59616,5.07807,0.49375,11003
-3.32049e-08,-2.69242e-07,-2.87543e-06,-2.77608e-05,-9.20648e-05,-0.00325594,98.9198,96.9489,-0.0199078,49.4706,98.9214,96.9474,-0.0199454,97.9692,213,11.3213,16.2748,0.49375,11004
3.3162e-08,4.07892e-07,-2.86534e-06,-2.7194e-05,-0.000131302,-0.00323332,98.4095,95.2188,0.145644,49.1324,98.4104,95.2179,0.145636,96.708,213,8.77873,3.22523,0.49375,11005
6.71628e-07,4.00022e-08,-2.90942e-06,-0.000252494,-2.60087e-05,-0.00322039,87.9853,94.9268,-2.97707,48.9746,94.9507,87.9828,-2.99853,94.6579,213,1.76935,8.69284,0.49375,11006
-4.09399e-07,-3.71004e-08,-2.88923e-06,-0.000135121,-2.69907e-05,-0.00325715,94.1997,97.5137,-1.48672,49.5068,97.5221,94.196,-1.49149,97.3932,213,17.0072,11.8339,0.49375,11007
-4.86173e-07,-1.16684e-08,-2.89397e-06,-0.000161547,-2.2489e-05,-0.00330723,91.0235,95.2854,-5.38777,50.4652,95.4195,91.0125,-5.51087,98.8006,213,17.4286,10.8172,0.49375,11008
-3.81933e-07,-2.00164e-08,-2.88028e-06,-0.000110441,-2.29817e-05,-0.0032464,96.2524,98.9329,0.139158,49.4104,98.9594,96.2265,0.138614,97.483,213,16.6979,11.1493,0.49375,11009
6.74605e-07,-1.03992e-08,-2.90905e-06,-0.000264178,-2.27509e-05,-0.00310614,91.1052,98.5047,4.00266,47.2908,98.5465,91.1012,3.96493,91.0874,213,1.76935,10.8072,0.49375,11010
-9.80782e-08,-2.01922e-07,-2.87377e-06,-4.20383e-05,-7.24959e-05,-0.00325845,98.5736,97.6401,-0.0054753,49.2965,98.5874,97.6263,-0.00550822,98.1159,213,13.1823,15.5107,0.49375,11011
5.13038e-08,1.76511e-07,-2.87734e-06,-3.18832e-05,-6.4591e-05,-0.0032754,98.9212,97.9187,-0.488741,49.7071,98.9244,97.9165,-0.489735,98.914,213,8.26359,5.67931,0.49375,11012
-1.82675e-07,2.97932e-07,-2.85476e-06,-6.35852e-05,-0.000100723,-0.00323505,97.0463,95.908,-0.155361,48.616,97.0766,95.8777,-0.155363,96.6381,213,14.7795,4.06043,0.49375,11013
-1.30352e-07,3.53602e-07,-2.85878e-06,-5.06235e-05,-0.000120482,-0.00322863,97.4312,95.2901,0.0292275,48.706,97.4394,95.2839,0.0272751,96.3524,213,13.8947,3.60886,0.49375,11014
6.43863e-08,-2.58156e-07,-2.87456e-06,-3.46589e-05,-8.98983e-05,-0.00325625,98.5425,96.8495,-0.195357,49.3726,98.5496,96.8427,-0.195659,97.903,213,7.73164,16.1657,0.49375,11015
9.32362e-08,-2.18731e-07,-2.87401e-06,-4.16748e-05,-8.01102e-05,-0.00324211,98.8834,97.7054,0.794038,49.0498,98.892,97.6984,0.792375,97.5083,213,7.0151,15.7461,0.49375,11016
7.09856e-08,-1.55189e-07,-2.87611e-06,-3.66817e-05,-5.74601e-05,-0.00327085,99.0004,98.3636,-0.122851,49.5665,99.01,98.3542,-0.123085,98.8068,213,7.65149,14.7879,0.49375,11017
-1.29098e-07,1.36823e-07,-2.87815e-06,-5.07693e-05,-5.2208e-05,-0.00326398,98.504,98.4599,0.0229275,49.269,98.5609,98.4031,0.0228565,98.4592,213,13.7249,6.27524,0.49375,11018
-9.80356e-08,1.08733e-07,-2.88145e-06,-4.27649e-05,-4.32795e-05,-0.00327277,99.017,99.0013,0.0213766,49.5265,99.0744,98.9439,0.0213712,98.9878,213,13.029,6.89558,0.49375,11019
-1.48791e-07,8.74544e-08,-2.87799e-06,-5.70656e-05,-3.8952e-05,-0.00326452,98.5219,99.0771,0.217241,49.436,99.089,98.5102,0.217029,98.5839,213,14.0265,7.34662,0.49375,11020
-1.53536e-07,-4.56181e-08,-2.8796e-06,-5.83317e-05,-2.94994e-05,-0.00327398,98.4413,99.325,-0.114447,49.7226,99.3306,98.4359,-0.114663,99.001,213,14.0759,12.1467,0.49375,11021
-2.27752e-07,-3.64835e-08,-2.87357e-06,-7.55501e-05,-2.71052e-05,-0.00327303,97.4577,98.9424,-0.54119,49.7468,98.9507,97.451,-0.542781,98.7522,213,15.1645,11.8366,0.49375,11022
-1.7576e-07,-2.31373e-08,-2.87603e-06,-6.47783e-05,-2.56074e-05,-0.00327657,98.0746,99.2751,-0.363046,49.8217,99.2798,98.0705,-0.363681,99.0444,213,14.3843,11.3392,0.49375,11023
1.85848e-07,-1.93133e-07,-2.86356e-06,-6.61613e-05,-7.11446e-05,-0.00324519,97.5215,97.3688,0.0880852,48.7701,97.6284,97.2619,0.0880837,97.3576,213,5.3205,15.4396,0.49375,11024
-2.24936e-07,-1.89983e-08,-2.869e-06,-7.77076e-05,-2.51953e-05,-0.00324831,98.196,99.8054,1.02101,49.3955,99.8118,98.1897,1.02092,97.9899,213,15.0606,11.1639,0.49375,11025
6.59626e-08,5.57455e-07,-2.88074e-06,-3.36642e-05,-0.000226591,-0.00317848,96.6693,90.7563,0.284595,48.1941,96.6718,90.7547,0.283662,93.57,213,7.72035,2.37049,0.49375,11026
-1.37289e-08,8.61608e-08,-2.8849e-06,-2.88945e-05,-3.82352e-05,-0.00328542,99.6481,99.3619,-0.160236,49.9043,99.6481,99.3622,-0.160551,99.666,213,10.5391,7.48564,0.49375,11027
-1.35896e-08,1.27066e-07,-2.88305e-06,-2.80349e-05,-5.02883e-05,-0.00327752,99.566,98.8839,-0.0268497,49.7965,99.5661,98.8839,-0.0269109,99.2537,213,10.5383,6.56157,0.49375,11028
-3.37759e-08,1.05513e-07,-2.88428e-06,-2.94372e-05,-4.29562e-05,-0.00327943,99.6551,99.2407,0.0466481,49.8045,99.6555,99.2403,0.0466106,99.402,213,11.2388,7.01544,0.49375,11029
4.01783e-09,1.56254e-07,-2.87996e-06,-2.69789e-05,-5.81418e-05,-0.00327242,99.5428,98.5877,0.0741344,49.7343,99.5428,98.5877,0.0741295,98.9946,213,9.89824,6.02744,0.49375,11030
2.78086e-08,1.87256e-07,-2.8758e-06,-2.90045e-05,-6.72002e-05,-0.00327547,99.016,97.8453,-0.484267,49.751,99.0172,97.8446,-0.484806,98.9209,213,9.03771,5.53116,0.49375,11031
4.09116e-09,2.12593e-07,-2.87384e-06,-2.57259e-05,-7.48428e-05,-0.00327214,99.0826,97.5773,-0.415878,49.7493,99.0827,97.5773,-0.415896,98.7545,213,9.89947,5.17991,0.49375,11032
3.09667e-07,-3.2034e-08,-2.86767e-06,-9.99593e-05,-2.58225e-05,-0.0032524,96.6274,98.8996,0.00886612,49.4514,98.9115,96.6157,0.00868543,97.7751,213,4.0575,11.679,0.49375,11033
1.70747e-07,-2.35007e-08,-2.87865e-06,-6.40154e-05,-2.51153e-05,-0.0032755,98.1746,99.3668,-0.253403,49.8113,99.3684,98.1739,-0.25426,99.0308,213,5.77847,11.3452,0.49375,11034
1.55748e-07,-3.20851e-09,-2.87863e-06,-5.94724e-05,-2.41e-05,-0.00326887,98.7142,99.7983,0.349968,49.725,99.7991,98.7143,0.349093,98.9121,213,6.03098,10.5144,0.49375,11035
1.18543e-07,-1.44093e-08,-2.88305e-06,-5.02444e-05,-2.43318e-05,-0.0032795,98.9435,99.7376,-0.0292872,49.884,99.7385,98.9428,-0.0295339,99.3726,213,6.70221,10.9708,0.49375,11036
1.51741e-07,8.76235e-08,-2.87895e-06,-5.85967e-05,-3.88311e-05,-0.00326182,98.5175,99.1233,0.342668,49.3942,99.1309,98.51,0.342602,98.4793,213,6.02414,7.35332,0.49375,11037
1.72883e-07,5.87375e-08,-2.87735e-06,-6.40429e-05,-3.12531e-05,-0.00326416,98.3438,99.3488,0.264266,49.5442,99.3522,98.341,0.263677,98.5868,213,5.71571,8.1608,0.49375,11038
1.24725e-07,7.43552e-08,-2.88171e-06,-5.08067e-05,-3.61868e-05,-0.003274,98.699,99.1471,-0.0878354,49.6206,99.1534,98.6927,-0.0878634,99.0117,213,6.53365,7.72948,0.49375,11039
2.19908e-07,-1.90169e-08,-2.8717e-06,-7.81038e-05,-2.48515e-05,-0.00325755,97.8784,99.5105,0.432382,49.5397,99.5117,97.8774,0.432185,98.2726,213,5.08481,11.1735,0.49375,11040
1.37494e-06,1.06121e-07,-2.74128e-06,-0.00105087,-3.69797e-05,-0.00273043,53.0192,84.0937,1.54271,41.2865,84.1055,53.0176,1.53248,72.2339,213,0.59625,6.88907,0.498125,11041
2.01308e-07,2.9594e-08,-2.87154e-06,-7.34172e-05,-2.63071e-05,-0.00326212,97.9778,99.4217,0.247885,49.5887,99.424,97.9767,0.246675,98.4617,213,5.32778,9.16829,0.49375,11042
1.56516e-07,3.4771e-08,-2.87815e-06,-5.94396e-05,-2.71594e-05,-0.00327994,98.252,99.2413,-0.452449,49.8479,99.2426,98.2514,-0.453152,99.2039,213,6.00412,8.99301,0.49375,11043
-1.26653e-07,-3.51004e-08,-2.88114e-06,-5.16996e-05,-2.83706e-05,-0.00327889,98.7384,99.4534,-0.170944,49.8139,99.4569,98.735,-0.170997,99.2689,213,13.5664,11.7705,0.49375,11044
9.1247e-08,-2.84177e-07,-2.87547e-06,-4.04377e-05,-0.00010435,-0.0032445,98.0869,96.128,-0.11362,49.1034,98.0924,96.1235,-0.114539,97.2374,213,6.99448,16.4675,0.49375,11045
-1.32082e-07,1.946e-07,-2.87387e-06,-5.14458e-05,-6.93727e-05,-0.00326082,98.0009,97.4515,-0.362365,49.1871,98.0115,97.4412,-0.362726,98.0903,213,13.8291,5.31748,0.49375,11046
-1.64018e-07,1.65851e-07,-2.87476e-06,-5.92647e-05,-5.92882e-05,-0.00325463,98.039,98.0383,0.10499,49.0113,98.1275,97.9499,0.104958,97.9338,213,14.3936,5.7321,0.49375,11047
1.30462e-07,-2.30723e-07,-2.86948e-06,-5.25974e-05,-8.50503e-05,-0.00324723,97.8591,96.8645,-0.0523567,48.9609,97.8686,96.8559,-0.0532662,97.4195,213,6.20532,15.8911,0.49375,11048
-6.1133e-08,-3.74298e-07,-2.88098e-06,-2.98232e-05,-0.000159462,-0.00322299,97.6567,93.6834,-0.209862,48.9368,97.6635,93.6769,-0.210137,95.9425,213,12.3796,17.1295,0.49375,11049
2.01677e-07,1.07808e-09,-2.872e-06,-7.41129e-05,-2.39123e-05,-0.00326642,97.871,99.4096,0.0305851,49.6898,99.4098,97.8711,0.0303102,98.6191,213,5.33732,10.3427,0.49375,11050
-9.37186e-08,4.32405e-07,-2.86694e-06,-3.9447e-05,-0.000148106,-0.00321487,97.6855,94.3552,0.362668,48.6636,97.6886,94.3534,0.361412,95.7032,213,13.1055,3.03254,0.49375,11051
-4.81844e-08,-1.49684e-07,-2.87904e-06,-3.10902e-05,-5.52332e-05,-0.00327599,99.2599,98.5199,-0.192207,49.7274,99.2625,98.5175,-0.192355,99.0844,213,11.7497,14.6445,0.49375,11052
-6.95214e-08,5.89807e-07,-2.87687e-06,-3.4455e-05,-0.00023016,-0.00318512,96.2836,90.2854,-0.280425,48.2841,96.287,90.2828,-0.281266,93.7106,213,12.4853,2.23314,0.49375,11053
3.58555e-07,-6.07162e-08,-2.87024e-06,-0.000117784,-3.15921e-05,-0.00325021,95.3779,98.0196,-0.626926,49.3248,98.0218,95.3764,-0.627681,97.3538,213,3.57589,12.6722,0.49375,11054
-6.73057e-07,-1.02082e-08,-2.89309e-06,-0.000271658,-2.26663e-05,-0.00312291,90.0816,97.7129,2.6941,47.5422,97.7462,90.0806,2.66177,91.4928,213,18.3307,10.8072,0.49375,11055
9.02652e-08,-5.90171e-07,-2.8904e-06,-3.31308e-05,-0.000275063,-0.00315095,96.015,88.6,0.457692,47.7915,96.0397,88.5764,0.456622,92.0785,213,6.63859,18.1155,0.49375,11056
4.58328e-08,-8.69184e-08,-2.88347e-06,-3.07379e-05,-3.92309e-05,-0.00328219,99.6042,99.3439,-0.0489182,49.8281,99.6072,99.3409,-0.0489437,99.5233,213,8.48812,13.2939,0.49375,11057
9.96053e-08,-6.11791e-08,-2.88357e-06,-4.32253e-05,-3.18388e-05,-0.00327859,99.1724,99.5214,0.0124238,49.7567,99.5258,99.168,0.0124159,99.335,213,7.07097,12.6044,0.49375,11058
7.55488e-08,-9.08914e-08,-2.88233e-06,-3.78234e-05,-3.95151e-05,-0.00327988,99.2209,99.1691,-0.144102,49.7015,99.2588,99.1313,-0.144228,99.3394,213,7.61294,13.4269,0.49375,11059
1.50889e-07,-4.58744e-08,-2.88083e-06,-5.90123e-05,-2.93719e-05,-0.00327485,98.3737,99.2822,-0.187815,49.7363,99.2846,98.3716,-0.188122,99.0194,213,6.07349,12.1534,0.49375,11060
1.3159e-07,-8.15666e-08,-2.88076e-06,-5.21667e-05,-3.66492e-05,-0.00327359,98.6107,99.0863,-0.122089,49.6078,99.0934,98.6037,-0.122219,98.9717,213,6.37507,13.2248,0.49375,11061
1.0427e-07,-1.61371e-07,-2.87521e-06,-4.53872e-05,-5.92079e-05,-0.00326871,98.4605,98.0369,-0.330266,49.4017,98.4727,98.0251,-0.330664,98.5803,213,6.83287,14.9267,0.49375,11062
1.40701e-08,-7.41268e-08,-2.88478e-06,-2.85529e-05,-3.6274e-05,-0.00328424,99.7731,99.5364,-0.00962521,49.8914,99.7731,99.5364,-0.00967125,99.6647,213,9.56167,12.9384,0.49375,11063
-3.8123e-09,-9.4581e-08,-2.88351e-06,-2.75892e-05,-4.05018e-05,-0.0032823,99.7591,99.3633,0.00636279,49.8765,99.7593,99.3631,0.00635688,99.5554,213,10.2018,13.4726,0.49375,11064
1.67642e-07,-1.01991e-07,-2.87754e-06,-6.15565e-05,-4.03465e-05,-0.00326554,98.1576,98.8077,-0.0403868,49.4287,98.8169,98.1484,-0.0403945,98.5247,213,5.70645,13.7679,0.49375,11065
1.34481e-07,-1.21291e-07,-2.87752e-06,-5.29278e-05,-4.69348e-05,-0.00326112,98.6342,98.8179,0.30701,49.2675,98.8417,98.6107,0.306713,98.4197,213,6.27087,14.1825,0.49375,11066
2.20825e-07,5.27647e-08,-2.87014e-06,-7.67092e-05,-3.00967e-05,-0.00326832,97.4404,98.869,-0.378657,49.6261,98.8733,97.4364,-0.378925,98.5416,213,5.03937,8.33608,0.49375,11067
2.26236e-07,7.43039e-08,-2.8712e-06,-7.61255e-05,-3.4794e-05,-0.00326375,97.4734,98.7401,-0.223493,49.4843,98.7446,97.4692,-0.22388,98.337,213,4.9355,7.66338,0.49375,11068
6.42633e-08,-3.95788e-07,-2.88458e-06,-3.32776e-05,-0.000162687,-0.00321489,97.5976,93.6314,0.0852505,48.7593,97.6038,93.6252,0.0852338,95.5914,213,7.61467,17.2669,0.49375,11069
4.31039e-08,-3.52269e-07,-2.88037e-06,-2.67682e-05,-0.000142853,-0.00322836,98.2199,94.6621,0.0950118,49.063,98.221,94.661,0.0950018,96.3953,213,8.35182,16.9651,0.49375,11070
4.32776e-08,-5.10459e-07,-2.89991e-06,-2.4527e-05,-0.000173693,-0.00321913,97.6522,93.0805,-0.258345,48.9575,97.6566,93.0761,-0.25838,95.707,213,8.22659,17.8749,0.49375,11071
4.17733e-07,-3.68248e-08,-2.87643e-06,-0.000134874,-2.61401e-05,-0.00325987,94.1541,97.4867,-1.62305,49.5635,97.4978,94.1492,-1.62925,97.4959,213,3.09866,11.834,0.49375,11072
1.38791e-06,-6.70119e-08,-2.72024e-06,-0.00104113,-2.78294e-05,-0.00275597,53.099,84.1556,0.541514,41.8105,84.1588,53.0994,0.53787,73.2116,213,0.596249,12.6109,0.489375,11073
4.9156e-07,-1.19525e-08,-2.88592e-06,-0.000157956,-2.25477e-05,-0.00336131,89.4721,93.6222,-8.70687,51.3094,93.7707,89.4649,-8.84813,100.535,213,2.67727,10.8172,0.49375,11074
3.88686e-07,-2.00296e-08,-2.86634e-06,-0.000116821,-2.24266e-05,-0.0032421,96.0067,98.8997,0.220677,49.3455,98.9114,95.9952,0.220444,97.2657,213,3.4081,11.1494,0.49375,11075
-1.21142e-07,-1.37078e-08,-2.8807e-06,-5.17133e-05,-2.48192e-05,-0.00327559,98.9625,99.7868,0.154571,49.8172,99.7887,98.9608,0.154381,99.223,213,13.4253,10.9652,0.49375,11076
2.09829e-07,1.15471e-07,-2.87224e-06,-7.29142e-05,-4.68618e-05,-0.00325775,97.4781,98.2766,-0.133076,49.2101,98.2868,97.4682,-0.133392,98.0135,213,5.10541,6.66246,0.49375,11077
1.52668e-08,6.81685e-08,-2.88538e-06,-2.89406e-05,-3.22733e-05,-0.00328408,99.8852,99.783,0.119287,49.8838,99.8865,99.7822,0.118851,99.7155,213,9.54289,7.98156,0.49375,11078
-1.85777e-08,5.72457e-08,-2.8855e-06,-3.01889e-05,-3.05567e-05,-0.00328836,99.7216,99.7104,-0.137155,49.9337,99.7293,99.7035,-0.138007,99.8544,213,10.6898,8.32525,0.49375,11079
4.83692e-08,7.60514e-07,-2.90372e-06,-2.76134e-05,-0.000277814,-0.00315616,96.1038,88.4354,0.217746,47.9433,96.1041,88.4354,0.217434,92.2916,213,8.25629,1.62949,0.49375,11080
-1.05551e-07,8.50608e-07,-2.87851e-06,-3.80627e-05,-0.000375489,-0.00310694,93.8476,83.5059,-0.209545,47.0326,93.8552,83.4986,-0.209898,89.3382,213,13.4614,1.38446,0.49375,11081
-6.87331e-08,-3.23154e-08,-2.88505e-06,-3.74965e-05,-2.79285e-05,-0.00327975,99.6269,99.9201,0.255941,49.8332,99.9217,99.6259,0.255285,99.5189,213,12.2327,11.6359,0.49375,11082
-3.57588e-08,-4.22287e-08,-2.88596e-06,-2.99698e-05,-2.89987e-05,-0.00329035,99.7212,99.751,-0.205384,49.9826,99.7594,99.7132,-0.2058,99.9421,213,11.2609,11.9786,0.49375,11083
-1.04868e-07,-3.55484e-08,-2.88286e-06,-4.49232e-05,-2.86445e-05,-0.00327536,99.2759,99.7748,0.267112,49.7552,99.7773,99.2736,0.266887,99.2595,213,13.1169,11.7727,0.49375,11084
6.5881e-08,-5.35641e-07,-2.89758e-06,-3.14278e-05,-0.000198872,-0.00321577,96.4968,91.3648,-1.09934,48.8049,96.5059,91.3603,-1.10395,95.1415,213,7.41021,17.9735,0.49375,11085
1.18977e-07,4.82208e-08,-2.88244e-06,-5.0027e-05,-2.91297e-05,-0.00327446,98.9652,99.6057,0.140289,49.7342,99.6083,98.9629,0.139948,99.1472,213,6.67466,8.5348,0.49375,11086
1.0339e-07,7.51124e-08,-2.88314e-06,-4.3824e-05,-3.65317e-05,-0.00327815,98.9948,99.2183,-0.133236,49.6797,99.2261,98.9871,-0.133363,99.2402,213,6.98309,7.72732,0.49375,11087
1.44794e-06,9.7742e-07,-2.64433e-06,-0.00125324,-0.000616986,-0.00234284,33.8417,53.3423,0.446863,26.4754,53.3889,33.8038,0.43814,46.3715,213,0.367583,0.971886,0.498125,11088
1.44213e-06,9.75544e-07,-2.62381e-06,-0.00124362,-0.000612148,-0.00234112,34.6686,54.0224,1.03151,26.5719,54.1201,34.6261,0.97634,46.5649,213,0.367583,0.971886,0.489375,11089
-2.0439e-07,2.99834e-08,-2.867e-06,-7.45654e-05,-2.60795e-05,-0.00326509,97.8148,99.3008,0.0289917,49.6391,99.3061,97.8105,0.0279774,98.5388,213,14.7627,9.15732,0.49375,11090
-1.57344e-07,3.5217e-08,-2.8746e-06,-6.06681e-05,-2.65664e-05,-0.00326958,98.5341,99.5793,0.185076,49.6987,99.5822,98.5316,0.184679,98.8764,213,14.069,8.98557,0.49375,11091
6.80538e-08,7.13278e-08,-2.88466e-06,-3.67507e-05,-3.53035e-05,-0.00328163,99.3698,99.4141,-0.0819118,49.7539,99.4253,99.3592,-0.0824877,99.4747,213,7.86731,7.86411,0.49375,11092
2.81125e-07,5.81049e-08,-2.8644e-06,-9.67143e-05,-3.03998e-05,-0.00326361,96.3149,98.3473,-0.746497,49.5503,98.354,96.3082,-0.746538,98.0937,213,4.32755,8.13698,0.49375,11093
3.10319e-07,6.59789e-08,-2.86604e-06,-0.000101588,-3.29274e-05,-0.00324545,96.5189,98.6233,0.163388,49.2394,98.6421,96.5003,0.163245,97.4256,213,4.01008,7.87709,0.49375,11094
6.17579e-07,1.36744e-08,-2.90468e-06,-0.000169496,-2.3763e-05,-0.00321403,93.5397,98.0062,0.22847,48.8907,98.0072,93.5412,0.225912,95.6266,213,2.01827,9.75,0.49375,11095
4.72517e-08,2.36199e-07,-2.87145e-06,-3.07097e-05,-8.06371e-05,-0.00325366,99.183,97.6528,0.403661,49.3912,99.1858,97.6502,0.40343,98.0236,213,8.35034,4.85553,0.49375,11096
-1.40622e-06,-7.6101e-07,-2.67369e-06,-0.00124767,-0.000529667,-0.00238422,35.7055,57.7114,0.871641,28.491,57.8368,35.597,0.854727,49.7423,213,19.7324,18.5281,0.498125,11097
3.44567e-08,-5.84315e-08,-2.88548e-06,-2.9777e-05,-3.20318e-05,-0.00328532,99.7992,99.7301,0.0209236,49.8895,99.7998,99.7295,0.0208953,99.7438,213,8.86121,12.4846,0.49375,11098
4.74487e-08,5.24201e-08,-2.88557e-06,-3.16362e-05,-2.98299e-05,-0.00328368,99.8072,99.8625,0.135886,49.8693,99.8738,99.7967,0.135137,99.7001,213,8.48621,8.46662,0.49375,11099
3.55173e-08,8.42764e-08,-2.88461e-06,-2.96603e-05,-3.79169e-05,-0.00328121,99.7481,99.495,0.0920293,49.8295,99.7505,99.4931,0.0914835,99.5306,213,8.83907,7.52142,0.49375,11100
-4.77269e-08,-1.67586e-08,-2.88584e-06,-3.20346e-05,-2.52967e-05,-0.00329011,99.7197,99.9262,-0.136268,50.0329,99.9289,99.7177,-0.136956,99.9604,213,11.6138,11.0334,0.49375,11101
-1.18679e-07,4.84385e-08,-2.88033e-06,-5.05664e-05,-2.83952e-05,-0.00328071,98.7499,99.4294,-0.249924,49.8427,99.4352,98.7442,-0.25009,99.3416,213,13.3978,8.52925,0.49375,11102
7.73669e-08,-1.33407e-07,-2.87805e-06,-3.87142e-05,-4.96457e-05,-0.00326692,99.2574,98.9223,0.316928,49.4771,99.2709,98.909,0.316708,98.7737,213,7.50874,14.3847,0.49375,11103
-3.56329e-07,-6.07785e-08,-2.87555e-06,-0.000118893,-3.17514e-05,-0.003248,95.3748,98.0456,-0.528358,49.2915,98.0536,95.3679,-0.529441,97.268,213,16.552,12.6356,0.49375,11104
-4.83037e-07,4.07317e-08,-2.89438e-06,-0.000161555,-2.66288e-05,-0.00315362,95.9354,100.071,4.23242,48.0476,100.207,95.9207,4.11152,94.0254,213,17.4227,8.68276,0.49375,11105
-3.78466e-07,5.09399e-08,-2.88014e-06,-0.000111152,-2.85145e-05,-0.00324392,96.1069,98.6396,0.0913922,49.2923,98.6759,96.0706,0.0913759,97.308,213,16.6919,8.35057,0.49375,11106
-4.04566e-07,7.21085e-08,-2.88903e-06,-0.000135047,-3.43009e-05,-0.00321527,95.3405,98.4283,0.93541,48.7534,98.4395,95.332,0.932729,95.9907,213,17.0013,7.66599,0.49375,11107
-1.69526e-07,5.86632e-08,-2.87558e-06,-6.26382e-05,-3.0746e-05,-0.00326143,98.5394,99.5168,0.500301,49.513,99.5257,98.5312,0.499594,98.5326,213,14.3215,8.15478,0.49375,11108
-5.00114e-08,7.52124e-07,-2.89822e-06,-2.80261e-05,-0.000269223,-0.00315947,96.2509,88.8585,0.275854,47.9886,96.2527,88.857,0.275535,92.5013,213,11.8734,1.6251,0.49375,11109
-7.59847e-08,7.84803e-07,-2.89031e-06,-3.53781e-05,-0.000298937,-0.00312754,95.8569,87.7792,1.086,47.3956,95.8699,87.7733,1.07882,91.0133,213,12.6898,1.52654,0.49375,11110
-4.49299e-08,1.44733e-07,-2.88188e-06,-3.05623e-05,-5.53946e-05,-0.00327204,99.4179,98.6569,0.070736,49.6743,99.4194,98.6554,0.0707243,98.9689,213,11.6119,6.20606,0.49375,11111
-7.03896e-08,2.44675e-07,-2.87122e-06,-3.62038e-05,-8.47298e-05,-0.00325299,98.7214,97.2341,0.130787,49.2972,98.725,97.2306,0.13061,97.8558,213,12.4485,4.71214,0.49375,11112
-9.38518e-08,3.38244e-07,-2.86668e-06,-4.09564e-05,-0.000116487,-0.00326173,97.0887,94.7738,-1.62395,49.362,97.0956,94.7713,-1.62839,97.5826,213,13.0849,3.75395,0.49375,11113
-6.61767e-08,3.94348e-07,-2.86709e-06,-3.50608e-05,-0.000129255,-0.00323165,98.0323,95.1453,0.060894,48.9874,98.0349,95.1436,0.0600631,96.5616,213,12.3684,3.3343,0.49375,11114
1.03533e-07,-3.60084e-08,-2.88429e-06,-4.48096e-05,-2.84864e-05,-0.0032777,99.2111,99.7114,0.126881,49.7932,99.7132,99.2093,0.126876,99.3353,213,6.99723,11.7789,0.49375,11115
-2.18559e-07,7.62998e-08,-2.87199e-06,-7.22602e-05,-3.56367e-05,-0.00325518,97.9728,99.0953,0.420162,49.343,99.1048,97.9647,0.418782,98.1209,213,15.0877,7.60687,0.49375,11116
-2.18405e-07,5.29164e-08,-2.86857e-06,-7.51813e-05,-2.99434e-05,-0.00327767,97.2354,98.6219,-0.916915,49.7761,98.6351,97.2223,-0.917022,98.8533,213,15.0152,8.32654,0.49375,11117
-1.03262e-07,2.54019e-07,-2.86965e-06,-4.45708e-05,-8.77851e-05,-0.00324256,98.4324,97.1079,0.417848,49.0095,98.436,97.1052,0.416954,97.3605,213,13.2671,4.57334,0.49375,11118
-7.63724e-08,2.1259e-07,-2.87413e-06,-3.80872e-05,-7.32166e-05,-0.0032677,98.4969,97.4203,-0.486627,49.4943,98.5016,97.4159,-0.486928,98.4502,213,12.5913,5.11534,0.49375,11119
-3.00828e-07,6.81799e-08,-2.87097e-06,-9.39802e-05,-3.39149e-05,-0.00325778,96.5646,98.4056,-0.401825,49.421,98.4393,96.5317,-0.402623,97.9021,213,16.0425,7.82096,0.49375,11120
-2.76458e-07,5.8256e-08,-2.86708e-06,-9.16428e-05,-3.04648e-05,-0.00325941,96.7728,98.6478,-0.315359,49.4912,98.667,96.7536,-0.31538,98.0397,213,15.7371,8.13648,0.49375,11121
-1.43358e-06,9.68164e-07,-2.62842e-06,-0.00123548,-0.00059854,-0.00236063,34.9912,54.5128,0.506723,27.054,54.6051,34.9084,0.497148,47.433,213,19.7324,0.971886,0.498125,11122
-1.6013e-07,-2.42797e-09,-2.87458e-06,-6.17691e-05,-2.42704e-05,-0.00327334,98.4159,99.5651,-0.0149351,49.7909,99.566,98.4158,-0.0157736,99.0117,213,14.0959,10.507,0.49375,11123
-1.4282e-06,9.66452e-07,-2.60775e-06,-0.0012276,-0.000594822,-0.00235855,35.6829,55.0766,1.02045,27.1216,55.2121,35.5989,0.96894,47.5722,213,19.7324,0.971886,0.489375,11124
-1.25966e-06,3.70698e-07,-2.71018e-06,-0.000971001,-0.000118838,-0.00274769,54.8344,80.9521,0.381013,40.2974,80.9676,54.8272,0.372745,71.2184,213,19.4437,3.18428,0.489375,11125
-2.52641e-07,1.00283e-07,-2.87013e-06,-8.23157e-05,-4.22896e-05,-0.00325609,97.0856,98.3124,-0.186745,49.2511,98.3148,97.0838,-0.187428,97.8926,213,15.5653,6.98281,0.49375,11126
-1.92431e-07,1.21942e-07,-2.87433e-06,-6.63699e-05,-4.89635e-05,-0.00325871,97.7931,98.3265,-0.0481906,49.1956,98.3425,97.7777,-0.0487524,98.1101,213,14.7861,6.53548,0.49375,11127
-6.69848e-07,3.99527e-08,-2.89352e-06,-0.000269736,-2.60229e-05,-0.00319132,87.8449,95.3145,-1.69816,48.5213,95.3295,87.8448,-1.71308,93.5251,213,18.3307,8.69284,0.49375,11128
-2.62524e-07,-5.383e-08,-2.8738e-06,-8.57124e-05,-3.09734e-05,-0.0032486,97.488,99.1657,0.549442,49.3097,99.1674,97.4877,0.548078,97.7903,213,15.6348,12.4246,0.49375,11129
-6.15346e-07,1.37349e-08,-2.89483e-06,-0.000182604,-2.34827e-05,-0.00320688,92.9513,97.8282,0.260931,48.7845,97.8282,92.9531,0.259119,95.2252,213,18.0817,9.75,0.49375,11130
-2.06514e-07,1.56495e-09,-2.867e-06,-7.56942e-05,-2.40122e-05,-0.00326729,97.739,99.323,-0.0793619,49.7026,99.3246,97.7386,-0.0805552,98.6217,213,14.7722,10.3317,0.49375,11131
-2.10079e-07,-6.72851e-08,-2.87724e-06,-7.12594e-05,-3.43657e-05,-0.003263,97.8211,98.9518,-0.00196705,49.4793,98.9563,97.817,-0.00239629,98.394,213,14.9946,12.8375,0.49375,11132
-2.78023e-07,3.02648e-09,-2.85811e-06,-9.66776e-05,-2.40824e-05,-0.00325094,96.941,99.1659,0.266557,49.4542,99.1732,96.9353,0.264912,97.8086,213,15.58,10.2481,0.49375,11133
1.88032e-08,-2.07989e-08,-2.88647e-06,-3.02662e-05,-2.54172e-05,-0.00328841,99.8838,100.032,0.0255468,50.0041,100.033,99.8837,0.0247266,99.9337,213,9.41025,11.1748,0.49375,11134
-1.52112e-08,-2.96254e-08,-2.88643e-06,-2.92088e-05,-2.58885e-05,-0.003289,99.9161,100.018,0.00751795,50.0062,100.019,99.9151,0.00710148,99.9602,213,10.5571,11.5184,0.49375,11135
1.40792e-08,-4.37757e-08,-2.88615e-06,-2.92137e-05,-2.93868e-05,-0.00328783,99.8392,99.8339,-0.0335033,49.9375,99.8411,99.8323,-0.033838,99.8706,213,9.56095,12.0144,0.49375,11136
-5.20638e-08,-1.08678e-07,-2.88212e-06,-3.22887e-05,-4.47913e-05,-0.0032747,99.5692,99.186,0.193272,49.69,99.5726,99.1833,0.192626,99.1859,213,11.8364,13.8207,0.49375,11137
-2.81075e-08,-1.15944e-07,-2.88183e-06,-2.96275e-05,-4.62818e-05,-0.00327578,99.6537,99.1433,0.163099,49.746,99.6549,99.1424,0.16282,99.2368,213,11.0623,13.9688,0.49375,11138
-3.64227e-09,-1.33629e-07,-2.87996e-06,-2.65352e-05,-5.18996e-05,-0.0032753,99.6815,98.9041,0.110937,49.7853,99.6816,98.904,0.110936,99.1842,213,10.2005,14.3201,0.49375,11139
-1.0778e-07,-1.42621e-07,-2.87727e-06,-4.48315e-05,-5.22744e-05,-0.00326765,98.7583,98.5302,-0.0171749,49.4017,98.7862,98.5023,-0.0171779,98.6617,213,13.321,14.5625,0.49375,11140
-7.45104e-08,-1.36819e-07,-2.87926e-06,-3.77552e-05,-5.09625e-05,-0.00326691,99.2753,98.8705,0.305677,49.4886,99.2828,98.863,0.305654,98.7679,213,12.5038,14.4219,0.49375,11141
-1.58121e-08,-7.79213e-09,-2.88637e-06,-2.93999e-05,-2.61919e-05,-0.00328656,99.9742,100.073,0.146214,49.9637,100.073,99.974,0.145965,99.8778,213,10.5793,10.6723,0.49375,11142
1.4469e-07,-1.70098e-07,-2.87264e-06,-5.65167e-05,-6.34369e-05,-0.0032599,97.9041,97.692,-0.275603,49.1098,97.9438,97.6524,-0.275725,98.0742,213,6.02308,15.0717,0.49375,11143
2.40832e-08,1.30658e-07,-2.88136e-06,-2.88858e-05,-5.13818e-05,-0.0032785,99.4439,98.7544,-0.15283,49.799,99.4449,98.7536,-0.153076,99.2542,213,9.19515,6.49137,0.49375,11144
1.46154e-08,1.0363e-07,-2.88373e-06,-2.83575e-05,-4.44271e-05,-0.00327646,99.7729,99.2804,0.222423,49.7756,99.7733,99.2802,0.222184,99.3055,213,9.54216,7.0575,0.49375,11145
-7.60222e-08,-1.563e-07,-2.87756e-06,-3.78557e-05,-5.74248e-05,-0.00326653,99.0691,98.4693,0.114281,49.4813,99.0768,98.4616,0.114262,98.6564,213,12.5668,14.785,0.49375,11146
-4.30629e-08,-5.17783e-07,-2.89744e-06,-1.93543e-05,-0.000180025,-0.00322008,97.7412,92.8168,-0.357245,49.0492,97.7412,92.8168,-0.357266,95.7313,213,11.8437,17.8705,0.49375,11147
-1.37106e-06,-6.80136e-08,-2.72404e-06,-0.00101147,-3.24194e-05,-0.00276786,54.4414,84.4482,0.610407,41.922,84.4508,54.4424,0.606861,73.5818,213,19.5037,12.6109,0.489375,11148
-1.40128e-06,-7.60337e-07,-2.65277e-06,-0.00123997,-0.00052705,-0.00239098,36.0584,57.9086,0.781369,28.654,58.0502,35.956,0.742166,50.0619,213,19.7324,18.5281,0.489375,11149
-1.27613e-06,-2.68446e-07,-2.74106e-06,-0.000987611,-8.7888e-05,-0.00274039,55.0366,82.612,1.31604,40.6538,82.6199,55.0324,1.31233,71.6165,213,19.4437,16.3157,0.498125,11150
-3.4774e-07,1.05399e-07,-2.87258e-06,-0.000117121,-4.24659e-05,-0.00322546,95.8759,98.164,0.609102,48.7804,98.168,95.8737,0.607232,96.4341,213,16.5241,6.82784,0.49375,11151
-2.75279e-07,2.69311e-08,-2.85818e-06,-9.55823e-05,-2.60761e-05,-0.00325456,96.8261,98.9564,0.00730593,49.4834,98.9741,96.8086,0.00717929,97.9021,213,15.5698,9.24284,0.49375,11152
-1.36316e-06,1.08055e-07,-2.74188e-06,-0.00102193,-4.1903e-05,-0.00275116,54.0144,84.0509,1.01545,41.5232,84.0563,54.0145,1.00993,72.831,213,19.5037,6.88906,0.498125,11153
-1.80664e-08,3.2578e-08,-2.88594e-06,-3.02394e-05,-2.80126e-05,-0.0032898,99.7544,99.8227,-0.147202,49.9853,99.8232,99.7541,-0.147374,99.936,213,10.6676,9.17142,0.49375,11154
-1.00326e-07,1.56911e-07,-2.87822e-06,-4.39937e-05,-5.88297e-05,-0.00326864,98.5637,98.109,-0.2677,49.4212,98.5746,98.0982,-0.267855,98.6051,213,13.1332,5.93782,0.49375,11155
1.8172e-08,9.23817e-10,-2.8864e-06,-3.02052e-05,-2.60489e-05,-0.00328751,99.8965,100.024,0.0640499,49.9801,100.024,99.8965,0.0638772,99.8965,213,9.43243,10.3286,0.49375,11156
9.67777e-08,2.99303e-07,-2.86665e-06,-4.18474e-05,-0.000102083,-0.00323646,98.3359,96.4897,0.424873,48.9576,98.3401,96.4855,0.424864,97.0012,213,6.9614,4.11832,0.49375,11157
-4.62805e-08,5.28039e-07,-2.87435e-06,-2.86751e-05,-0.000203509,-0.00319443,97.2205,91.862,0.193903,48.5135,97.2207,91.8619,0.193804,94.4616,213,11.7482,2.5349,0.49375,11158
-2.60482e-07,3.20518e-07,-2.84792e-06,-9.10048e-05,-0.000109131,-0.00320865,95.8962,95.3406,0.344173,47.8207,95.9856,95.2512,0.344153,95.2764,213,15.809,3.77034,0.49375,11159
-3.52032e-07,3.22262e-08,-2.86825e-06,-9.05706e-05,-2.68396e-05,-0.00329563,95.7698,97.7231,-2.46117,50.1038,97.7388,95.7617,-2.46879,99.2338,213,16.3636,9.04779,0.49375,11160
2.82242e-07,-2.39353e-08,-2.86586e-06,-9.68207e-05,-2.41361e-05,-0.0032431,97.1879,99.4156,0.758323,49.3306,99.4194,97.1842,0.758189,97.5628,213,4.36286,11.3635,0.49375,11161
-1.76992e-07,2.27369e-07,-2.86774e-06,-6.24155e-05,-8.14601e-05,-0.00324641,97.3804,96.7967,-0.205172,48.8077,97.4102,96.7669,-0.205189,97.2953,213,14.6413,4.84287,0.49375,11162
2.72202e-07,2.66815e-08,-2.8595e-06,-9.82056e-05,-2.58047e-05,-0.00325689,96.5919,98.8108,-0.218022,49.5197,98.8203,96.5835,-0.21909,97.9401,213,4.51995,9.25192,0.49375,11163
-3.10008e-07,-3.13535e-08,-2.8725e-06,-9.52353e-05,-2.59934e-05,-0.00324929,97.0241,99.1463,0.356198,49.4088,99.173,96.9981,0.355479,97.7482,213,16.0899,11.6229,0.49375,11164
-2.29864e-07,-4.07595e-07,-2.88179e-06,-7.92483e-05,-0.000116287,-0.00322742,95.7907,94.6555,-0.696949,48.2444,95.7918,94.6544,-0.69696,95.9251,213,15.6841,17.5146,0.49375,11165
-3.85101e-07,-8.38853e-07,-2.84159e-06,-0.000159687,-0.000765439,-0.00284023,82.0724,63.5068,-0.0828944,41.0827,82.0787,63.5043,-0.0867283,74.6324,213,17.4422,18.6504,0.49375,11166
-1.24701e-06,-3.17094e-07,-2.73613e-06,-0.000945955,-0.000119085,-0.00276861,55.7295,81.072,-0.132782,40.6055,81.0754,55.729,-0.135683,71.9671,213,19.4437,16.8032,0.49375,11167
-1.25158e-06,4.37974e-07,-2.73125e-06,-0.000962465,-0.000157841,-0.00274254,54.2639,78.9247,-0.293305,39.6102,78.9262,54.2634,-0.294263,70.2163,213,19.4437,2.69678,0.49375,11168
5.56665e-09,1.05599e-06,-2.83526e-06,-2.67708e-05,-0.000791686,-0.00289072,87.9923,64.5486,0.215665,43.8975,88.0097,64.5322,0.214704,78.727,213,9.58864,1.06179,0.49375,11169
1.1247e-06,2.40944e-07,-2.7797e-06,-0.000877073,-6.97859e-05,-0.00282419,59.8982,84.6406,0.221525,42.2239,84.6663,59.8754,0.218607,75.1829,213,0.841591,4.50462,0.49375,11170
2.42326e-07,6.07939e-07,-2.89402e-06,-8.02302e-05,-0.000193949,-0.00318211,94.6652,91.1798,-0.403586,47.5347,94.6656,91.1796,-0.403752,93.3752,213,4.41072,1.99158,0.49375,11171
-1.35544e-06,1.33194e-06,-2.51842e-06,-0.00106052,-0.00104474,-0.00222871,35.7751,36.2586,-0.0283534,19.2282,38.4114,33.6389,-0.0449786,36.3062,213,19.7324,0.484385,0.49375,11172
1.29678e-06,-1.0997e-06,-2.63146e-06,-0.00107796,-0.000992469,-0.00224614,35.8122,38.4324,0.0088457,19.9653,39.908,34.3679,-0.0224791,37.4689,213,0.367583,19.0156,0.49375,11173
1.37739e-06,1.35077e-06,-2.51453e-06,-0.00108348,-0.00106104,-0.0022078,34.468,35.1556,0.00891196,18.3836,36.7572,32.8853,-0.00998113,34.9923,213,0.367583,0.484385,0.49375,11174
-1.28934e-06,-1.09304e-06,-2.63617e-06,-0.00106828,-0.000992112,-0.00225139,36.2663,38.6009,0.00560776,20.1854,40.3595,34.5247,-0.0113712,37.7928,213,19.7324,19.0156,0.49375,11175
-1.33513e-06,3.27573e-08,-2.72334e-06,-0.000965647,-2.7421e-05,-0.00278371,56.9952,85.7507,1.27381,42.3074,85.8203,56.9939,1.20544,74.5084,213,19.3898,9.05786,0.49375,11176
1.33112e-06,3.34083e-08,-2.73252e-06,-0.000975913,-2.73667e-05,-0.00273794,57.8492,86.921,3.84525,41.7232,87.1064,57.849,3.66007,73.3339,213,0.710212,9.05786,0.49375,11177
-3.37791e-07,2.56998e-07,-2.85651e-06,-0.000110301,-9.10821e-05,-0.00321389,95.0914,95.6805,-0.0298889,47.9056,95.7812,94.9907,-0.0298952,95.4183,213,16.5198,4.34639,0.49375,11178
1.45732e-06,7.51674e-07,-2.69281e-06,-0.00118777,-0.000353151,-0.00252576,40.6597,66.2396,-0.348322,33.311,66.2696,40.6337,-0.35233,58.2046,213,0.367583,1.45939,0.49375,11179
-4.18193e-07,-4.27935e-07,-2.89092e-06,-0.000167462,-0.000146149,-0.00316148,91.3736,92.0268,-0.389544,46.5034,92.617,90.7836,-0.389741,92.1037,213,17.4173,17.6879,0.49375,11180
-1.04658e-06,5.7916e-07,-2.82368e-06,-0.000819672,-0.000238913,-0.00276265,60.0082,77.8077,0.458419,38.6923,77.8384,59.982,0.453868,70.1813,213,19.2524,1.93754,0.49375,11181
-1.25765e-06,-2.31306e-07,-2.73966e-06,-0.000957886,-7.30031e-05,-0.00278178,56.0535,83.1741,0.153499,41.5259,83.1997,56.0334,0.147988,73.3443,213,19.4437,15.8282,0.49375,11182
-1.24637e-06,3.22254e-07,-2.72858e-06,-0.000966596,-9.07996e-05,-0.00276823,55.3608,82.2028,0.142919,41.0348,82.2116,55.3531,0.141881,72.4744,213,19.4437,3.67178,0.49375,11183
1.25543e-06,-2.31469e-07,-2.73808e-06,-0.000954943,-7.3188e-05,-0.00278306,56.1923,83.217,0.162695,41.5416,83.2404,56.1744,0.157226,73.3938,213,0.656279,15.8282,0.49375,11184
7.12107e-07,2.57886e-07,-2.8882e-06,-0.000243098,-9.02284e-05,-0.00314628,88.9071,93.5923,-0.0719389,46.834,93.596,88.9034,-0.0719993,91.4121,213,1.59787,4.2764,0.49375,11185
-1.08039e-06,-4.23774e-07,-2.80235e-06,-0.000820212,-0.000178319,-0.00279435,60.9234,80.5966,0.418413,40.1081,80.6279,60.8988,0.411688,72.3967,213,19.2524,17.5625,0.49375,11186
1.10893e-06,2.4231e-08,-2.80638e-06,-0.00081492,-2.57144e-05,-0.00294213,61.4181,85.6062,-3.77832,44.7358,85.6498,61.4181,-3.82189,80.1518,213,0.959135,9.38497,0.49375,11187
-3.38642e-07,4.77052e-07,-2.84988e-06,-0.000106432,-0.000184359,-0.00316451,93.8947,91.5064,0.168521,46.8882,93.9449,91.4563,0.168462,92.5572,213,16.6676,2.55757,0.49375,11188
-1.11521e-06,2.38347e-08,-2.78686e-06,-0.000813255,-2.51667e-05,-0.00291013,62.5936,86.7475,-1.67307,44.2301,86.7673,62.5936,-1.69285,79.1906,213,19.1409,9.38497,0.49375,11189
3.33239e-08,-9.22336e-07,-2.84252e-06,-1.67222e-05,-0.000874631,-0.00291283,85.1779,58.884,-3.58433,44.45,85.2577,58.8622,-3.64227,79.0782,213,8.64142,18.6863,0.49375,11190
-3.9999e-08,1.23755e-06,-2.78577e-06,-2.48892e-05,-0.000952817,-0.00277868,86.4984,58.0585,2.09801,42.3034,86.6101,58.0414,2.00339,74.5477,213,11.4586,0.813717,0.49375,11191
-3.50283e-08,-9.188e-07,-2.84129e-06,-6.54282e-06,-0.000877153,-0.00291902,85.5382,58.8551,-3.72549,44.7,85.6409,58.7861,-3.75917,79.4527,213,11.4289,18.6819,0.49375,11192
3.96565e-08,1.23366e-06,-2.78309e-06,-2.49398e-05,-0.000924964,-0.00283268,85.636,58.0514,-0.417601,43.0349,85.6499,58.04,-0.420024,76.118,213,8.67112,0.818111,0.49375,11193
-4.2989e-07,4.53071e-09,-2.88554e-06,-0.000138746,-2.41693e-05,-0.00324137,94.5809,98.0925,-0.510798,49.3068,98.0982,94.5797,-0.515324,96.9022,213,17.0226,10.115,0.49375,11194
-3.22466e-07,1.42453e-08,-2.85339e-06,-9.31027e-05,-2.44233e-05,-0.00324741,97.2729,99.3779,0.59724,49.3913,99.3795,97.2718,0.596796,97.7459,213,15.9635,9.75,0.49375,11195
-1.44769e-06,7.50231e-07,-2.67793e-06,-0.00117334,-0.000344237,-0.00253714,41.4948,66.906,-0.303739,33.6293,66.9506,41.4544,-0.307953,58.8127,213,19.7324,1.45939,0.49375,11196
-1.4425e-06,-5.77566e-07,-2.68034e-06,-0.00115747,-0.000280815,-0.00257606,43.3086,70.1768,-0.169585,35.2173,70.256,43.2385,-0.178667,61.5469,213,19.7324,18.0406,0.49375,11197
2.34479e-07,1.29301e-08,-2.86582e-06,-8.99068e-05,-2.29694e-05,-0.00325965,97.1215,99.1731,-0.0271685,49.6002,99.1733,97.1213,-0.0271729,98.1906,213,4.94367,9.83552,0.49375,11198
-2.39499e-07,1.70011e-08,-2.86111e-06,-9.04011e-05,-2.32607e-05,-0.00326153,97.0188,99.0766,-0.172347,49.6252,99.078,97.0174,-0.17237,98.2363,213,15.1563,9.66448,0.49375,11199
-3.18108e-08,2.57329e-08,-2.88579e-06,-3.16784e-05,-2.7146e-05,-0.00328739,99.7708,99.9097,-0.0129031,49.9617,99.9104,99.7702,-0.0129747,99.8533,213,11.1076,9.41916,0.49375,11200
4.00163e-11,1.64949e-08,-2.88626e-06,-2.89348e-05,-2.7053e-05,-0.00328873,99.9041,99.9618,-0.00468672,49.9833,99.9618,99.9041,-0.00468984,99.9377,213,10.05,9.75,0.49375,11201
3.44308e-07,3.19752e-08,-2.85942e-06,-0.00010851,-2.64496e-05,-0.00325275,96.0522,98.5673,-0.314926,49.4456,98.5761,96.0436,-0.315055,97.6495,213,3.80813,9.05282,0.49375,11202
-6.80668e-08,1.50626e-07,-2.88038e-06,-3.56108e-05,-5.67114e-05,-0.00327006,99.1189,98.4722,-0.0130019,49.5689,99.1248,98.4663,-0.0130468,98.8103,213,12.3146,6.07662,0.49375,11203
-1.14053e-06,-1.64556e-07,-2.78659e-06,-0.000890372,-5.20768e-05,-0.0028325,59.3624,85.0552,-0.161358,42.6283,85.0946,59.3237,-0.162036,75.7344,213,19.2584,14.9954,0.49375,11204
-1.46271e-08,-5.68013e-08,-2.88566e-06,-2.87826e-05,-3.28211e-05,-0.00328565,99.8253,99.7016,0.00625292,49.9103,99.8268,99.7002,0.00611892,99.7575,213,10.5578,12.4425,0.49375,11205
1.36922e-06,-8.05633e-08,-2.73062e-06,-0.00103666,-3.51193e-05,-0.00273069,53.9745,84.6704,2.05453,41.3458,84.7126,53.9658,2.021,72.3932,213,0.596249,13.0984,0.49375,11206
1.13988e-06,-1.65271e-07,-2.78644e-06,-0.00088625,-5.25122e-05,-0.00283568,59.5053,85.0584,-0.242361,42.671,85.099,59.4653,-0.243037,75.8467,213,0.84159,14.9954,0.49375,11207
-3.44946e-07,3.20925e-08,-2.86641e-06,-0.000108411,-2.62068e-05,-0.00322714,96.9084,99.4279,1.32332,49.0692,99.4577,96.8825,1.31939,96.8764,213,16.2918,9.05278,0.49375,11208
2.38477e-07,1.70714e-07,-2.86727e-06,-8.52624e-05,-5.89511e-05,-0.00324485,96.7204,97.5268,-0.11707,48.8308,97.5445,96.7029,-0.117207,97.2436,213,4.69058,5.59664,0.49375,11209
1.58207e-08,4.22716e-08,-2.88591e-06,-2.92096e-05,-2.94702e-05,-0.0032888,99.8051,99.7971,-0.0972079,49.9529,99.8084,99.794,-0.0974269,99.8986,213,9.52071,8.82774,0.49375,11210
3.18264e-08,7.29026e-09,-2.88626e-06,-3.14675e-05,-2.60503e-05,-0.00328809,99.7972,99.9632,-0.0143873,49.9889,99.9633,99.7972,-0.0144706,99.8948,213,8.99239,10.0808,0.49375,11211
-1.42821e-07,2.6617e-07,-2.86635e-06,-5.45315e-05,-9.20578e-05,-0.00323895,97.7781,96.628,0.17967,48.8045,97.7885,96.6177,0.179505,97.0289,213,14.0769,4.42825,0.49375,11212
-2.41045e-07,-1.07275e-07,-2.87282e-06,-8.77772e-05,-4.09417e-05,-0.00324769,97.059,98.4945,0.211419,49.1422,98.4952,97.0589,0.210775,97.5742,213,15.4094,13.9034,0.49375,11213
-1.12208e-06,2.39278e-07,-2.77676e-06,-0.000876337,-7.21375e-05,-0.00282611,59.8045,84.4522,0.0462659,42.217,84.4764,59.7843,0.0423208,75.1928,213,19.2584,4.50461,0.49375,11214
1.34648e-06,1.23538e-07,-2.73434e-06,-0.00103521,-4.26479e-05,-0.00278846,51.9206,82.3413,-1.81435,42.0862,82.3557,51.9086,-1.81671,73.8188,213,0.59625,6.40157,0.49375,11215
-1.36496e-06,-8.36982e-08,-2.7227e-06,-0.00101736,-3.73163e-05,-0.00274615,54.62,84.6572,1.63491,41.5435,84.6896,54.62,1.60252,72.8646,213,19.5037,13.0984,0.49375,11216
1.80697e-07,-1.43921e-07,-2.87165e-06,-6.48711e-05,-5.60921e-05,-0.00325264,97.8534,98.1225,0.152242,49.0038,98.1598,97.8161,0.152242,97.8362,213,5.45866,14.6571,0.49375,11217
4.35108e-07,2.25945e-08,-2.87419e-06,-0.000143066,-2.55749e-05,-0.00320311,95.5176,99.1186,1.73093,48.7015,99.1272,95.5158,1.72409,95.6486,213,3.0774,9.38497,0.49375,11218
3.55793e-07,-3.56756e-09,-2.85817e-06,-0.000100684,-2.41463e-05,-0.00319719,98.4512,100.797,3.54713,48.6412,100.813,98.4511,3.53093,96.123,213,3.73641,10.4522,0.49375,11219
-1.34579e-06,1.28418e-07,-2.72552e-06,-0.0010183,-4.58504e-05,-0.00278891,52.8744,82.6787,-1.39271,42.0377,82.6813,52.8731,-1.39402,73.8313,213,19.5037,6.40156,0.49375,11220
-2.83515e-07,-2.46103e-08,-2.8681e-06,-9.28644e-05,-2.44079e-05,-0.00324745,97.2873,99.3854,0.603098,49.3967,99.3963,97.2766,0.602913,97.7508,213,15.7724,11.363,0.49375,11221
-3.4614e-07,-3.50406e-09,-2.86648e-06,-9.80501e-05,-2.38139e-05,-0.00324706,96.9902,99.2654,0.476789,49.3979,99.2725,96.9831,0.476774,97.6712,213,16.2919,10.4472,0.49375,11222
-1.02698e-07,7.52596e-08,-2.88195e-06,-4.48813e-05,-3.64952e-05,-0.00327899,98.9011,99.1581,-0.220384,49.6964,99.1723,98.8869,-0.220409,99.2503,213,13.1028,7.72109,0.49375,11223
-2.42657e-08,-7.63592e-08,-2.88458e-06,-2.93823e-05,-3.66613e-05,-0.00328333,99.7375,99.5144,0.00798643,49.8659,99.7396,99.5124,0.00781167,99.6184,213,10.9049,13.0086,0.49375,11224
-7.29154e-07,-1.76452e-07,-2.88771e-06,-0.000199305,-6.88542e-05,-0.00316427,91.7997,95.7978,0.926998,47.4568,95.835,91.7681,0.92139,92.9469,213,18.5021,15.2236,0.49375,11225
7.29763e-07,-1.77523e-07,-2.88528e-06,-0.000197063,-6.85809e-05,-0.00316537,91.9151,95.8529,0.940183,47.4757,95.8861,91.8874,0.934675,93.0166,213,1.59787,15.2236,0.49375,11226
-7.12714e-07,2.57911e-07,-2.8895e-06,-0.00021114,-9.29504e-05,-0.0031608,90.3703,93.9927,-0.0331057,47.0139,93.9944,90.3689,-0.03342,92.2685,213,18.5021,4.27639,0.49375,11227
-4.8991e-07,-1.04069e-08,-2.74398e-06,-0.000165384,-2.24477e-05,-0.00346443,9.67243,10.0991,-0.175473,5.13861,10.1009,9.67155,-0.176353,10.0694,213,17.4529,10.7659,0.45,11228
-6.6947e-07,-1.01537e-08,-2.74911e-06,-0.000251005,-2.23246e-05,-0.00336626,9.45702,10.1397,0.157739,4.99201,10.1408,9.45697,0.156736,9.66029,213,18.3247,10.8004,0.45,11229
-4.14213e-07,-3.54466e-08,-2.73999e-06,-0.000139733,-2.64996e-05,-0.00347958,9.76944,10.1075,-0.200262,5.15403,10.1078,9.76917,-0.200282,10.143,213,17.0315,11.7826,0.45,11230
-5.78357e-07,-3.60488e-08,-2.74532e-06,-0.000234199,-2.76082e-05,-0.0034346,9.32701,9.9437,-0.226415,5.08561,9.94448,9.32656,-0.226736,9.87676,213,17.9033,11.8171,0.45,11231
-5.75505e-07,7.17465e-08,-2.74582e-06,-0.000237664,-3.44014e-05,-0.00338324,9.44701,10.0538,0.057221,5.00251,10.0583,9.4464,0.053304,9.71353,213,17.9093,7.65484,0.45,11232
-4.06692e-07,7.25144e-08,-2.73844e-06,-0.000140698,-3.42021e-05,-0.00350897,9.64588,9.96378,-0.408662,5.18751,9.96581,9.64439,-0.409201,10.2181,213,17.0013,7.64477,0.45,11233
-6.60604e-07,4.0248e-08,-2.75005e-06,-0.000268752,-2.60729e-05,-0.0033219,9.47657,10.201,0.362684,4.92142,10.2033,9.47654,0.360435,9.50034,213,18.3225,8.67858,0.45,11234
-4.81367e-07,4.09737e-08,-2.74465e-06,-0.000154935,-2.65195e-05,-0.00350518,9.59459,9.97792,-0.406146,5.19323,9.97982,9.59319,-0.40664,10.1986,213,17.4146,8.66851,0.45,11235
-6.23177e-07,9.95972e-08,-2.73422e-06,-0.000272762,-3.91643e-05,-0.00340528,9.14591,9.84322,-0.204899,5.0262,9.8456,9.14544,-0.206807,9.72125,213,18.0492,6.91438,0.45,11236
-5.60039e-07,1.39059e-07,-2.73153e-06,-0.000211984,-5.16032e-05,-0.00342263,9.42562,9.90437,-0.158414,5.03265,9.90562,9.42565,-0.159689,9.83411,213,17.8055,5.9971,0.45,11237
-4.45349e-07,9.89431e-08,-2.73753e-06,-0.0001649,-3.87206e-05,-0.00344447,9.6871,10.0638,-0.102664,5.08364,10.0644,9.68663,-0.102835,9.98373,213,17.2665,6.9175,0.45,11238
-3.7918e-07,1.38516e-07,-2.71737e-06,-0.000134685,-5.02119e-05,-0.00343453,9.86822,10.1204,0.0179469,5.05154,10.1207,9.86822,0.0176299,9.97923,213,16.7641,6.08393,0.45,11239
-5.6383e-07,-8.62596e-08,-2.72575e-06,-0.000208441,-3.67997e-05,-0.00342902,9.47413,9.9865,-0.13953,5.06423,9.98783,9.47391,-0.140633,9.88153,213,17.7779,13.4734,0.45,11240
-3.83646e-07,-8.56883e-08,-2.71992e-06,-0.000135131,-3.48457e-05,-0.00343483,9.91325,10.2126,0.0634056,5.07499,10.213,9.91316,0.0630626,10.0034,213,16.7365,13.3896,0.45,11241
-4.45631e-07,-5.6745e-08,-2.73756e-06,-0.000163696,-2.84877e-05,-0.00344966,9.7105,10.1141,-0.0983601,5.10667,10.1149,9.70969,-0.0983914,10.0169,213,17.2389,12.5348,0.45,11242
2.29181e-07,-3.96331e-07,-2.73596e-06,-7.96756e-05,-0.000108866,-0.00345418,9.95853,9.8714,-0.114622,5.04013,9.96242,9.87071,-0.117828,10.0347,213,4.41074,17.5084,0.45,11243
2.40845e-07,-8.40463e-07,-2.64282e-06,-8.31146e-05,-0.000722503,-0.00310601,9.09541,7.18679,0.0718549,4.66856,9.25526,7.18067,-0.0818742,8.49207,213,4.04193,18.6504,0.4325,11244
1.81943e-07,-6.94743e-07,-2.78002e-06,-6.91521e-05,-0.000625023,-0.00319649,9.20356,7.54424,-0.13178,4.71093,9.24742,7.54305,-0.174447,8.69587,213,4.88245,18.358,0.4675,11245
1.74025e-07,-3.57485e-07,-2.73301e-06,-6.17029e-05,-4.32942e-05,-0.00349119,10.1598,10.2147,-0.0774887,5.15225,10.2269,10.1477,-0.0775781,10.2651,213,5.25126,17.216,0.45,11246
1.80708e-07,-6.75641e-07,-2.66863e-06,-6.81918e-05,-0.000608604,-0.0031784,9.31891,7.70574,0.0347017,4.68577,9.36329,7.70433,-0.00825863,8.66204,213,4.88245,18.358,0.4325,11247
-1.79768e-07,-6.73666e-07,-2.67348e-06,-7.09954e-05,-0.000601803,-0.00317594,9.33104,7.74654,0.0625513,4.69946,9.3974,7.74425,-0.00151823,8.69107,213,15.2176,18.358,0.4325,11248
-2.29614e-07,-4.04698e-07,-2.733e-06,-7.97071e-05,-0.000109658,-0.00344742,9.97728,9.88788,-0.0755797,5.02901,9.97985,9.8879,-0.078167,10.0124,213,15.6893,17.5084,0.45,11249
-2.43727e-07,-8.5133e-07,-2.75659e-06,-8.62233e-05,-0.000726034,-0.00313736,8.96563,7.05575,-0.142239,4.61324,9.02845,7.04874,-0.198045,8.41318,213,16.0581,18.6504,0.4675,11250
-1.81011e-07,-6.9194e-07,-2.78527e-06,-7.10948e-05,-0.000616051,-0.00321202,9.17079,7.54405,-0.205124,4.7153,9.19899,7.54233,-0.231607,8.72109,213,15.2176,18.358,0.4675,11251
-1.74011e-07,-3.57846e-07,-2.72654e-06,-6.25554e-05,-6.28946e-05,-0.00347062,10.1576,10.1566,-0.0157197,5.1092,10.2015,10.1139,-0.0168857,10.1749,213,14.8488,17.216,0.45,11252
-2.0695e-07,9.87389e-07,-2.75887e-06,-7.54854e-05,-0.000705022,-0.00316874,8.99886,7.11964,-0.234736,4.64227,9.02481,7.11869,-0.259735,8.49344,213,15.2151,1.12267,0.4675,11253
-2.06092e-07,9.65767e-07,-2.64879e-06,-7.58823e-05,-0.000688708,-0.00312339,9.19197,7.36264,0.0949198,4.60806,9.25209,7.36146,0.0359774,8.43131,213,15.2151,1.12267,0.4325,11254
-1.80282e-07,5.40963e-07,-2.7422e-06,-6.08914e-05,-0.000145684,-0.00342393,10.0534,9.80024,0.0144276,5.02579,10.0613,9.79713,0.00967903,9.92215,213,14.8439,2.24533,0.45,11255
-2.39399e-07,6.04672e-07,-2.74899e-06,-7.9757e-05,-0.000200302,-0.00338704,9.88099,9.52115,0.00851064,4.94249,9.88748,9.52068,0.00249155,9.70679,213,15.6868,1.97225,0.45,11256
-2.80901e-07,1.14769e-06,-2.7023e-06,-9.24211e-05,-0.000803061,-0.00309775,8.80878,6.68747,-0.162361,4.53841,8.8635,6.6837,-0.213311,8.20697,213,16.0581,0.849583,0.4675,11257
-1.4963e-07,-6.91821e-07,-2.73355e-06,-6.74663e-05,-0.000597717,-0.00318539,9.33574,7.75291,0.0285032,4.71173,9.39385,7.75292,-0.0296079,8.71957,213,14.7562,18.358,0.45,11258
1.51463e-07,-6.88901e-07,-2.72902e-06,-6.59909e-05,-0.000636073,-0.0031702,9.27135,7.56961,0.00504705,4.67305,9.31144,7.56924,-0.0346713,8.60827,213,5.34381,18.358,0.45,11259
-4.85031e-07,2.60376e-07,-2.7206e-06,-0.000181309,-9.07034e-05,-0.00339495,9.57826,9.84873,-0.0146968,4.93395,9.85268,9.57485,-0.0152316,9.73197,213,17.5495,4.2469,0.45,11260
-6.59302e-07,1.94292e-07,-2.74575e-06,-0.000178396,-6.1437e-05,-0.00341311,9.63144,9.98057,-0.0244056,5.00802,9.98713,9.62939,-0.028915,9.84205,213,18.3052,5.09048,0.45,11261
-4.49436e-07,1.88366e-07,-2.71647e-06,-0.000168305,-6.47702e-05,-0.00341757,9.66884,9.97789,-0.0304662,5.00626,9.98138,9.66603,-0.031147,9.85864,213,17.2638,5.17731,0.45,11262
-1.73691e-07,9.90729e-07,-2.70539e-06,-7.06764e-05,-0.000684161,-0.00315266,9.14562,7.31432,-0.0543412,4.65412,9.2003,7.31324,-0.107947,8.52287,213,14.7537,1.12267,0.45,11263
-2.97909e-07,-4.55994e-07,-2.74089e-06,-8.5563e-05,-8.43537e-05,-0.0034317,10.0713,10.0749,0.0828592,5.02946,10.1386,10.0107,0.0797038,9.99559,213,16.5298,17.8008,0.45,11264
-2.42575e-07,-8.27162e-07,-2.64688e-06,-8.63906e-05,-0.000695839,-0.00312107,9.11202,7.29277,0.0532698,4.68814,9.27499,7.28437,-0.101296,8.55644,213,16.0581,18.6504,0.4325,11265
2.96042e-07,-4.43525e-07,-2.74289e-06,-8.8384e-05,-0.000128841,-0.00341426,9.96819,9.84743,0.0402169,4.98798,10.0103,9.81117,0.0343526,9.8779,213,3.57022,17.8008,0.45,11266
2.42105e-07,-8.64424e-07,-2.75203e-06,-8.19903e-05,-0.000748471,-0.00312894,8.94723,6.95774,-0.148137,4.60122,9.00358,6.95212,-0.198867,8.3675,213,4.04193,18.6504,0.4675,11267
-5.83187e-09,1.02917e-06,-2.70496e-06,-2.6451e-05,-0.00073372,-0.00314591,9.28212,7.17087,-0.029703,4.71812,9.34496,7.16959,-0.0912692,8.55847,213,10.5114,1.06179,0.45,11268
-1.47718e-10,1.0622e-06,-2.75586e-06,-1.25518e-05,-0.000778897,-0.00313304,9.26525,6.97765,-0.0496368,4.71876,9.32657,6.97764,-0.110948,8.50977,213,10.05,1.06179,0.4675,11269
5.61108e-09,1.032e-06,-2.70004e-06,-2.68322e-05,-0.000727334,-0.00315437,9.27321,7.18216,-0.0627189,4.72552,9.33159,7.18052,-0.119457,8.58018,213,9.58864,1.06179,0.45,11270
5.19805e-10,6.06885e-07,-2.74817e-06,-1.70813e-05,-0.000140054,-0.00344612,10.2706,9.90348,0.0346282,5.12202,10.2746,9.90348,0.0305973,10.0636,213,10.05,2.12359,0.45,11271
-2.02571e-10,1.03204e-06,-2.64626e-06,-1.33123e-05,-0.000756655,-0.00315566,9.25937,7.04043,-0.120771,4.74927,9.31858,7.04042,-0.179964,8.58913,213,10.05,1.06179,0.4325,11272
2.91298e-09,-7.39267e-07,-2.73049e-06,-2.04388e-05,-0.000657307,-0.00320317,9.3799,7.4788,-0.120778,4.81276,9.4433,7.47684,-0.182222,8.80849,213,9.58864,18.4382,0.45,11273
4.04729e-10,-7.72226e-07,-2.78101e-06,-4.8262e-06,-0.00070474,-0.00318588,9.38043,7.29113,-0.115248,4.81129,9.44388,7.29113,-0.178702,8.7472,213,10.05,18.4382,0.4675,11274
-2.64657e-09,-7.4192e-07,-2.72552e-06,-2.52402e-05,-0.000692383,-0.00317433,9.33056,7.33909,-0.0696978,4.74471,9.37595,7.33747,-0.113476,8.65221,213,10.5114,18.4382,0.45,11275
3.77582e-10,-7.45631e-07,-2.66998e-06,-7.83666e-06,-0.000686218,-0.00320295,9.36649,7.34147,-0.171162,4.82898,9.42661,7.34153,-0.23134,8.80261,213,10.05,18.4382,0.4325,11276
-2.44298e-10,-4.0645e-07,-2.74564e-06,-1.40343e-05,-5.26147e-05,-0.00348121,10.4553,10.3402,0.105547,5.17837,10.4601,10.3376,0.103372,10.296,213,10.05,17.3764,0.45,11277
1.07644e-06,-1.75038e-08,-2.67848e-06,-0.000778511,-2.70137e-05,-0.00311161,7.00212,9.24539,0.0376398,4.66289,9.30477,7.00139,-0.0210113,8.41397,213,0.959135,11.09,0.45,11278
1.07557e-06,-6.267e-09,-2.61696e-06,-0.000764601,-2.08411e-05,-0.00313814,7.0232,9.24338,-0.0619821,4.69186,9.28257,7.02316,-0.101137,8.48276,213,0.959135,10.6025,0.4325,11279
6.81266e-07,4.34588e-07,-2.7389e-06,-0.000244399,-0.000148915,-0.00332552,9.22543,9.51046,0.0280717,4.76704,9.54986,9.19833,0.0157778,9.36326,213,1.60388,2.68432,0.45,11280
1.23854e-06,3.71437e-07,-2.64602e-06,-0.000911017,-0.000121542,-0.00301343,6.1979,8.55454,-0.0779644,4.41583,8.65411,6.19792,-0.177553,7.8955,213,0.656279,3.18428,0.4675,11281
1.02792e-06,4.80056e-07,-2.6096e-06,-0.000774117,-0.000178709,-0.00306886,6.68364,8.46098,-0.166334,4.38735,8.53356,6.68587,-0.241137,8.01226,213,0.847604,2.42504,0.4325,11282
6.02078e-07,5.73956e-07,-2.76063e-06,-0.000182663,-0.000197555,-0.00333822,9.41098,9.36653,-0.008582,4.73246,9.44352,9.34682,-0.0214072,9.41695,213,1.79521,1.92508,0.45,11283
1.05546e-06,4.81531e-07,-2.71635e-06,-0.00079996,-0.00018138,-0.00304101,6.60439,8.4509,-0.0853062,4.33482,8.51705,6.60553,-0.152595,7.88951,213,0.847604,2.42504,0.4675,11284
7.7249e-07,3.41313e-07,-2.72833e-06,-0.000305542,-0.00010133,-0.00331266,9.0407,9.65029,0.0642375,4.80836,9.66569,9.04057,0.0489736,9.31989,213,1.41256,3.44356,0.45,11285
1.20409e-06,3.70636e-07,-2.54005e-06,-0.000876684,-0.00012261,-0.00303076,6.35093,8.6019,-0.079145,4.50679,8.76811,6.35104,-0.245468,8.08087,213,0.656279,3.18428,0.4325,11286
-1.01594e-06,5.77376e-07,-2.69459e-06,-0.000791508,-0.000233634,-0.00301549,6.57165,8.23695,-0.0670879,4.21103,8.29421,6.57514,-0.127839,7.70766,213,19.2524,1.93754,0.45,11287
-1.02684e-06,4.77426e-07,-2.61646e-06,-0.000776813,-0.000180504,-0.00308072,6.62372,8.40375,-0.253624,4.38083,8.45492,6.62568,-0.306747,8.00535,213,19.2524,2.42504,0.4325,11288
-6.11191e-07,5.82008e-07,-2.76451e-06,-0.000167736,-0.000213443,-0.00333534,9.4616,9.32516,0.00605679,4.74143,9.47893,9.31782,-0.00393215,9.40334,213,18.3048,1.92508,0.45,11289
-1.05533e-06,4.78902e-07,-2.7226e-06,-0.000801688,-0.000183254,-0.00301028,6.68529,8.53135,0.0924866,4.30906,8.62071,6.68582,0.00259772,7.83202,213,19.2524,2.42504,0.4675,11290
1.02707e-06,5.77534e-07,-2.68561e-06,-0.000758979,-0.000222296,-0.00303205,6.75536,8.35739,-0.0299209,4.27786,8.43902,6.76051,-0.116705,7.8522,213,0.847604,1.93754,0.45,11291
6.16933e-07,-3.69473e-09,-2.75688e-06,-0.000166596,-2.01692e-05,-0.00341901,9.81625,10.2533,0.107551,5.07406,10.2546,9.81604,0.106465,9.93611,213,2.01827,10.4801,0.45,11292
1.10334e-06,-6.06375e-09,-2.72616e-06,-0.000785713,-2.42434e-05,-0.00312432,6.92626,9.1993,-0.0546602,4.66225,9.23463,6.92615,-0.0898732,8.4113,213,0.959135,10.6025,0.4675,11293
-2.79812e-07,1.12e-06,-2.59402e-06,-9.15693e-05,-0.000770649,-0.00307022,9.00415,6.97704,0.112644,4.5907,9.15141,6.9724,-0.0299816,8.30902,213,16.0581,0.849583,0.4325,11294
-3.13807e-07,6.67821e-07,-2.74853e-06,-8.0223e-05,-0.00018674,-0.00338388,9.93113,9.61317,0.0694631,4.93939,9.94137,9.6098,0.0625951,9.71723,213,16.5298,1.69917,0.45,11295
-1.23832e-07,2.15077e-07,-2.72265e-06,-4.9426e-05,-7.69028e-05,-0.00346691,10.2058,10.1238,0.00433678,5.10111,10.2064,10.1233,0.00422352,10.1609,213,13.689,5.03048,0.45,11296
-9.40079e-08,1.79149e-07,-2.72634e-06,-4.26836e-05,-6.37425e-05,-0.00347714,10.2566,10.1937,0.0044637,5.12649,10.2574,10.193,0.00441639,10.2209,213,13.0132,5.57249,0.45,11297
-9.60662e-08,2.79843e-07,-2.71844e-06,-4.20114e-05,-9.6223e-05,-0.00346095,10.209,10.0472,0.00323634,5.10315,10.2094,10.0469,0.00310956,10.126,213,13.127,4.28634,0.45,11298
-7.04658e-08,2.34171e-07,-2.72207e-06,-3.61873e-05,-8.10541e-05,-0.00347238,10.2568,10.1228,-0.000548036,5.12889,10.2572,10.1225,-0.000616749,10.1911,213,12.4512,4.82835,0.45,11299
6.10353e-08,5.61074e-08,-2.73411e-06,-3.52304e-05,-3.06223e-05,-0.00349936,10.337,10.3508,-0.0036671,5.17746,10.3512,10.3366,-0.00367757,10.3476,213,8.06503,8.32364,0.45,11300
8.08369e-08,2.02501e-08,-2.7339e-06,-3.87311e-05,-2.65325e-05,-0.00349953,10.3279,10.3643,-0.00281158,5.18358,10.3643,10.3279,-0.00282164,10.349,213,7.5367,9.57674,0.45,11301
9.89437e-08,4.4702e-08,-2.73285e-06,-4.3441e-05,-2.82921e-05,-0.0034956,10.3058,10.351,0.000870753,5.17517,10.3512,10.3056,0.00085381,10.3276,213,7.09327,8.66633,0.45,11302
-1.29642e-06,-2.41641e-09,-2.59412e-06,-0.000926716,-2.53219e-05,-0.00306787,6.23377,8.9245,-0.157728,4.64942,9.03287,6.23364,-0.265965,8.26283,213,19.3838,10.4354,0.45,11303
-1.26531e-06,-1.5486e-08,-2.54858e-06,-0.000886925,-2.754e-05,-0.00308644,6.4128,8.97813,-0.152921,4.69151,9.10465,6.41174,-0.278381,8.36812,213,19.3838,10.9229,0.4325,11304
6.47357e-08,1.19326e-06,-2.65565e-06,-3.88926e-05,-0.000891788,-0.00306343,8.9658,6.41984,-0.0626712,4.63103,9.08383,6.41737,-0.178225,8.25825,213,7.74839,0.818111,0.45,11305
5.04133e-08,1.23134e-06,-2.7039e-06,-2.7388e-05,-0.000931202,-0.00303891,8.9894,6.29145,-0.00020881,4.61084,9.10542,6.29148,-0.116263,8.18587,213,8.20976,0.818111,0.4675,11306
5.01894e-08,1.19324e-06,-2.59725e-06,-2.7407e-05,-0.000898567,-0.00307586,8.97558,6.3751,-0.124283,4.66206,9.08769,6.37513,-0.236426,8.30692,213,8.20976,0.818111,0.4325,11307
4.97663e-08,7.52054e-07,-2.75818e-06,-2.64287e-05,-0.000260995,-0.00336539,10.0855,9.38527,0.118412,4.99665,10.0986,9.38527,0.105307,9.65641,213,8.21497,1.63622,0.45,11308
-2.02063e-07,6.61744e-08,-2.72254e-06,-6.92467e-05,-3.20906e-05,-0.00348149,10.1796,10.2905,-0.00617158,5.14889,10.2916,10.1785,-0.00619258,10.2417,213,14.8412,7.90845,0.45,11309
-1.3832e-07,8.34785e-08,-2.72821e-06,-5.47755e-05,-3.75812e-05,-0.00348556,10.2384,10.2897,-0.00274178,5.1468,10.2908,10.2373,-0.00277711,10.2669,213,13.8438,7.45741,0.45,11310
-1.77214e-07,1.0779e-07,-2.72533e-06,-6.2779e-05,-4.51636e-05,-0.00347762,10.1903,10.2428,-0.00328556,5.12376,10.2442,10.1889,-0.00333004,10.22,213,14.5396,6.83706,0.45,11311
2.06867e-07,-7.25144e-08,-2.72562e-06,-7.27398e-05,-3.49807e-05,-0.00347647,10.1649,10.2776,0.00447585,5.13686,10.2782,10.1644,0.00442171,10.2173,213,5.17133,13.007,0.45,11312
2.77497e-07,-7.90852e-08,-2.72032e-06,-9.56324e-05,-3.60833e-05,-0.00345854,10.0773,10.2551,0.0387478,5.10844,10.2554,10.0771,0.0385707,10.1289,213,4.32235,13.2134,0.45,11313
1.75839e-07,-1.03185e-07,-2.72666e-06,-6.40333e-05,-4.05134e-05,-0.00347667,10.2003,10.2705,0.0133514,5.12903,10.2714,10.1995,0.0132951,10.2223,213,5.56393,13.8104,0.45,11314
2.39721e-07,-1.10718e-07,-2.72193e-06,-8.71294e-05,-4.16894e-05,-0.00346679,10.0857,10.2214,-0.00281211,5.11242,10.2219,10.0852,-0.00289751,10.1572,213,4.71495,14.0168,0.45,11315
-1.24169e-07,-3.8928e-08,-2.73052e-06,-5.0726e-05,-2.88384e-05,-0.00349113,10.2734,10.3387,0.00351865,5.16779,10.3391,10.2731,0.003484,10.3027,213,13.5355,11.9042,0.45,11316
-8.65553e-08,-3.18139e-08,-2.73292e-06,-4.03087e-05,-2.80307e-05,-0.00349744,10.3201,10.3567,0.000278186,5.17828,10.3568,10.32,0.000265899,10.3382,213,12.6957,11.6297,0.45,11317
-1.4291e-07,-1.70077e-08,-2.72774e-06,-5.66453e-05,-2.48694e-05,-0.00348937,10.2551,10.35,0.00817789,5.17107,10.3503,10.2549,0.00812468,10.2948,213,13.8439,11.0967,0.45,11318
-1.0027e-07,-1.04815e-08,-2.73153e-06,-4.599e-05,-2.46122e-05,-0.00349512,10.3033,10.3671,0.00739233,5.17992,10.3672,10.3032,0.0073683,10.328,213,13.0042,10.8222,0.45,11319
5.20064e-08,-8.93295e-07,-2.70723e-06,-2.67371e-05,-0.000843916,-0.00310766,9.05218,6.61284,-0.14461,4.72731,9.1817,6.61162,-0.272911,8.46734,213,7.78971,18.6886,0.45,11320
4.07934e-08,-9.19744e-07,-2.76095e-06,-2.26175e-05,-0.000866391,-0.00309308,9.05252,6.53379,-0.113033,4.70498,9.17473,6.53377,-0.235229,8.40659,213,8.25108,18.6886,0.4675,11321
-4.98177e-08,-8.97493e-07,-2.70506e-06,-2.98594e-05,-0.000877936,-0.00308322,9.00259,6.47102,-0.111915,4.65791,9.1045,6.46851,-0.211314,8.31724,213,12.3103,18.6886,0.45,11322
-3.96409e-08,-8.95209e-07,-2.64804e-06,-1.8511e-05,-0.000840649,-0.00310352,9.12634,6.6722,-0.0826279,4.73848,9.26034,6.67219,-0.216617,8.4843,213,11.8489,18.6886,0.4325,11323
1.09857e-06,1.83041e-07,-2.66e-06,-0.00079409,-6.58198e-05,-0.00308222,6.87633,9.05027,0.0460771,4.60509,9.15378,6.87531,-0.0564044,8.30865,213,0.853224,5.46391,0.45,11324
1.1225e-06,2.1131e-07,-2.70669e-06,-0.000839777,-5.98797e-05,-0.00308443,6.6069,8.93496,-0.0935383,4.59075,9.01145,6.60693,-0.170054,8.24649,213,0.853224,4.97641,0.4675,11325
3.02901e-08,5.32808e-09,-2.73486e-06,-3.12942e-05,-2.5762e-05,-0.00350441,10.3607,10.3772,-0.00682235,5.19201,10.3772,10.3607,-0.00682376,10.3758,213,9.03775,10.1563,0.45,11326
4.70635e-08,2.99959e-08,-2.73451e-06,-3.16308e-05,-2.81829e-05,-0.00350261,10.3566,10.3669,-0.00449349,5.18576,10.367,10.3565,-0.00449891,10.3663,213,8.50846,9.23405,0.45,11327
-1.31694e-09,1.44307e-08,-2.73484e-06,-2.88333e-05,-2.6774e-05,-0.00350458,10.3721,10.3782,-0.00326795,5.19073,10.3782,10.3721,-0.00326831,10.3784,213,10.0954,9.82548,0.45,11328
1.44247e-08,3.99346e-08,-2.73456e-06,-2.90922e-05,-2.92315e-05,-0.00350361,10.3658,10.3653,-0.00594104,5.18598,10.366,10.3651,-0.00594439,10.3715,213,9.56607,8.90322,0.45,11329
-4.048e-08,1.19898e-06,-2.65464e-06,-2.82745e-05,-0.000860615,-0.00308215,9.07068,6.58608,-0.0453568,4.66993,9.18267,6.58593,-0.1572,8.35003,213,11.4586,0.813717,0.45,11330
-5.18933e-08,7.4529e-07,-2.75176e-06,-2.82086e-05,-0.000247933,-0.0033821,10.063,9.40706,0.0513446,5.01803,10.0758,9.4058,0.039779,9.71837,213,11.9444,1.62743,0.45,11331
-2.57141e-08,6.76055e-07,-2.75132e-06,-2.90221e-05,-0.000206682,-0.00341628,10.0804,9.55005,-0.0308319,5.06272,10.0879,9.54922,-0.0375191,9.86712,213,10.9972,1.87551,0.45,11332
-1.59367e-07,1.53542e-09,-2.72369e-06,-6.17936e-05,-2.42742e-05,-0.00348569,10.237,10.349,0.0163742,5.16635,10.349,10.237,0.0163428,10.2771,213,14.0966,10.3378,0.45,11333
-1.12699e-07,8.34942e-09,-2.72971e-06,-5.00216e-05,-2.47145e-05,-0.00349301,10.2849,10.3604,0.00728445,5.17658,10.3604,10.2849,0.00726368,10.3156,213,13.2568,10.0633,0.45,11334
-6.73118e-08,1.19914e-06,-2.65407e-06,-3.454e-05,-0.000939679,-0.00305289,8.87414,6.17223,-0.135854,4.59769,8.96705,6.1718,-0.228333,8.16487,213,12.3813,0.813717,0.45,11335
-5.24047e-08,1.19003e-06,-2.59957e-06,-2.94456e-05,-0.000902227,-0.00306969,8.97101,6.36569,-0.104333,4.65212,9.08543,6.36574,-0.218809,8.28619,213,11.9199,0.813717,0.4325,11336
-7.71207e-07,1.4656e-07,-2.72597e-06,-0.000287609,-5.44227e-05,-0.00334146,9.20855,9.90462,0.0925831,4.90921,9.91029,9.20358,0.0918754,9.48483,213,18.61,5.95405,0.45,11337
-1.11044e-06,1.80809e-07,-2.64964e-06,-0.000841731,-5.88358e-05,-0.0030688,6.64775,8.98475,-0.000207432,4.56016,9.05284,6.64694,-0.0674859,8.18695,213,19.2584,5.47658,0.45,11338
1.15456e-06,-1.44977e-07,-2.70579e-06,-0.000857581,-3.93141e-05,-0.00307248,6.60041,9.04299,-0.0112293,4.6124,9.12832,6.60033,-0.0964768,8.25636,213,0.84159,14.5079,0.4675,11339
1.12853e-06,-1.26549e-07,-2.65783e-06,-0.000805478,-4.67092e-05,-0.00308776,6.84926,9.11424,0.0364673,4.63607,9.212,6.84812,-0.0601483,8.3452,213,0.84159,14.0204,0.45,11340
-1.15703e-06,-1.44831e-07,-2.70123e-06,-0.000860821,-3.81819e-05,-0.00305731,6.63217,9.08781,0.075489,4.59291,9.17465,6.63199,-0.0111749,8.21511,213,19.2584,14.5079,0.4675,11341
-1.13556e-06,-1.2694e-07,-2.65049e-06,-0.000811889,-4.20002e-05,-0.00307883,6.85305,9.15123,0.0860593,4.61796,9.23727,6.85172,0.00134991,8.30423,213,19.2584,14.0204,0.45,11342
4.49647e-07,1.88763e-07,-2.71553e-06,-0.000168978,-6.53435e-05,-0.00341738,9.66348,9.97283,-0.0332481,5.00416,9.97453,9.66232,-0.0337918,9.85593,213,2.83621,5.17731,0.45,11343
4.86493e-07,2.60386e-07,-2.72128e-06,-0.000180013,-8.98586e-05,-0.00339147,9.59998,9.86909,0.0135457,4.93038,9.87367,9.59605,0.0129008,9.72493,213,2.55047,4.2469,0.45,11344
3.15079e-07,1.85652e-07,-2.70945e-06,-0.000102776,-6.35624e-05,-0.00344399,9.99233,10.1094,0.0185598,5.047,10.1124,9.98957,0.0183578,10.0332,213,3.86597,5.2768,0.45,11345
3.3763e-07,2.56465e-07,-2.70767e-06,-0.000110054,-9.03777e-05,-0.00343028,9.90594,9.96468,-0.00517604,4.98946,9.97347,9.89743,-0.00545817,9.94113,213,3.58023,4.34639,0.45,11346
-1.101e-06,2.08353e-07,-2.59174e-06,-0.000823003,-5.94596e-05,-0.00310202,6.6557,8.93493,-0.147347,4.61326,9.00705,6.6557,-0.219464,8.30437,213,19.2584,4.98908,0.4325,11347
4.12269e-08,-5.06654e-07,-2.75246e-06,-2.41926e-05,-0.000165987,-0.00341682,10.2375,9.8142,0.110235,5.07101,10.2453,9.81327,0.103323,9.93303,213,8.29761,17.8772,0.45,11348
4.04891e-08,-8.85696e-07,-2.65266e-06,-2.32181e-05,-0.000836126,-0.00312722,9.03653,6.60994,-0.229134,4.75093,9.15462,6.60995,-0.347232,8.51948,213,8.25108,18.6886,0.4325,11349
-4.19409e-08,-5.14008e-07,-2.7498e-06,-1.90355e-05,-0.00016455,-0.00342528,10.2469,9.81255,0.0790163,5.09118,10.2542,9.81239,0.0718605,9.96879,213,11.8024,17.8772,0.45,11350
-3.97275e-08,-9.29991e-07,-2.75566e-06,-1.7568e-05,-0.000872817,-0.00307278,9.12761,6.57463,0.00759176,4.6995,9.26711,6.57462,-0.131893,8.38356,213,11.8489,18.6886,0.4675,11351
-5.3603e-08,-2.8458e-08,-2.73442e-06,-3.30454e-05,-2.72748e-05,-0.00350192,10.353,10.3702,-0.00188673,5.18615,10.3704,10.3528,-0.0018915,10.3635,213,11.8115,11.4929,0.45,11352
-7.14517e-08,-6.01832e-08,-2.7333e-06,-3.79569e-05,-3.18114e-05,-0.00349732,10.3229,10.3413,-0.00352962,5.17264,10.3417,10.3225,-0.00353778,10.3357,213,12.3429,12.5749,0.45,11353
-4.12148e-08,-5.60576e-08,-2.73414e-06,-3.06305e-05,-3.14572e-05,-0.00350058,10.3589,10.3564,0.000800182,5.17963,10.3601,10.3553,0.000795115,10.3569,213,11.4586,12.4381,0.45,11354
1.65631e-08,5.03811e-07,-2.72453e-06,-2.58073e-05,-0.000177769,-0.00343848,10.1214,9.66782,-0.0656612,5.09499,10.1229,9.66767,-0.0670427,9.97014,213,9.40811,2.63622,0.45,11355
7.86595e-10,4.14605e-07,-2.71411e-06,-2.4633e-05,-0.00014788,-0.00345622,10.1672,9.79932,-0.076313,5.12233,10.1678,9.79933,-0.0768856,10.0655,213,10.0494,3.2101,0.45,11356
1.66805e-08,3.46169e-07,-2.70999e-06,-2.56318e-05,-0.00011467,-0.00346581,10.236,9.9702,-0.0331905,5.13476,10.2362,9.9702,-0.0333565,10.1392,213,9.40752,3.72273,0.45,11357
3.35796e-08,4.17249e-07,-2.71693e-06,-2.72669e-05,-0.000137051,-0.00344957,10.2064,9.87871,-0.00941318,5.10827,10.2068,9.87866,-0.00975438,10.0565,213,8.76622,3.14885,0.45,11358
3.81292e-07,1.37608e-07,-2.7139e-06,-0.000129191,-5.05344e-05,-0.00344795,9.85845,10.0932,-0.0483004,5.07122,10.0939,9.858,-0.0485488,10.0266,213,3.33592,6.08393,0.45,11359
5.52866e-07,1.40116e-07,-2.73141e-06,-0.000207608,-5.29735e-05,-0.0033998,9.52065,9.98224,-0.00827723,4.99794,9.98493,9.52062,-0.0109401,9.77199,213,2.30616,5.98443,0.45,11360
4.55259e-07,9.9134e-08,-2.72995e-06,-0.000167291,-3.83853e-05,-0.00347002,9.5924,9.9772,-0.2665,5.12187,9.97722,9.59239,-0.266512,10.0568,213,2.80587,6.89105,0.45,11361
4.68574e-07,-7.57124e-07,-2.77997e-06,-0.000199524,-0.000708875,-0.00308313,8.49447,6.97402,-0.113322,4.35766,8.54795,6.97458,-0.167361,8.04486,213,2.23169,18.5375,0.4675,11362
4.66039e-07,-7.35074e-07,-2.67189e-06,-0.000195015,-0.000687871,-0.00309355,8.55582,7.08461,-0.096524,4.41156,8.64096,7.0851,-0.182156,8.15724,213,2.23169,18.5375,0.4325,11363
6.0188e-07,-4.02894e-07,-2.76215e-06,-0.000234513,-0.000103114,-0.00335462,9.33924,9.73148,0.0254749,4.86231,9.74055,9.33972,0.015922,9.53054,213,1.79521,17.5749,0.45,11364
5.67713e-07,-7.45946e-07,-2.73544e-06,-0.000248849,-0.000668159,-0.00305806,8.39946,7.14779,0.0137614,4.30444,8.51611,7.13768,-0.0927773,8.00914,213,1.77033,18.5375,0.45,11365
-5.27892e-08,1.22823e-06,-2.706e-06,-2.97568e-05,-0.0009366,-0.00303092,8.98301,6.27601,0.0242985,4.60411,9.10775,6.27603,-0.100467,8.16914,213,11.9199,0.813717,0.4675,11366
-3.15774e-07,1.85787e-07,-2.7105e-06,-0.000103908,-6.27252e-05,-0.00344722,9.97775,10.1007,-0.00228802,5.05285,10.1032,9.97547,-0.002498,10.0424,213,16.234,5.2768,0.45,11367
1.543e-08,-3.26977e-07,-2.72919e-06,-2.502e-05,-0.000121034,-0.00346974,10.2071,9.92048,-0.0756557,5.14169,10.2074,9.92045,-0.0759557,10.1429,213,9.4209,16.7877,0.45,11368
1.67796e-08,-2.15012e-07,-2.72153e-06,-2.60612e-05,-7.67429e-05,-0.00347748,10.3166,10.1653,0.0138398,5.15144,10.3167,10.1653,0.0137787,10.228,213,9.4209,15.63,0.45,11369
3.25815e-08,-2.63547e-07,-2.72255e-06,-2.60898e-05,-9.09801e-05,-0.00346729,10.3036,10.1099,0.0313606,5.13635,10.3039,10.1098,0.0311889,10.177,213,8.79179,16.1989,0.45,11370
-1.52744e-08,-3.26522e-07,-2.73039e-06,-2.63508e-05,-0.000116195,-0.00346829,10.2188,9.95065,-0.0555988,5.13764,10.2193,9.95046,-0.0559415,10.1435,213,10.6794,16.7874,0.45,11371
-3.27427e-08,-2.61531e-07,-2.72544e-06,-2.76327e-05,-8.91085e-05,-0.00346812,10.2974,10.1139,0.0272585,5.13533,10.2978,10.1137,0.0270871,10.1799,213,11.3088,16.1984,0.45,11372
-1.57542e-08,-2.14515e-07,-2.7238e-06,-2.7247e-05,-7.60535e-05,-0.00347535,10.3182,10.1725,0.0253747,5.14645,10.3182,10.1725,0.025338,10.2208,213,10.6794,15.6297,0.45,11373
1.08954e-06,2.10652e-07,-2.59881e-06,-0.000812405,-5.98876e-05,-0.00310876,6.69823,8.94455,-0.156551,4.62892,9.0229,6.69827,-0.234943,8.34209,213,0.853224,4.97641,0.4325,11374
6.59119e-07,1.96439e-07,-2.74527e-06,-0.000182052,-5.76068e-05,-0.00341694,9.60892,9.9804,-0.0474591,5.01766,9.98446,9.60825,-0.0508523,9.8526,213,1.80645,5.07781,0.45,11375
-1.89707e-07,-2.9897e-08,-2.72503e-06,-6.81058e-05,-2.64072e-05,-0.00348541,10.1923,10.3167,-0.00864743,5.16289,10.3171,10.1919,-0.00868023,10.2638,213,14.6242,11.5941,0.45,11376
-2.1147e-08,4.79101e-07,-2.72289e-06,-2.78688e-05,-0.000171979,-0.00343108,10.1506,9.72042,-0.00822943,5.07992,10.1511,9.72041,-0.00873645,9.95149,213,10.872,2.78532,0.45,11377
-4.8043e-08,5.25462e-07,-2.72662e-06,-2.9002e-05,-0.000202273,-0.00341308,10.1046,9.5874,0.00290697,5.05226,10.106,9.58735,0.00151402,9.85542,213,11.8192,2.53724,0.45,11378
5.31868e-07,-2.79811e-08,-2.74046e-06,-0.000187004,-2.54529e-05,-0.00351158,9.38023,9.86248,-0.543886,5.20321,9.86253,9.38018,-0.543888,10.1738,213,2.43966,11.4968,0.45,11379
4.10285e-07,-3.65421e-08,-2.72514e-06,-0.000137623,-2.62396e-05,-0.00348858,9.75473,10.0872,-0.248119,5.16833,10.0879,9.75463,-0.248733,10.1741,213,3.17048,11.829,0.45,11380
3.78419e-07,-1.96934e-08,-2.7167e-06,-0.00011791,-2.28769e-05,-0.00342917,10.0752,10.3589,0.190816,5.08582,10.3611,10.0744,0.18945,10.0314,213,3.47992,11.1444,0.45,11381
4.81441e-07,-1.18317e-08,-2.73286e-06,-0.000156681,-2.23975e-05,-0.00351876,9.55385,9.95469,-0.482222,5.21868,9.9551,9.55347,-0.482254,10.2424,213,2.7491,10.8122,0.45,11382
-2.56345e-07,3.26741e-07,-2.69887e-06,-8.98403e-05,-0.000112451,-0.00342462,9.97832,9.91083,0.0237441,4.98131,9.98618,9.90314,0.0235723,9.92135,213,15.7761,3.70608,0.45,11383
-2.55072e-07,4.4025e-07,-2.70357e-06,-8.92365e-05,-0.000148587,-0.00341677,9.89234,9.71518,-0.0405956,4.96822,9.89501,9.71335,-0.041436,9.84687,213,15.8247,2.83066,0.45,11384
-1.79239e-07,4.07676e-07,-2.70452e-06,-6.16532e-05,-0.000135465,-0.00344241,10.0225,9.80212,-0.0693613,5.04743,10.0249,9.80026,-0.069931,9.98442,213,14.7952,3.12075,0.45,11385
-1.79718e-07,3.03749e-07,-2.705e-06,-6.26224e-05,-0.000103771,-0.00344126,10.1207,9.99784,0.0351817,5.0441,10.1234,9.99518,0.0351688,10.0247,213,14.7466,3.99617,0.45,11386
7.46415e-07,7.20975e-07,-2.7659e-06,-0.000392041,-0.000379303,-0.00314668,8.15293,8.19096,-0.0698801,4.1668,8.23547,8.13666,-0.0981215,8.28463,213,1.31519,1.44693,0.45,11387
1.39867e-06,7.43592e-07,-2.57394e-06,-0.00108261,-0.000349252,-0.00280105,5.09284,7.28196,-0.0368365,4.00056,7.61596,5.10716,-0.385155,7.08793,213,0.367583,1.45939,0.45,11388
9.87771e-07,9.51857e-07,-2.6887e-06,-0.000548634,-0.000521352,-0.00297655,7.2779,7.35934,0.0303866,3.8439,7.54462,7.26619,-0.143185,7.55244,213,0.835166,0.968771,0.45,11389
-4.42611e-08,3.8101e-07,-2.71707e-06,-2.92925e-05,-0.000123698,-0.0034439,10.2543,9.97249,0.0614474,5.09669,10.2546,9.97246,0.0611984,10.0553,213,11.694,3.44705,0.45,11390
-2.12439e-08,3.29571e-07,-2.7144e-06,-2.73728e-05,-0.000109867,-0.00345483,10.2753,10.0291,0.0440904,5.11571,10.2754,10.0291,0.0439849,10.1105,213,10.8714,3.87183,0.45,11391
3.61023e-07,3.50141e-07,-2.70144e-06,-0.000115212,-0.00011271,-0.00341575,9.84943,9.85689,-0.00294072,4.94257,9.88188,9.82477,-0.00326722,9.85671,213,3.29449,3.41598,0.45,11392
-6.22012e-07,-5.77685e-08,-2.73567e-06,-0.000279499,-3.12559e-05,-0.00339456,9.16352,9.90455,-0.135161,5.02205,9.90707,9.16288,-0.137038,9.69346,213,18.0232,12.5515,0.45,11393
2.58531e-07,3.17705e-07,-2.70407e-06,-9.1239e-05,-0.00010503,-0.0034301,9.97589,9.93472,0.00913896,4.98884,9.98664,9.92416,0.00895131,9.94659,213,4.30697,3.779,0.45,11394
2.54073e-07,4.38452e-07,-2.70222e-06,-8.97142e-05,-0.000157309,-0.00340677,9.89347,9.6917,-0.00817539,4.95358,9.89793,9.68828,-0.00922066,9.80401,213,4.27799,2.84382,0.45,11395
-2.8204e-07,-7.99052e-07,-2.70055e-06,-7.96914e-05,-0.000843622,-0.00307409,8.83358,6.55319,-0.104916,4.55581,8.92087,6.55172,-0.190743,8.18826,213,16.5194,18.6504,0.45,11396
2.79318e-07,-8.15468e-07,-2.69833e-06,-7.78002e-05,-0.000815442,-0.00305416,8.9978,6.79588,0.113138,4.60425,9.16129,6.79274,-0.0472126,8.28226,213,3.58056,18.6504,0.45,11397
4.6205e-07,-1.21919e-07,-2.71969e-06,-0.000170538,-4.52091e-05,-0.00342824,9.68329,10.0574,-0.0412019,5.05035,10.0586,9.68293,-0.0420721,9.91819,213,2.82458,14.307,0.45,11398
4.99799e-07,-1.71693e-07,-2.7254e-06,-0.00018379,-5.99185e-05,-0.00341415,9.59975,9.96952,-0.0431033,5.00834,9.97236,9.59813,-0.0443255,9.83491,213,2.53883,15.2374,0.45,11399
3.21883e-07,-1.18534e-07,-2.71537e-06,-0.000106416,-4.31501e-05,-0.00344983,10.0161,10.205,0.0357644,5.08519,10.206,10.0153,0.0355753,10.0764,213,3.86597,14.2232,0.45,11400
3.44386e-07,-1.65821e-07,-2.70866e-06,-0.000114762,-5.98358e-05,-0.0034422,9.93603,10.1,0.00337582,5.04977,10.1027,9.93346,0.00320329,10.016,213,3.58023,15.1536,0.45,11401
-6.85085e-08,-1.89853e-07,-2.72572e-06,-3.53495e-05,-6.93092e-05,-0.00348065,10.273,10.1716,-0.0115052,5.14262,10.2737,10.171,-0.0115566,10.2343,213,12.4083,15.3183,0.45,11402
-7.74045e-08,-1.40159e-07,-2.72819e-06,-3.82426e-05,-5.14451e-05,-0.00348577,10.2955,10.2561,0.00441416,5.14598,10.2964,10.2553,0.00438832,10.2715,213,12.5906,14.4991,0.45,11403
-1.10968e-07,-1.45953e-07,-2.72631e-06,-4.57167e-05,-5.32885e-05,-0.00348095,10.259,10.2364,0.00454584,5.12876,10.262,10.2334,0.00449078,10.2433,213,13.4078,14.6396,0.45,11404
-9.97343e-08,-1.97417e-07,-2.72354e-06,-4.24195e-05,-7.12321e-05,-0.00347681,10.2355,10.1495,-0.0164304,5.12671,10.2369,10.1481,-0.0164932,10.2093,213,13.2254,15.4588,0.45,11405
4.72872e-10,2.85202e-07,-2.71305e-06,-2.50846e-05,-9.2623e-05,-0.00346624,10.3079,10.1063,0.0358152,5.13609,10.308,10.1063,0.0357825,10.1728,213,10.0488,4.29662,0.45,11406
-6.72615e-07,-1.3059e-07,-2.74937e-06,-0.000194017,-3.5668e-05,-0.00341012,9.62648,10.0992,0.02618,5.0428,10.1063,9.62495,0.0206595,9.85376,213,18.3168,14.3938,0.45,11407
-1.12272e-06,-1.4467e-07,-2.594e-06,-0.000832538,-3.84335e-05,-0.00309087,6.69906,9.06952,-0.0422182,4.64213,9.15583,6.69897,-0.128437,8.33208,213,19.2584,14.5109,0.4325,11408
6.39903e-07,1.01309e-07,-2.7327e-06,-0.000280284,-3.97265e-05,-0.00335505,9.25713,9.97521,0.0787178,4.95536,9.98233,9.25712,0.0716071,9.56875,213,2.00133,6.848,0.45,11409
9.09513e-07,1.0549e-07,-2.71364e-06,-0.000403932,-4.01502e-05,-0.00327942,8.7344,9.82032,0.150856,4.84946,9.83513,8.73423,0.136215,9.19801,213,1.19679,6.80494,0.45,11410
7.68898e-07,1.46207e-07,-2.73329e-06,-0.000291201,-5.5827e-05,-0.00332437,9.23616,9.93877,0.18193,4.88703,9.94893,9.23307,0.174859,9.43653,213,1.50162,5.94138,0.45,11411
1.38868e-07,6.68369e-07,-2.7432e-06,-4.74322e-05,-0.000247572,-0.00335983,10.0164,9.41894,0.128626,4.96204,10.0384,9.41127,0.114308,9.62585,213,5.96452,1.83843,0.45,11412
1.73109e-07,9.66014e-07,-2.71247e-06,-7.30594e-05,-0.000653219,-0.00320326,9.06861,7.33679,-0.275262,4.68814,9.08482,7.33679,-0.29147,8.63599,213,5.34892,1.13583,0.45,11413
1.09109e-07,8.27466e-07,-2.74861e-06,-3.05823e-05,-0.000335235,-0.0033359,9.91798,9.00857,0.0513669,4.95143,9.93611,9.00854,0.033264,9.47318,213,6.66755,1.40522,0.45,11414
1.25893e-07,1.26701e-06,-2.6252e-06,-3.89722e-05,-0.000921517,-0.00305149,8.90888,6.27442,-0.083716,4.67471,9.08748,6.27405,-0.261947,8.30802,213,6.05196,0.702609,0.45,11415
3.84673e-07,-8.38409e-08,-2.7181e-06,-0.000130584,-3.5876e-05,-0.00344337,9.91088,10.1936,0.0219651,5.08614,10.194,9.9108,0.0216855,10.0337,213,3.36351,13.3684,0.45,11416
5.60185e-07,-8.6295e-08,-2.72824e-06,-0.000208414,-3.82153e-05,-0.00341271,9.52153,10.0296,-0.0435366,5.03858,10.0316,9.52149,-0.0455261,9.83202,213,2.32211,13.4522,0.45,11417
4.52036e-07,-5.55533e-08,-2.72787e-06,-0.000155901,-2.78773e-05,-0.00348673,9.64287,10.025,-0.299902,5.16271,10.0253,9.64278,-0.300118,10.1396,213,2.86104,12.5136,0.45,11418
6.77187e-07,-1.3075e-07,-2.75227e-06,-0.000193179,-3.70124e-05,-0.00341455,9.6133,10.0795,-0.00274594,5.04609,10.0849,9.61242,-0.00726841,9.86442,213,1.78318,14.3908,0.45,11419
3.6639e-07,-2.28224e-07,-2.70668e-06,-0.000122195,-7.53952e-05,-0.00343011,9.87925,10.0189,0.00486256,5.00965,10.0238,9.87471,0.00449722,9.9456,213,3.29449,16.084,0.45,11420
-2.38538e-07,2.3824e-07,-2.71108e-06,-8.50156e-05,-8.45407e-05,-0.0034395,10.0494,10.0508,0.0359894,5.01795,10.0718,10.0286,0.035855,10.0144,213,15.4903,4.63649,0.45,11421
1.12048e-06,-1.44664e-07,-2.59827e-06,-0.000828534,-3.9515e-05,-0.00309941,6.69317,9.04845,-0.0855741,4.65139,9.13284,6.69316,-0.16995,8.35452,213,0.84159,14.5079,0.4325,11422
-2.54483e-07,-2.87289e-07,-2.70869e-06,-9.12147e-05,-0.000105563,-0.00342858,9.97915,9.93632,0.0168545,4.98763,9.99166,9.92428,0.0163895,9.94175,213,15.8271,16.65,0.45,11423
-3.66496e-07,-2.28972e-07,-2.70517e-06,-0.000122242,-7.56444e-05,-0.00343011,9.87817,10.0173,0.00393203,5.00987,10.0233,9.87249,0.00358147,9.94519,213,16.8055,16.084,0.45,11424
-2.64295e-07,-2.06221e-07,-2.70654e-06,-9.39473e-05,-7.07661e-05,-0.00344938,10.0067,10.0759,-0.00951409,5.04612,10.0826,10.0001,-0.00961919,10.0512,213,15.8091,15.7295,0.45,11425
1.29325e-07,3.4807e-07,-2.71178e-06,-5.06926e-05,-0.000117357,-0.00345487,10.1079,9.90887,-0.0538393,5.08132,10.1088,9.90803,-0.0538685,10.0638,213,6.23128,3.63012,0.45,11426
1.28131e-07,4.80246e-07,-2.71837e-06,-5.01048e-05,-0.000163704,-0.00342239,10.0675,9.72839,0.000967975,5.03473,10.0692,9.72791,-0.000255403,9.90322,213,6.20229,2.69494,0.45,11427
8.75488e-08,4.16434e-07,-2.72009e-06,-3.89561e-05,-0.000137901,-0.00343313,10.1839,9.88855,0.0520489,5.06642,10.1845,9.88842,0.0516159,9.98812,213,7.1431,3.11822,0.45,11428
4.00701e-08,1.19599e-06,-2.65137e-06,-2.57712e-05,-0.000852457,-0.00308118,9.11504,6.64732,-0.00557369,4.68103,9.23621,6.64643,-0.125856,8.37315,213,8.67112,0.818111,0.45,11429
-2.54081e-07,3.93395e-08,-2.71281e-06,-8.62077e-05,-2.82468e-05,-0.00346263,10.1472,10.3202,0.068343,5.12669,10.3215,10.146,0.0681722,10.1667,213,15.4092,8.79208,0.45,11430
-2.67435e-07,6.04274e-08,-2.71714e-06,-8.86225e-05,-3.07837e-05,-0.00347175,10.0954,10.268,-0.00354038,5.13701,10.2704,10.0931,-0.00361001,10.1865,213,15.6495,8.06896,0.45,11431
-3.24692e-07,-7.95932e-07,-2.64859e-06,-0.00011147,-0.000768882,-0.00307281,8.87901,6.91659,0.039184,4.55852,9.01743,6.91697,-0.0996119,8.26936,213,16.9808,18.6504,0.4325,11432
3.23341e-07,-8.34188e-07,-2.75594e-06,-0.000119803,-0.000773229,-0.0030857,8.77304,6.82251,-0.0804029,4.49895,8.84524,6.82257,-0.15266,8.1764,213,3.1192,18.6504,0.4675,11433
2.55227e-07,-2.86294e-07,-2.70996e-06,-9.19014e-05,-9.96931e-05,-0.00343264,9.98069,9.95743,0.00834693,4.9959,9.99987,9.93854,0.00806129,9.96128,213,4.27287,16.65,0.45,11434
1.81755e-07,-2.61444e-07,-2.71304e-06,-6.4434e-05,-9.14325e-05,-0.00345509,10.1048,10.0242,-0.016551,5.06468,10.1125,10.0167,-0.0168121,10.0818,213,5.26944,16.2957,0.45,11435
1.38299e-07,2.50904e-07,-2.71864e-06,-5.35068e-05,-8.67578e-05,-0.0034614,10.1669,10.0676,-0.0059759,5.08714,10.1682,10.0664,-0.00607192,10.1238,213,6.09265,4.57835,0.45,11436
1.02386e-07,2.18844e-07,-2.72247e-06,-4.268e-05,-7.50708e-05,-0.00346922,10.2458,10.1491,0.0173282,5.11478,10.2468,10.1481,0.0172708,10.1806,213,6.86584,5.01467,0.45,11437
9.44312e-08,3.03815e-07,-2.71741e-06,-4.10231e-05,-0.000103546,-0.00345685,10.2049,10.0183,0.00839021,5.09864,10.2055,10.0179,0.00820307,10.1048,213,7.00447,4.06644,0.45,11438
2.40081e-07,-4.63827e-08,-2.72256e-06,-8.0176e-05,-2.89322e-05,-0.00347244,10.1511,10.304,0.0249202,5.13969,10.3042,10.1509,0.0248701,10.2036,213,4.77873,12.2037,0.45,11439
2.41347e-07,2.31601e-07,-2.71393e-06,-8.59501e-05,-8.12519e-05,-0.00344559,10.0347,10.0487,0.00593538,5.02859,10.063,10.0206,0.00579496,10.036,213,4.59271,4.70941,0.45,11440
4.3595e-07,4.46553e-09,-2.72325e-06,-0.000141856,-2.37365e-05,-0.00349807,9.70652,10.0591,-0.312015,5.18619,10.0597,9.70652,-0.312643,10.2004,213,3.0774,10.115,0.45,11441
3.51313e-07,3.19591e-08,-2.71137e-06,-0.000110276,-2.66286e-05,-0.00345336,10.0336,10.2833,0.054208,5.11625,10.2853,10.033,0.0527798,10.1087,213,3.73054,9.04787,0.45,11442
3.12211e-07,1.41849e-08,-2.70553e-06,-0.000104404,-2.37474e-05,-0.00337686,10.3215,10.5623,0.552962,5.00966,10.5673,10.3214,0.548004,9.89867,213,4.13654,9.75,0.45,11443
2.36517e-07,-2.69531e-08,-2.72038e-06,-8.21288e-05,-2.57649e-05,-0.00347029,10.1559,10.3242,0.041981,5.14125,10.3244,10.1558,0.0419066,10.1992,213,4.85128,11.484,0.45,11444
1.84818e-07,-3.14735e-08,-2.72697e-06,-6.75886e-05,-2.63911e-05,-0.00348624,10.1928,10.3158,-0.0120994,5.16402,10.3159,10.1927,-0.0121315,10.267,213,5.54494,11.6557,0.45,11445
2.32843e-07,-9.18758e-09,-2.71811e-06,-8.2846e-05,-2.39372e-05,-0.00346756,10.1659,10.3418,0.062302,5.13988,10.342,10.1658,0.0622106,10.1928,213,4.92383,10.7643,0.45,11446
1.80967e-07,-1.34779e-08,-2.72561e-06,-6.74689e-05,-2.41153e-05,-0.00348533,10.2037,10.3331,0.00115189,5.16602,10.3332,10.2037,0.00112192,10.2679,213,5.61749,10.9361,0.45,11447
-3.60736e-07,3.50191e-07,-2.70134e-06,-0.000113116,-0.000114235,-0.00341523,9.85915,9.85582,0.00209495,4.94388,9.88956,9.8257,0.00180246,9.85598,213,16.8055,3.41598,0.45,11448
-4.99102e-07,-1.71927e-07,-2.72509e-06,-0.000181917,-5.93706e-05,-0.00341602,9.60707,9.97288,-0.0469676,5.01195,9.9757,9.60548,-0.0482045,9.84402,213,17.5612,15.2404,0.45,11449
-3.44621e-07,-1.66754e-07,-2.70906e-06,-0.000114932,-6.02568e-05,-0.00343768,9.94798,10.1112,0.0293324,5.04241,10.114,9.94527,0.0292087,10.0015,213,16.5198,15.1536,0.45,11450
6.46609e-08,-3.1163e-09,-2.73452e-06,-3.40466e-05,-2.42212e-05,-0.00350134,10.3584,10.3877,0.00822685,5.18976,10.3877,10.3584,0.00821907,10.3649,213,7.98014,10.4872,0.45,11451
3.00146e-08,6.77536e-08,-2.73407e-06,-2.87457e-05,-3.21891e-05,-0.00350076,10.3675,10.3573,0.00331598,5.18226,10.3678,10.357,0.00330846,10.3591,213,9.03678,7.98096,0.45,11452
-8.98524e-07,-6.17727e-08,-2.71133e-06,-0.0003922,-3.57605e-05,-0.00325987,8.88257,9.94656,0.322361,4.83431,9.96884,8.88242,0.300223,9.17379,213,18.8561,12.6158,0.45,11453
-7.7969e-07,-9.87703e-08,-2.73617e-06,-0.000296869,-4.36715e-05,-0.00333351,9.21082,9.96664,0.146216,4.91344,9.97043,9.2097,0.143542,9.46947,213,18.6108,13.5377,0.45,11454
-3.22936e-07,-1.18618e-07,-2.71373e-06,-0.00010859,-4.29155e-05,-0.00345058,10.0011,10.1971,0.0250022,5.08649,10.1978,10.0006,0.0248019,10.0758,213,16.234,14.2232,0.45,11455
-2.77569e-07,-7.78728e-08,-2.72304e-06,-9.67476e-05,-3.52927e-05,-0.00346363,10.0568,10.2402,0.00640354,5.11703,10.2403,10.0568,0.00628082,10.1435,213,15.8192,13.1574,0.45,11456
-2.38275e-07,-1.11478e-07,-2.72247e-06,-8.72447e-05,-4.21384e-05,-0.00346838,10.0785,10.2132,-0.0144236,5.11389,10.2133,10.0784,-0.0144743,10.161,213,15.3855,14.0163,0.45,11457
-4.8997e-08,1.956e-07,-2.72634e-06,-3.01143e-05,-6.73932e-05,-0.00348082,10.3107,10.1994,0.010124,5.15048,10.311,10.1991,0.0100829,10.2454,213,11.7753,5.37035,0.45,11458
-1.55353e-07,1.63148e-07,-2.72523e-06,-5.63166e-05,-5.84333e-05,-0.00347284,10.2031,10.1968,0.00452271,5.10227,10.209,10.191,0.00444604,10.1956,213,14.251,5.77462,0.45,11459
5.75783e-08,-2.64949e-07,-2.72461e-06,-3.27745e-05,-9.14473e-05,-0.0034668,10.2625,10.0874,0.0116983,5.12581,10.2631,10.0869,0.0115304,10.1646,213,7.92452,16.2387,0.45,11460
6.79161e-08,-1.88942e-07,-2.7242e-06,-3.53574e-05,-7.08382e-05,-0.003481,10.267,10.161,-0.0185336,5.14323,10.2679,10.1602,-0.0185953,10.2331,213,7.69362,15.3203,0.45,11461
8.92473e-08,-2.64684e-07,-2.72547e-06,-3.99099e-05,-9.35019e-05,-0.00346097,10.2306,10.0706,0.0184647,5.10647,10.2313,10.0701,0.0183016,10.1333,213,7.05724,16.2785,0.45,11462
-5.79965e-08,-2.63426e-07,-2.72567e-06,-3.2405e-05,-8.93565e-05,-0.00346477,10.2779,10.1079,0.0319904,5.1233,10.2785,10.1075,0.0318644,10.1622,213,12.1759,16.2382,0.45,11463
-8.86594e-08,-2.63786e-07,-2.72344e-06,-3.90062e-05,-8.80158e-05,-0.00346628,10.2367,10.0904,0.00603052,5.11612,10.2381,10.0891,0.00590393,10.1585,213,13.043,16.278,0.45,11464
1.14347e-07,1.27189e-06,-2.56906e-06,-2.80221e-05,-0.000993544,-0.00302241,8.8401,5.95795,-0.0983549,4.62203,8.993,5.95775,-0.251052,8.16132,213,6.51332,0.702609,0.4325,11465
1.14502e-07,1.31506e-06,-2.67358e-06,-2.83634e-05,-0.00103522,-0.00296546,8.88644,5.8809,0.118983,4.54156,9.04435,5.88074,-0.038773,7.986,213,6.51332,0.702609,0.4675,11466
1.82613e-07,2.87544e-07,-2.71254e-06,-6.43465e-05,-9.52497e-05,-0.00344607,10.1218,10.0296,0.0271312,5.04893,10.1249,10.0266,0.0270187,10.0491,213,5.31946,4.14202,0.45,11467
-9.83568e-10,-7.89502e-09,-2.73499e-06,-2.85594e-05,-2.60135e-05,-0.00350533,10.3738,10.3814,-0.00460555,5.193,10.3814,10.3738,-0.00460583,10.3822,213,10.0732,10.6717,0.45,11468
-3.25754e-08,5.14384e-09,-2.73458e-06,-3.14253e-05,-2.62501e-05,-0.00350368,10.3606,10.3761,-0.00433718,5.19022,10.3761,10.3606,-0.00433903,10.3727,213,11.1299,10.1866,0.45,11469
-1.20516e-07,1.30697e-07,-2.72846e-06,-4.85368e-05,-5.04421e-05,-0.00348244,10.2459,10.2402,-0.00451801,5.12752,10.2505,10.2356,-0.00455075,10.2476,213,13.5544,6.39442,0.45,11470
-6.81186e-08,1.437e-07,-2.7303e-06,-3.5528e-05,-5.46854e-05,-0.00348623,10.3005,10.2434,-4.43927e-05,5.15059,10.3011,10.2428,-6.73301e-05,10.2722,213,12.3165,6.19229,0.45,11471
-9.07741e-08,1.03736e-07,-2.73131e-06,-4.07224e-05,-4.20113e-05,-0.00348993,10.297,10.2931,0.000840239,5.15002,10.3008,10.2893,0.000817925,10.2942,213,12.8585,7.01477,0.45,11472
-6.63249e-08,-4.25248e-09,-2.73367e-06,-3.48213e-05,-2.47588e-05,-0.00350053,10.3544,10.3845,0.00905525,5.18775,10.3845,10.3544,0.00904639,10.3604,213,12.1644,10.5477,0.45,11473
-1.07833e-07,-6.40058e-08,-2.73154e-06,-4.46926e-05,-3.25919e-05,-0.00349154,10.2973,10.3335,0.00825057,5.16292,10.3341,10.2968,0.00822825,10.3072,213,13.2271,12.7117,0.45,11474
-4.62455e-07,-1.21332e-07,-2.71798e-06,-0.000169951,-4.61649e-05,-0.00341902,9.71311,10.0826,0.0143891,5.03541,10.0844,9.71222,0.013526,9.89001,213,17.2754,14.307,0.45,11475
9.6389e-08,5.77349e-07,-2.73058e-06,-4.09894e-05,-0.000239783,-0.0034007,9.95111,9.35769,-0.0778858,5.01766,9.95443,9.35738,-0.080895,9.75052,213,6.90532,2.26172,0.45,11476
-6.31105e-08,-5.36517e-07,-2.75028e-06,-3.395e-05,-0.000192748,-0.00341203,10.1077,9.63366,0.0238463,5.05084,10.1166,9.63361,0.014955,9.86904,213,12.6188,17.9757,0.45,11477
-9.46903e-08,-5.68553e-07,-2.75056e-06,-2.96922e-05,-0.000215425,-0.00341147,10.0637,9.50932,-0.0311232,5.06225,10.0785,9.5094,-0.0459975,9.85228,213,13.4352,18.0743,0.45,11478
-9.11915e-08,-3.76681e-07,-2.73193e-06,-4.03004e-05,-0.000173923,-0.00341928,10.1053,9.70643,0.0187899,5.04518,10.1078,9.70527,0.0174408,9.89524,213,13.2391,17.1761,0.45,11479
9.21455e-08,-3.804e-07,-2.73218e-06,-3.91971e-05,-0.000169539,-0.00343713,10.0694,9.68032,-0.0736824,5.07425,10.0729,9.67885,-0.0756585,9.95735,213,6.86105,17.1764,0.45,11480
6.35792e-08,-5.28837e-07,-2.75126e-06,-3.16157e-05,-0.000203251,-0.00340419,10.1136,9.60129,0.046265,5.04252,10.1225,9.60121,0.0374468,9.83477,213,7.48123,17.9758,0.45,11481
9.05578e-08,-5.70826e-07,-2.74514e-06,-3.20581e-05,-0.000229118,-0.00336641,10.1487,9.56044,0.195395,4.99618,10.1699,9.55711,0.177538,9.70049,213,6.66486,18.0743,0.45,11482
4.95944e-07,2.16612e-08,-2.73507e-06,-0.000157179,-2.5644e-05,-0.0034728,9.68626,10.0789,-0.211121,5.14651,10.0805,9.68597,-0.212474,10.1015,213,2.6714,9.4129,0.45,11483
6.77019e-07,2.14825e-08,-2.76577e-06,-0.000248011,-2.42215e-05,-0.00338882,9.39791,10.0659,0.0223571,5.02516,10.0693,9.39786,0.0189971,9.73198,213,1.76935,9.42289,0.45,11484
-1.75127e-07,1.97858e-08,-2.72061e-06,-6.67604e-05,-2.43944e-05,-0.00348458,10.2096,10.336,0.00712656,5.16457,10.3362,10.2094,0.00709525,10.2663,213,14.3492,9.57896,0.45,11485
1.04493e-07,7.00918e-08,-2.73227e-06,-4.3949e-05,-3.52766e-05,-0.00349376,10.2864,10.3123,-0.0115529,5.16223,10.3129,10.2859,-0.0115775,10.311,213,6.95226,7.861,0.45,11486
6.27826e-08,-3.64498e-07,-2.73297e-06,-3.31028e-05,-0.00014836,-0.0034433,10.1545,9.81046,-0.0251885,5.09115,10.1561,9.80986,-0.0261926,10.0137,213,7.67742,17.0778,0.45,11487
3.76882e-08,-3.61494e-07,-2.73258e-06,-2.57183e-05,-0.000146467,-0.00344557,10.1988,9.83834,-0.00973068,5.10522,10.1998,9.83827,-0.0106505,10.0346,213,8.5447,17.0381,0.45,11488
5.29364e-07,-2.29347e-07,-2.72665e-06,-0.000227596,-7.42547e-05,-0.00337686,9.40285,9.86059,0.00207723,4.932,9.86356,9.4024,-0.000439649,9.64169,213,2.35292,16.0694,0.45,11489
7.98692e-07,-2.40773e-07,-2.72404e-06,-0.000273627,-6.5751e-05,-0.0033473,9.24018,9.8607,0.0650453,4.90975,9.87252,9.24039,0.0530126,9.5192,213,1.41135,16.0548,0.45,11490
7.251e-07,-1.77156e-07,-2.73983e-06,-0.000232977,-6.63952e-05,-0.0033708,9.41386,9.91111,0.0472147,4.93904,9.91947,9.41133,0.0413841,9.63407,213,1.59726,15.2228,0.45,11491
-3.83415e-08,-3.59661e-07,-2.73239e-06,-2.55976e-05,-0.000148176,-0.00345581,10.1616,9.79574,-0.0777777,5.12095,10.1629,9.79575,-0.0790377,10.0634,213,11.5556,17.0378,0.45,11492
-6.2498e-08,-3.6433e-07,-2.73138e-06,-3.06291e-05,-0.000150699,-0.00344851,10.1458,9.78739,-0.056817,5.1031,10.148,9.7866,-0.0582102,10.0304,213,12.4227,17.0776,0.45,11493
-8.84349e-07,1.04469e-07,-2.70737e-06,-0.000386283,-4.21856e-05,-0.00326237,8.89068,9.91784,0.305344,4.82703,9.93861,8.8907,0.284555,9.17509,213,18.8537,6.87133,0.45,11494
-5.2883e-07,-2.29159e-07,-2.72616e-06,-0.000227613,-7.3834e-05,-0.00337676,9.40439,9.86343,0.00395099,4.93258,9.86662,9.40369,0.00146007,9.64203,213,17.7471,16.0696,0.45,11495
-7.99015e-07,-2.40423e-07,-2.72548e-06,-0.00027652,-6.48509e-05,-0.00334618,9.22876,9.86061,0.0655954,4.9098,9.87282,9.22892,0.053217,9.51401,213,18.6887,16.055,0.45,11496
-7.24699e-07,-1.76392e-07,-2.74221e-06,-0.000234286,-6.64269e-05,-0.00337172,9.40278,9.90385,0.0373044,4.94066,9.91283,9.39959,0.0315135,9.63495,213,18.5027,15.2258,0.45,11497
2.0658e-08,-4.54743e-07,-2.74863e-06,-2.57792e-05,-0.000122221,-0.00343672,10.3034,10.0155,0.121466,5.09629,10.3095,10.0138,0.116977,10.048,213,9.1738,17.6268,0.45,11498
-2.15766e-08,-4.50498e-07,-2.74876e-06,-2.57371e-05,-0.000113107,-0.00344044,10.3208,10.0599,0.127614,5.10196,10.3282,10.0558,0.124281,10.0705,213,10.9262,17.6268,0.45,11499
1.1032e-07,8.28723e-09,-2.7321e-06,-4.81806e-05,-2.47289e-05,-0.00349595,10.2868,10.3568,-0.00500839,5.18092,10.3568,10.2868,-0.00502029,10.327,213,6.86617,10.0349,0.45,11500
1.32361e-07,3.14681e-08,-2.72991e-06,-5.3623e-05,-2.65808e-05,-0.00349262,10.258,10.3387,-0.007641,5.17323,10.3388,10.2579,-0.00765689,10.3063,213,6.42273,9.12454,0.45,11501
6.3418e-10,-2.66899e-07,-2.72437e-06,-2.42493e-05,-0.000100193,-0.00347631,10.2571,10.0304,-0.0475305,5.15251,10.2573,10.0304,-0.0477207,10.1935,213,10.05,16.2187,0.45,11502
5.05717e-10,-1.75242e-07,-2.72469e-06,-2.56586e-05,-6.08847e-05,-0.00348374,10.3495,10.2444,0.0268779,5.16134,10.3495,10.2444,0.0268551,10.2705,213,10.05,15.061,0.45,11503
7.17349e-08,2.3866e-07,-2.72128e-06,-3.68011e-05,-8.12932e-05,-0.00347099,10.2566,10.1238,0.00531742,5.12592,10.2571,10.1234,0.00525255,10.1856,213,7.62002,4.79212,0.45,11504
4.5936e-08,2.59595e-07,-2.7193e-06,-3.02805e-05,-8.78148e-05,-0.00347568,10.2612,10.0895,-0.0235494,5.14254,10.2615,10.0893,-0.0236194,10.2001,213,8.37419,4.56958,0.45,11505
6.52523e-08,3.30614e-07,-2.7187e-06,-3.5084e-05,-0.000111111,-0.00345949,10.2091,9.98215,-0.0130191,5.1114,10.2096,9.98192,-0.0132476,10.1109,213,7.75864,3.8439,0.45,11506
-1.34182e-07,3.19581e-08,-2.72685e-06,-5.52749e-05,-2.59191e-05,-0.00348974,10.2591,10.3467,0.00694961,5.16997,10.3469,10.259,0.00692011,10.2963,213,13.678,9.12264,0.45,11507
4.17743e-08,5.51845e-07,-2.73287e-06,-2.82536e-05,-0.000219231,-0.00340426,10.0834,9.51335,0.00581454,5.04151,10.0861,9.51336,0.00309614,9.80919,213,8.49059,2.39253,0.45,11508
7.67726e-08,-1.38867e-07,-2.72686e-06,-3.85345e-05,-5.05968e-05,-0.00348487,10.2993,10.2633,0.0117128,5.14441,10.3005,10.2621,0.0116937,10.2697,213,7.51139,14.5009,0.45,11509
7.50144e-08,-9.51324e-08,-2.73099e-06,-3.7503e-05,-4.06029e-05,-0.00349166,10.3158,10.3066,0.00491684,5.15688,10.3187,10.3038,0.00490421,10.3063,213,7.61559,13.5431,0.45,11510
1.09222e-07,-9.96826e-08,-2.72964e-06,-4.65381e-05,-4.19209e-05,-0.00348575,10.2748,10.2885,0.00846662,5.14116,10.2908,10.2726,0.00844046,10.2732,213,6.79698,13.6819,0.45,11511
1.11529e-07,-1.44488e-07,-2.72588e-06,-4.72276e-05,-5.28946e-05,-0.00348038,10.2527,10.2358,0.00450284,5.12526,10.255,10.2336,0.00445872,10.2398,213,6.69277,14.6397,0.45,11512
-1.6633e-07,-5.31138e-08,-2.72857e-06,-6.14219e-05,-3.06695e-05,-0.00348486,10.2216,10.3134,0.00240028,5.15579,10.3139,10.2211,0.00235975,10.2655,213,14.3157,12.4016,0.45,11513
-2.4438e-07,-4.36898e-08,-2.72327e-06,-7.83975e-05,-2.82063e-05,-0.00347801,10.1467,10.2965,-0.00143623,5.14933,10.2972,10.146,-0.00146165,10.2239,213,15.4044,12.0916,0.45,11514
3.93868e-07,5.08807e-08,-2.72119e-06,-0.00012346,-2.82888e-05,-0.00345494,9.94212,10.2262,-0.00259499,5.11593,10.2284,9.94072,-0.00343047,10.0911,213,3.32454,8.34574,0.45,11515
-1.37735e-06,-8.51409e-08,-2.57511e-06,-0.00101398,-3.91448e-05,-0.00301163,5.83101,8.74097,-0.132128,4.57988,8.88433,5.83096,-0.275437,8.07813,213,19.5523,13.1674,0.45,11516
4.91931e-08,-1.33472e-07,-2.72739e-06,-3.01047e-05,-4.9296e-05,-0.00348861,10.3435,10.2862,0.0195929,5.16228,10.3441,10.2856,0.0195867,10.2954,213,8.33001,14.3621,0.45,11517
-7.66485e-08,7.89005e-07,-2.74644e-06,-3.54917e-05,-0.00029846,-0.00333743,9.99952,9.21454,0.142974,4.94467,10.0163,9.21385,0.126926,9.51354,213,12.7161,1.48535,0.45,11518
-9.70369e-08,1.32313e-06,-2.61545e-06,-3.97902e-05,-0.00103547,-0.003005,8.68988,5.7177,-0.161501,4.57129,8.83565,5.71737,-0.306941,8.04993,213,13.1529,0.671629,0.45,11519
-1.05354e-07,8.54858e-07,-2.73646e-06,-3.60452e-05,-0.000372977,-0.00327739,9.9502,8.94443,0.27453,4.86237,9.97462,8.94466,0.249879,9.25285,213,13.4877,1.34326,0.45,11520
-4.92203e-08,-1.3403e-07,-2.72936e-06,-3.14254e-05,-4.99657e-05,-0.00349031,10.3278,10.2725,0.00279558,5.16265,10.3281,10.2723,0.00277263,10.2975,213,11.7735,14.3585,0.45,11521
2.99096e-07,-1.4427e-08,-2.71363e-06,-0.000102313,-2.37762e-05,-0.00344384,10.1218,10.3563,0.147112,5.10532,10.3571,10.1217,0.146451,10.095,213,4.20188,10.9544,0.45,11522
7.52308e-08,7.86416e-07,-2.75321e-06,-3.8992e-05,-0.00029457,-0.00335851,9.92346,9.16054,0.0144475,4.97041,9.93939,9.16049,-0.00142858,9.57516,213,7.44126,1.52072,0.45,11523
1.0075e-07,1.26857e-06,-2.63185e-06,-4.04066e-05,-0.000967801,-0.00303251,8.81345,6.04511,-0.118216,4.6253,8.97372,6.0435,-0.276879,8.18862,213,6.97468,0.702609,0.45,11524
-2.47973e-07,-1.48882e-07,-2.71576e-06,-9.03392e-05,-5.42045e-05,-0.00345864,10.0521,10.16,-0.00252931,5.08231,10.162,10.0502,-0.00261078,10.1092,213,15.5234,14.7991,0.45,11525
-1.87316e-07,-1.85778e-07,-2.71568e-06,-6.77435e-05,-6.34276e-05,-0.00346284,10.1487,10.1615,0.0140502,5.07932,10.1726,10.1376,0.0140019,10.1412,213,14.8127,15.3751,0.45,11526
-1.3502e-06,1.3098e-07,-2.58146e-06,-0.000981956,-4.72158e-05,-0.00300061,6.03754,8.82781,0.0117046,4.61139,9.03117,6.03749,-0.191603,8.14933,213,19.5516,6.32747,0.45,11527
1.32361e-06,-7.92834e-08,-2.60272e-06,-0.000962923,-3.69275e-05,-0.0029893,6.22323,8.9874,0.174353,4.59388,9.17546,6.22183,-0.0123045,8.12414,213,0.596249,13.0984,0.45,11528
2.43193e-08,-1.10944e-07,-2.73043e-06,-2.90301e-05,-4.46875e-05,-0.00349455,10.3458,10.2991,0.000999578,5.17247,10.3459,10.299,0.000984321,10.3216,213,9.19123,13.864,0.45,11529
2.00255e-08,-7.28759e-08,-2.73358e-06,-2.89406e-05,-3.56111e-05,-0.00350003,10.3578,10.3379,-0.0036508,5.18074,10.3578,10.3379,-0.00366228,10.3515,213,9.352,12.9121,0.45,11530
2.81251e-10,-8.99851e-08,-2.73266e-06,-2.74903e-05,-3.9232e-05,-0.00349756,10.3631,10.328,0.00464893,5.17924,10.3631,10.328,0.00463707,10.341,213,10.0525,13.366,0.45,11531
7.21967e-07,-2.84249e-08,-2.75478e-06,-0.00027181,-2.68291e-05,-0.00330729,9.50168,10.233,0.440533,4.90184,10.2406,9.49778,0.436875,9.4542,213,1.65538,11.5135,0.45,11532
2.46965e-07,-1.4877e-07,-2.71434e-06,-8.81106e-05,-5.61248e-05,-0.00345848,10.0603,10.1557,-0.000532481,5.07948,10.1583,10.0577,-0.000610725,10.109,213,4.57679,14.7993,0.45,11533
-1.28525e-07,-4.44008e-07,-2.74275e-06,-4.7222e-05,-0.000159837,-0.00344302,10.0321,9.69593,-0.104602,5.08455,10.0611,9.67033,-0.108005,9.97946,213,14.142,17.6451,0.45,11534
1.28044e-07,-4.36443e-07,-2.74544e-06,-4.97761e-05,-0.000145619,-0.00344238,10.0635,9.77737,-0.0637197,5.08755,10.1099,9.73253,-0.065239,9.99178,213,5.95806,17.6452,0.45,11535
1.79623e-07,5.51006e-07,-2.72348e-06,-6.26523e-05,-0.000157828,-0.00337327,10.1647,9.88057,0.282242,4.96464,10.1889,9.87893,0.259655,9.77796,213,5.26149,2.27165,0.45,11536
6.73326e-08,5.53849e-07,-2.73365e-06,-3.3187e-05,-0.000220594,-0.00340018,10.0617,9.50223,0.0109295,5.02769,10.0641,9.50208,0.00869693,9.78649,213,7.67903,2.37722,0.45,11537
-9.50415e-08,7.11466e-08,-2.7317e-06,-4.23085e-05,-3.54772e-05,-0.00349295,10.2984,10.3188,-0.0020192,5.16099,10.3199,10.2973,-0.00204104,10.3107,213,12.9322,7.84028,0.45,11538
-9.9706e-08,4.48802e-08,-2.73117e-06,-4.44547e-05,-2.75334e-05,-0.00349323,10.3095,10.36,0.0146435,5.17286,10.3603,10.3092,0.0146198,10.3202,213,13.0067,8.66633,0.45,11539
-6.61696e-08,4.57619e-08,-2.73338e-06,-3.65292e-05,-2.77992e-05,-0.00349797,10.3424,10.3685,0.00972733,5.17959,10.3689,10.342,0.00971509,10.3458,213,12.1686,8.66733,0.45,11540
1.63831e-07,-5.48896e-08,-2.72901e-06,-6.23389e-05,-3.10702e-05,-0.00348564,10.2122,10.3056,-0.00657507,5.15624,10.3059,10.212,-0.0066109,10.2659,213,5.83996,12.4639,0.45,11541
1.26984e-07,-3.12504e-07,-2.72508e-06,-5.10052e-05,-0.000101606,-0.00346334,10.129,9.97798,-0.0570468,5.09367,10.1302,9.97694,-0.0571763,10.1116,213,6.15425,16.7472,0.45,11542
-1.26224e-07,-3.08794e-07,-2.72374e-06,-5.15182e-05,-0.000108371,-0.00344368,10.1668,9.99706,0.0409136,5.06403,10.1689,9.99511,0.0408078,10.0423,213,13.9459,16.747,0.45,11543
7.04059e-07,2.58322e-07,-2.74276e-06,-0.000244204,-9.00004e-05,-0.00337057,9.27059,9.7309,-0.061853,4.90403,9.73859,9.27053,-0.0694836,9.58262,213,1.6095,4.26069,0.45,11544
-1.38761e-07,-8.26189e-08,-2.72961e-06,-5.3454e-05,-3.73065e-05,-0.00348493,10.2494,10.2976,0.0061995,5.14597,10.2981,10.2489,0.00616032,10.2674,213,13.8821,13.2606,0.45,11545
-2.2275e-07,1.7489e-07,-2.72e-06,-8.19191e-05,-6.04847e-05,-0.0034607,10.0775,10.1415,-0.00841847,5.07591,10.1433,10.0758,-0.00851127,10.1182,213,15.2425,5.52571,0.45,11546
1.87581e-07,-1.87448e-07,-2.7145e-06,-6.69494e-05,-6.91747e-05,-0.00345853,10.149,10.1423,0.0248341,5.06883,10.1624,10.129,0.0247474,10.121,213,5.28761,15.3753,0.45,11547
1.319e-07,-2.24123e-07,-2.71999e-06,-5.29056e-05,-8.29975e-05,-0.00345505,10.2026,10.1128,0.0469567,5.07855,10.2038,10.1119,0.0466863,10.1115,213,6.17242,15.8269,0.45,11548
-3.29213e-08,7.33211e-08,-2.73385e-06,-2.94471e-05,-3.5594e-05,-0.00349994,10.355,10.3367,-0.00465362,5.17998,10.3553,10.3364,-0.00466387,10.3505,213,11.1798,7.82872,0.45,11549
-3.4342e-09,5.72543e-08,-2.73427e-06,-2.98823e-05,-3.02196e-05,-0.00350253,10.3612,10.3602,-0.00489676,5.1831,10.3613,10.3601,-0.00490125,10.3656,213,10.1836,8.32464,0.45,11550
-3.85106e-08,4.64722e-08,-2.73405e-06,-3.05928e-05,-2.83492e-05,-0.00350142,10.3663,10.373,0.0055677,5.18411,10.3738,10.3655,0.00556187,10.3641,213,11.3305,8.66833,0.45,11551
3.93183e-08,3.30823e-07,-2.71643e-06,-2.86704e-05,-0.000110647,-0.00346904,10.2198,9.97507,-0.0499844,5.13508,10.22,9.97505,-0.0501621,10.1499,213,8.5702,3.85921,0.45,11552
-1.3946e-07,6.65926e-07,-2.75393e-06,-5.31676e-05,-0.000267204,-0.00335297,9.94054,9.30162,0.0903666,4.94049,9.96146,9.29057,0.0804894,9.5632,213,14.1658,1.7943,0.45,11553
-5.1062e-07,3.43055e-07,-2.71409e-06,-0.000217197,-0.000107107,-0.00335736,9.42453,9.75316,0.0509212,4.8538,9.75699,9.42223,0.0493926,9.54462,213,17.7465,3.42977,0.45,11554
3.01049e-08,1.52921e-07,-2.72846e-06,-2.95214e-05,-5.6944e-05,-0.00348703,10.3278,10.2459,0.0068832,5.16053,10.3279,10.2458,0.00685361,10.2803,213,8.97481,6.06899,0.45,11555
4.16717e-08,1.00884e-07,-2.73257e-06,-3.06395e-05,-4.32926e-05,-0.00349427,10.3413,10.3035,0.00208033,5.16972,10.3415,10.3033,0.00206346,10.3204,213,8.61874,7.09905,0.45,11556
5.39392e-08,1.4342e-07,-2.72967e-06,-3.26613e-05,-5.47081e-05,-0.00348604,10.3187,10.2529,0.0100909,5.15447,10.319,10.2526,0.0100562,10.2759,213,8.20069,6.21714,0.45,11557
-1.67833e-07,2.23523e-07,-2.71959e-06,-5.94618e-05,-8.02531e-05,-0.00345694,10.165,10.1029,0.023285,5.07215,10.1675,10.1005,0.0231893,10.111,213,14.4988,4.8854,0.45,11558
1.38542e-07,-1.77035e-08,-2.73047e-06,-5.50165e-05,-2.43077e-05,-0.00349226,10.2578,10.3494,-0.00268055,5.1761,10.3495,10.2577,-0.002711,10.3066,213,6.31115,11.1078,0.45,11559
1.09626e-07,1.01045e-07,-2.73105e-06,-4.49025e-05,-4.14618e-05,-0.00348848,10.2776,10.2879,-0.00171028,5.14599,10.2902,10.2753,-0.00173909,10.2845,213,6.81125,7.05568,0.45,11560
6.53951e-08,8.37866e-08,-2.73319e-06,-3.62537e-05,-3.73029e-05,-0.00349551,10.3218,10.3186,-0.00434677,5.16383,10.3233,10.3171,-0.00436243,10.3246,213,7.92401,7.51832,0.45,11561
-1.33033e-07,5.03653e-07,-2.72384e-06,-5.19464e-05,-0.000170331,-0.00343014,10.0106,9.65718,-0.0735961,5.04324,10.0123,9.65601,-0.0741519,9.91312,213,14.0061,2.54443,0.45,11562
-1.324e-07,3.76185e-07,-2.7077e-06,-5.13081e-05,-0.000129208,-0.00344511,10.0974,9.86488,-0.0333458,5.06576,10.0981,9.8643,-0.033441,10.0167,213,13.9574,3.41985,0.45,11563
-9.54633e-08,4.60708e-07,-2.71927e-06,-3.97928e-05,-0.000162643,-0.00343221,10.1032,9.73647,-0.0234431,5.06385,10.1038,9.73629,-0.0238819,9.94903,213,13.1683,2.84352,0.45,11564
8.83957e-07,-5.9607e-08,-2.72631e-06,-0.000368389,-3.15546e-05,-0.00321525,9.18403,10.1895,0.685948,4.77754,10.2153,9.18406,0.660167,9.08349,213,1.2925,12.5469,0.45,11565
7.6937e-07,-9.33338e-08,-2.74033e-06,-0.000295795,-4.11327e-05,-0.00332963,9.2378,9.99799,0.181575,4.9211,10.0115,9.23666,0.169253,9.47858,213,1.53784,13.4688,0.45,11566
-7.59162e-08,-9.53275e-08,-2.73148e-06,-3.83564e-05,-4.15452e-05,-0.00349205,10.3063,10.2968,-0.00319177,5.15559,10.308,10.2951,-0.00320672,10.3048,213,12.5003,13.5351,0.45,11567
6.95752e-07,-3.04514e-07,-2.74147e-06,-0.000257909,-0.000108013,-0.00336519,9.14615,9.5936,-0.129317,4.86975,9.60895,9.13205,-0.130562,9.51003,213,1.60328,16.8149,0.45,11568
4.68534e-07,-3.00053e-07,-2.72743e-06,-0.000182537,-0.000117216,-0.00338121,9.5302,9.72519,-0.0180725,4.87764,9.73536,9.52188,-0.019922,9.65031,213,2.54485,16.8295,0.45,11569
1.71693e-07,1.92784e-08,-2.72531e-06,-6.35e-05,-2.43702e-05,-0.00348749,10.2205,10.3373,-0.000411115,5.16889,10.3373,10.2205,-0.000428419,10.2798,213,5.75219,9.58275,0.45,11570
1.40761e-07,1.25592e-07,-2.72783e-06,-5.52033e-05,-4.86901e-05,-0.00347932,10.2203,10.2398,-0.000948244,5.12159,10.2422,10.218,-0.00100209,10.2311,213,6.16322,6.48608,0.45,11571
1.53276e-07,8.22936e-08,-2.72835e-06,-5.91592e-05,-3.71872e-05,-0.00348486,10.2149,10.2805,-0.0110649,5.14617,10.2812,10.2142,-0.011102,10.259,213,5.99331,7.487,0.45,11572
1.92993e-07,1.04035e-07,-2.7241e-06,-6.83597e-05,-4.38055e-05,-0.00347347,10.1734,10.2467,0.00884257,5.11944,10.2477,10.1725,0.00878508,10.2015,213,5.34528,6.9174,0.45,11573
1.77719e-07,1.54185e-07,-2.72389e-06,-6.44778e-05,-5.55631e-05,-0.00346874,10.175,10.2016,0.0129956,5.09595,10.2048,10.1719,0.0129154,10.1755,213,5.51519,5.91648,0.45,11574
1.8244e-07,-1.39726e-07,-2.72192e-06,-6.56717e-05,-5.45361e-05,-0.00347132,10.1627,10.1959,-0.00340785,5.10116,10.1989,10.1598,-0.00344611,10.1828,213,5.42577,14.5929,0.45,11575
1.06157e-07,1.51049e-07,-2.72835e-06,-4.37816e-05,-5.76395e-05,-0.0034797,10.261,10.2197,0.0045555,5.12898,10.2625,10.2183,0.00451221,10.2359,213,6.83854,6.03517,0.45,11576
7.67396e-08,1.78559e-07,-2.72696e-06,-3.81326e-05,-6.50449e-05,-0.00347813,10.2773,10.197,0.00869379,5.13458,10.2778,10.1965,0.00864528,10.2288,213,7.53327,5.61591,0.45,11577
2.42826e-07,8.59601e-08,-2.7193e-06,-8.19798e-05,-3.80248e-05,-0.00346943,10.1207,10.2519,0.00884516,5.12171,10.2522,10.1204,0.00881041,10.1781,213,4.70512,7.33032,0.45,11578
2.08543e-07,6.59455e-08,-2.72302e-06,-7.17305e-05,-3.20791e-05,-0.00347869,10.1733,10.2916,0.00323796,5.14438,10.292,10.1729,0.00322224,10.2298,213,5.17538,7.91832,0.45,11579
-6.24829e-08,7.22871e-08,-2.73331e-06,-3.54609e-05,-3.56125e-05,-0.00349718,10.3267,10.3263,-0.00678034,5.16831,10.3298,10.3232,-0.00679532,10.3333,213,12.0941,7.84128,0.45,11580
2.67983e-08,2.06609e-07,-2.72348e-06,-2.84864e-05,-7.32573e-05,-0.00347963,10.3059,10.1723,0.00400735,5.15103,10.306,10.1722,0.00395686,10.2358,213,9.06156,5.24521,0.45,11581
4.99667e-08,1.95033e-07,-2.7251e-06,-3.14121e-05,-7.03342e-05,-0.00347936,10.298,10.1818,0.00563058,5.14634,10.2983,10.1816,0.00557957,10.2348,213,8.28744,5.39336,0.45,11582
-2.76024e-08,1.0637e-07,-2.73318e-06,-2.84923e-05,-4.33285e-05,-0.0034964,10.3476,10.3033,-0.00435684,5.17601,10.3476,10.3033,-0.00437523,10.3299,213,11.0291,6.98911,0.45,11583
-5.61877e-08,1.05308e-07,-2.7328e-06,-3.44813e-05,-4.22437e-05,-0.003494,10.3218,10.2986,-0.00511681,5.16364,10.3221,10.2983,-0.00513797,10.3154,213,11.9434,7.00167,0.45,11584
-2.30221e-08,2.37508e-07,-2.7219e-06,-2.79665e-05,-8.00069e-05,-0.00347593,10.2994,10.1441,0.00700741,5.1463,10.2996,10.144,0.00696225,10.2157,213,10.9121,4.83349,0.45,11585
-4.63617e-08,2.73027e-07,-2.71943e-06,-2.97615e-05,-9.62771e-05,-0.00346746,10.2636,10.0651,0.00186103,5.13103,10.2638,10.065,0.00175005,10.1641,213,11.7346,4.4087,0.45,11586
-1.31716e-07,-2.22226e-07,-2.71922e-06,-5.2664e-05,-7.79143e-05,-0.0034615,10.1998,10.1244,0.0241409,5.0894,10.2028,10.1215,0.0240347,10.1384,213,13.9279,15.8265,0.45,11587
1.4697e-07,5.49816e-08,-2.72925e-06,-5.79846e-05,-3.04743e-05,-0.00348858,10.2316,10.3137,-0.00897254,5.16149,10.314,10.2313,-0.00899881,10.2819,213,6.13432,8.29232,0.45,11588
4.07917e-09,2.17047e-07,-2.72281e-06,-2.57966e-05,-7.59394e-05,-0.00347663,10.3235,10.1738,0.022509,5.15054,10.3235,10.1738,0.0224713,10.227,213,9.89888,5.10873,0.45,11589
-1.00837e-07,6.24055e-07,-2.72585e-06,-4.05118e-05,-0.000267151,-0.00337991,9.93321,9.25667,-0.0351323,4.98812,9.93728,9.25642,-0.0389522,9.65383,213,13.328,2.09339,0.45,11590
2.20129e-08,2.73045e-07,-2.71558e-06,-2.69384e-05,-9.06866e-05,-0.00347454,10.2763,10.086,-0.0150323,5.14572,10.2764,10.086,-0.0150763,10.1976,213,9.21151,4.4331,0.45,11591
-1.94975e-08,1.78758e-07,-2.72858e-06,-2.84027e-05,-6.43827e-05,-0.00348352,10.3222,10.2148,0.00847541,5.15693,10.3223,10.2147,0.00843463,10.2605,213,10.7621,5.6456,0.45,11592
8.00914e-09,1.61895e-07,-2.72842e-06,-2.68666e-05,-5.96279e-05,-0.00348642,10.3376,10.2398,0.0105661,5.16356,10.3376,10.2398,0.0105267,10.2785,213,9.74894,5.92084,0.45,11593
-4.62232e-07,4.47206e-07,-2.70498e-06,-0.0001777,-0.000169402,-0.00335646,9.47296,9.49773,-0.0158772,4.76984,9.52265,9.44918,-0.0170222,9.50315,213,17.5552,2.67053,0.45,11594
-3.51093e-07,1.06715e-07,-2.72308e-06,-0.000119954,-4.25027e-05,-0.00345202,9.9279,10.1591,-0.0185581,5.08905,10.1593,9.92786,-0.018762,10.0644,213,16.5517,6.78016,0.45,11595
-2.9293e-07,1.46827e-07,-2.71568e-06,-0.000100496,-5.31388e-05,-0.00345615,10.0008,10.1422,-0.0160542,5.07931,10.1424,10.0007,-0.0161824,10.0885,213,16.0216,5.97304,0.45,11596
-2.72902e-07,1.13104e-07,-2.7188e-06,-9.01128e-05,-4.49606e-05,-0.00346317,10.0685,10.2032,-0.000367971,5.1019,10.2033,10.0685,-0.000482638,10.1371,213,15.8093,6.66928,0.45,11597
1.3608e-07,1.84031e-07,-2.72473e-06,-5.36432e-05,-6.57145e-05,-0.00347079,10.203,10.167,0.00256614,5.10182,10.2061,10.1639,0.00250329,10.1826,213,6.19051,5.46557,0.45,11598
-1.45547e-07,-1.65128e-07,-2.72232e-06,-5.67128e-05,-5.95086e-05,-0.00347517,10.1899,10.1815,-0.0144784,5.10604,10.1975,10.1739,-0.0145418,10.2003,213,14.1102,15.0073,0.45,11599
1.80305e-07,2.11692e-07,-2.72028e-06,-6.5203e-05,-7.58577e-05,-0.00345892,10.1373,10.1055,0.00679467,5.06776,10.1422,10.1007,0.00670875,10.1148,213,5.41732,5.02925,0.45,11600
1.36811e-06,-6.68165e-08,-2.6558e-06,-0.00101543,-2.62409e-05,-0.00303561,5.78696,8.73977,-0.24341,4.61646,8.86464,5.78697,-0.36829,8.14267,213,0.596249,12.6109,0.4675,11601
1.90102e-07,4.11073e-08,-2.72338e-06,-6.80373e-05,-2.83057e-05,-0.00348213,10.1971,10.3157,0.00573734,5.15506,10.3158,10.197,0.00570809,10.2512,213,5.46379,8.75053,0.45,11602
9.73024e-08,-1.04075e-08,-2.73336e-06,-4.45059e-05,-2.40814e-05,-0.00349747,10.3067,10.3677,-0.000662033,5.18421,10.3677,10.3067,-0.00067734,10.338,213,7.14565,10.7975,0.45,11603
-1.33772e-07,2.93227e-07,-2.71451e-06,-5.2249e-05,-0.000100096,-0.00345349,10.1574,10.0146,0.00441943,5.07696,10.1582,10.0138,0.0043346,10.0825,213,13.9368,4.14126,0.45,11604
-6.78506e-08,3.27786e-07,-2.71833e-06,-3.55455e-05,-0.000112154,-0.00345595,10.2142,9.9855,0.00401191,5.10545,10.2147,9.98517,0.00382576,10.0981,213,12.4105,3.86669,0.45,11605
2.41277e-07,6.11983e-07,-2.74653e-06,-8.00428e-05,-0.00018178,-0.0034403,9.76904,9.46534,-0.26159,5.01715,9.77085,9.46539,-0.263453,9.88511,213,4.41585,1.98541,0.45,11606
2.82482e-07,1.09149e-07,-2.71565e-06,-9.43727e-05,-4.39394e-05,-0.00346165,10.0503,10.2008,-0.00130984,5.10129,10.2012,10.05,-0.0013933,10.1278,213,4.23486,6.74231,0.45,11607
3.31672e-07,7.69822e-08,-2.71872e-06,-0.000109206,-3.56013e-05,-0.00346721,9.96775,10.1875,-0.0561487,5.12212,10.1881,9.9672,-0.0561697,10.1356,213,3.7797,7.54402,0.45,11608
-3.37366e-07,4.75817e-07,-2.7037e-06,-0.000106044,-0.000181538,-0.00338972,9.77014,9.54478,-0.0318969,4.90484,9.77639,9.53992,-0.033285,9.6936,213,16.6676,2.55757,0.45,11609
-3.25859e-07,-8.29635e-07,-2.7552e-06,-0.000109955,-0.000805575,-0.0030399,8.87635,6.79988,0.13025,4.51305,9.01612,6.80034,-0.00998456,8.14742,213,16.9808,18.6504,0.4675,11610
3.22583e-07,-8.08778e-07,-2.64765e-06,-0.000120732,-0.000742232,-0.00308664,8.86266,7.00744,0.00920966,4.57512,9.011,7.00757,-0.139251,8.3312,213,3.1192,18.6504,0.4325,11611
-5.24067e-08,2.04303e-08,-2.73392e-06,-3.25962e-05,-2.68611e-05,-0.00350128,10.3591,10.3762,0.0048151,5.18572,10.3763,10.3591,0.00480905,10.3629,213,11.7474,9.60803,0.45,11612
2.5401e-07,3.80631e-08,-2.71404e-06,-8.89561e-05,-2.78499e-05,-0.00345245,10.1638,10.3462,0.123546,5.11184,10.3469,10.1634,0.123224,10.1332,213,4.65596,8.83416,0.45,11613
2.87645e-07,5.81742e-08,-2.7148e-06,-9.82148e-05,-3.02513e-05,-0.00346238,10.0677,10.2706,0.0254288,5.1231,10.2715,10.0669,0.0252987,10.1455,213,4.24996,8.13203,0.45,11614
1.06625e-07,-6.45782e-08,-2.73211e-06,-4.49611e-05,-3.22588e-05,-0.00349308,10.2918,10.3298,-0.00105111,5.16567,10.3303,10.2913,-0.00106848,10.3119,213,6.90118,12.7241,0.45,11615
-1.39458e-06,7.40803e-07,-2.55794e-06,-0.0010919,-0.00032829,-0.00282794,5.01687,7.29629,-0.165351,4.01289,7.57383,5.02593,-0.451946,7.10324,213,19.7324,1.45939,0.45,11616
-1.391e-06,-5.70724e-07,-2.55856e-06,-0.00108943,-0.000258772,-0.0028635,5.13971,7.6193,-0.156004,4.18903,7.91835,5.14437,-0.459709,7.39231,213,19.7324,18.0406,0.45,11617
-1.05275e-06,-4.21901e-07,-2.6714e-06,-0.000793391,-0.000172911,-0.00303602,6.68751,8.53969,-0.00691258,4.34813,8.61454,6.68746,-0.0817136,7.91076,213,19.2524,17.5625,0.45,11618
1.39138e-06,-5.74732e-07,-2.55897e-06,-0.00109027,-0.000272381,-0.00283785,5.17276,7.61422,-0.0438984,4.17462,7.9568,5.17871,-0.392429,7.36427,213,0.367583,18.0406,0.45,11619
1.04862e-06,-4.23612e-07,-2.66898e-06,-0.00075928,-0.000174831,-0.00305574,6.82891,8.57353,-0.0261859,4.40008,8.67406,6.8283,-0.126103,8.03783,213,0.847604,17.5625,0.45,11620
-6.8009e-08,4.18497e-07,-2.71883e-06,-3.49343e-05,-0.000141481,-0.00343708,10.1848,9.86672,0.0291077,5.0782,10.1852,9.86659,0.0288168,10.0009,213,12.4311,3.14528,0.45,11621
1.41571e-07,-1.22644e-07,-2.72683e-06,-5.48585e-05,-4.74562e-05,-0.00347892,10.2276,10.2497,0.00655954,5.12263,10.2518,10.2256,0.00651665,10.2322,213,6.12835,14.225,0.45,11622
7.08009e-08,-6.10799e-08,-2.73351e-06,-3.78034e-05,-3.16726e-05,-0.00349778,10.3229,10.3412,-0.00541745,5.1735,10.3416,10.3225,-0.00542743,10.3375,213,7.77636,12.5912,0.45,11623
-4.29491e-07,6.25671e-07,-2.73559e-06,-0.000164952,-0.000219364,-0.00335737,9.39009,9.22766,-0.139535,4.77444,9.40826,9.21059,-0.140628,9.4516,213,17.4173,1.81212,0.45,11624
1.46305e-07,-1.65407e-07,-2.72293e-06,-5.68145e-05,-6.12838e-05,-0.00347194,10.1939,10.1805,-0.000563665,5.10003,10.1994,10.175,-0.000621894,10.1879,213,5.99019,15.0075,0.45,11625
-1.40952e-07,-1.23541e-07,-2.72703e-06,-5.48039e-05,-4.79106e-05,-0.00347982,10.2237,10.2442,-0.000258049,5.12365,10.247,10.221,-0.000309998,10.2343,213,13.9724,14.2245,0.45,11626
-1.75486e-07,-1.03786e-07,-2.72728e-06,-6.24439e-05,-4.16578e-05,-0.0034769,10.2057,10.2678,0.0133235,5.12749,10.2683,10.2053,0.0132833,10.2236,213,14.5371,13.8094,0.45,11627
2.69651e-07,2.68384e-09,-2.71196e-06,-9.56957e-05,-2.37295e-05,-0.00343481,10.1913,10.4062,0.22383,5.09211,10.4071,10.1913,0.222919,10.078,213,4.53019,10.2572,0.45,11628
2.98315e-07,1.44334e-07,-2.71314e-06,-0.000101652,-5.31525e-05,-0.00345373,10.0014,10.1461,-0.00484653,5.07602,10.147,10.0006,-0.00498298,10.0796,213,4.05041,6.00955,0.45,11629
-2.34567e-07,8.7642e-08,-2.72115e-06,-7.78228e-05,-3.85945e-05,-0.0034726,10.1344,10.2515,0.000714,5.12564,10.252,10.134,0.000675089,10.1928,213,15.3317,7.29333,0.45,11630
-3.04582e-07,8.11727e-08,-2.72283e-06,-9.67257e-05,-3.71496e-05,-0.00346831,10.0362,10.214,-0.0282255,5.12173,10.2152,10.0351,-0.0283009,10.1546,213,16.1271,7.4449,0.45,11631
1.32755e-06,-6.66882e-08,-2.54964e-06,-0.000979585,-2.53747e-05,-0.00306047,5.93155,8.77994,-0.280058,4.66749,8.91743,5.93156,-0.417551,8.25737,213,0.596249,12.6109,0.4325,11632
2.36123e-08,-1.53746e-07,-2.72588e-06,-2.80265e-05,-5.59165e-05,-0.00348791,10.3375,10.2542,0.00948967,5.16409,10.3376,10.2541,0.00947362,10.2866,213,9.19,14.7115,0.45,11633
-2.37397e-08,-1.10726e-07,-2.73122e-06,-2.92393e-05,-4.49086e-05,-0.00349426,10.3448,10.298,0.0014561,5.17172,10.3449,10.2979,0.00144058,10.32,213,10.913,13.8622,0.45,11634
-2.30419e-08,-1.53861e-07,-2.72795e-06,-2.84292e-05,-5.63073e-05,-0.00348842,10.3321,10.2489,0.00381397,5.16422,10.3322,10.2488,0.00378881,10.287,213,10.9118,14.7098,0.45,11635
-1.14802e-07,1.30089e-06,-2.56499e-06,-3.50478e-05,-0.0010133,-0.00300055,8.8035,5.88334,-0.0487545,4.60464,8.98205,5.88328,-0.227238,8.11639,213,13.6143,0.671629,0.4325,11636
-1.15009e-07,1.34536e-06,-2.66896e-06,-3.60439e-05,-0.00105736,-0.00295527,8.80123,5.75251,0.0871157,4.53841,8.98261,5.75246,-0.0942121,7.96888,213,13.6143,0.671629,0.4675,11637
2.31969e-07,1.68223e-08,-2.71636e-06,-8.53785e-05,-2.36299e-05,-0.00345598,10.1881,10.3724,0.126557,5.12337,10.3729,10.188,0.126148,10.1556,213,4.94437,9.66637,0.45,11638
-2.75905e-07,2.73136e-09,-2.70898e-06,-9.41776e-05,-2.46127e-05,-0.00343924,10.1839,10.3915,0.198616,5.09736,10.3927,10.1834,0.197947,10.0917,213,15.5763,10.2441,0.45,11639
-2.99967e-07,-1.47378e-08,-2.71598e-06,-9.76042e-05,-2.35814e-05,-0.00347364,10.0569,10.2779,-0.0207759,5.14986,10.2788,10.0561,-0.0209015,10.1902,213,15.9047,10.9412,0.45,11640
-2.37956e-07,-8.90568e-09,-2.71439e-06,-8.26173e-05,-2.44489e-05,-0.00347333,10.1474,10.3211,0.025902,5.1478,10.3215,10.147,0.0258743,10.2095,213,15.1929,10.7421,0.45,11641
2.00838e-07,5.01111e-09,-2.72129e-06,-7.345e-05,-2.40598e-05,-0.00347955,10.1854,10.3328,0.0178832,5.1575,10.3328,10.1854,0.0178429,10.2421,213,5.33801,10.1735,0.45,11642
-8.06308e-07,-3.71542e-08,-2.73006e-06,-0.000370184,-2.85431e-05,-0.00328851,8.95015,9.96997,0.238722,4.86985,9.97612,8.9463,0.236417,9.26781,213,18.6876,11.8338,0.45,11643
-9.40454e-09,1.32084e-07,-2.73162e-06,-2.77836e-05,-5.16156e-05,-0.00349268,10.3375,10.2663,-0.00550824,5.17153,10.3375,10.2663,-0.0055328,10.3076,213,10.389,6.45497,0.45,11644
6.01088e-07,1.00959e-06,-2.70772e-06,-0.000247385,-0.000755394,-0.00301621,8.26452,6.74807,-0.000644038,4.21318,8.34598,6.74635,-0.0803819,7.75134,213,1.77033,0.962542,0.45,11645
-3.84774e-08,1.46004e-07,-2.73118e-06,-2.94941e-05,-5.58609e-05,-0.00348864,10.3263,10.2476,0.000524881,5.16296,10.3264,10.2475,0.000501779,10.2867,213,11.4022,6.17973,0.45,11646
4.07006e-08,-5.73361e-08,-2.73421e-06,-3.05995e-05,-3.1502e-05,-0.00350053,10.359,10.3563,0.00102185,5.17917,10.3594,10.356,0.00101552,10.3566,213,8.65154,12.4582,0.45,11647
2.01447e-08,-4.29239e-08,-2.73478e-06,-2.95703e-05,-2.90368e-05,-0.00350312,10.365,10.3666,-0.00383434,5.18522,10.3666,10.365,-0.00383734,10.3696,213,9.35127,11.988,0.45,11648
-1.35891e-06,-6.95177e-08,-2.53835e-06,-0.000988724,-3.06851e-05,-0.00305319,5.88155,8.74137,-0.281024,4.67009,8.90028,5.88152,-0.439906,8.25568,213,19.5523,12.6799,0.4325,11649
-1.25818e-06,-2.92356e-08,-2.61685e-06,-0.00090307,-2.93807e-05,-0.00305917,6.39405,9.00208,-0.0420763,4.6266,9.10796,6.39133,-0.145241,8.23798,213,19.3838,11.4104,0.45,11650
-1.29903e-06,4.69758e-08,-2.65322e-06,-0.000927085,-3.01298e-05,-0.00304115,6.30099,8.97847,-0.00963726,4.60777,9.09274,6.2999,-0.12281,8.18466,213,19.3898,8.57036,0.4675,11651
-1.25845e-06,6.21671e-08,-2.6126e-06,-0.000876061,-3.19655e-05,-0.00307575,6.49955,9.01923,-0.066704,4.65395,9.13163,6.4967,-0.176261,8.30988,213,19.3898,8.08286,0.45,11652
-1.38917e-06,1.11259e-07,-2.63856e-06,-0.00103288,-4.12998e-05,-0.0030149,5.69744,8.65739,-0.219035,4.59955,8.81872,5.69744,-0.380371,8.10264,213,19.5516,6.81497,0.4675,11653
-1.34764e-06,9.33211e-07,-2.45927e-06,-0.00112963,-0.000539509,-0.0026938,4.54005,6.30161,-0.129127,3.60594,6.67238,4.57965,-0.5395,6.42637,213,19.7324,0.971886,0.4325,11654
-1.40136e-06,9.54496e-07,-2.5518e-06,-0.00119174,-0.00057508,-0.00261194,4.30448,6.14525,0.065061,3.40503,6.48716,4.35052,-0.32289,6.03253,213,19.7324,0.971886,0.4675,11655
-9.85004e-07,9.49903e-07,-2.66509e-06,-0.00052084,-0.000508575,-0.00299935,7.41725,7.45386,0.0187226,3.89492,7.66187,7.35592,-0.127961,7.64145,213,19.2648,0.968771,0.45,11656
1.35909e-06,9.4073e-07,-2.47602e-06,-0.00114183,-0.000550635,-0.00268651,4.45282,6.21757,-0.158172,3.56703,6.56133,4.52363,-0.572738,6.36475,213,0.367583,0.971886,0.4325,11657
1.41417e-06,9.62764e-07,-2.56827e-06,-0.00120576,-0.000591146,-0.00260248,4.19724,6.0319,0.0279354,3.35241,6.36438,4.23313,-0.34044,5.93357,213,0.367583,0.971886,0.4675,11658
1.32766e-06,-7.36402e-07,-2.49992e-06,-0.00114863,-0.000478982,-0.00272205,4.5255,6.52444,-0.171271,3.74256,6.88504,4.5937,-0.600078,6.64277,213,0.367583,18.5281,0.4325,11659
9.53125e-07,-7.2707e-07,-2.68764e-06,-0.000546663,-0.000425222,-0.00303284,7.4164,7.77891,-0.00502252,4.05023,7.9362,7.41836,-0.164267,7.85436,213,0.835166,18.5312,0.45,11660
1.38099e-06,-7.54376e-07,-2.59346e-06,-0.0012115,-0.000513491,-0.00263855,4.29374,6.37736,0.0338944,3.54224,6.73222,4.32504,-0.352262,6.23945,213,0.367583,18.5281,0.4675,11661
-1.37494e-06,-7.50332e-07,-2.59617e-06,-0.0012042,-0.000515174,-0.0026455,4.31136,6.36815,0.00896485,3.5506,6.72302,4.34365,-0.378188,6.26036,213,19.7324,18.5281,0.4675,11662
-9.51957e-07,-7.26496e-07,-2.68786e-06,-0.000537143,-0.000426546,-0.00303481,7.46457,7.79471,0.00886092,4.05189,7.95865,7.45463,-0.145137,7.8639,213,19.2648,18.5312,0.45,11663
-1.32224e-06,-7.32794e-07,-2.50264e-06,-0.00114249,-0.000480559,-0.00271368,4.58483,6.56073,-0.105304,3.74343,6.94835,4.63041,-0.538504,6.63865,213,19.7324,18.5281,0.4325,11664
-3.02835e-07,-3.12912e-08,-2.7215e-06,-9.35736e-05,-2.53161e-05,-0.00346689,10.0977,10.3014,0.0280772,5.13812,10.3041,10.0953,0.0278378,10.1734,213,16.0123,11.618,0.45,11665
-3.28186e-07,-5.02155e-08,-2.72631e-06,-0.000109245,-2.94548e-05,-0.00346788,9.98491,10.2231,-0.0408539,5.13201,10.2232,9.98485,-0.0408567,10.147,213,16.3217,12.3025,0.45,11666
-7.98938e-07,7.30095e-08,-2.72868e-06,-0.000363807,-3.59393e-05,-0.00329344,8.95034,9.92905,0.205178,4.86464,9.9325,8.94884,0.203224,9.27664,213,18.6919,7.65172,0.45,11667
-1.89332e-07,4.15349e-08,-2.71998e-06,-6.86393e-05,-2.79626e-05,-0.00348296,10.1918,10.3132,-0.00018297,5.15694,10.3137,10.1914,-0.000219563,10.2533,213,14.5887,8.73923,0.45,11668
7.11456e-07,-1.07684e-06,-2.67179e-06,-0.000354756,-0.00100879,-0.00283703,7.3681,5.41577,-0.0416643,4.11172,7.77461,5.41643,-0.448837,7.33442,213,1.29031,19.0156,0.45,11669
-7.73727e-07,1.33228e-06,-2.58692e-06,-0.000363333,-0.00102431,-0.00282918,7.29093,5.31787,-0.0698191,4.01644,7.62114,5.32957,-0.411737,7.16732,213,18.8097,0.484385,0.45,11670
-6.00595e-07,9.99793e-07,-2.71242e-06,-0.000254902,-0.00070194,-0.00304552,8.29482,6.96038,-0.0353823,4.26818,8.39998,6.9562,-0.136369,7.91386,213,18.3297,0.962542,0.45,11671
-5.68043e-07,-7.59426e-07,-2.7325e-06,-0.000248124,-0.000689885,-0.00305019,8.35997,7.04128,-0.00440808,4.26945,8.45215,7.03145,-0.0867551,7.92465,213,18.3297,18.5375,0.45,11672
-7.12465e-07,-1.07259e-06,-2.67156e-06,-0.000342207,-0.000987597,-0.00287665,7.38691,5.46038,-0.178577,4.10389,7.70771,5.46107,-0.500063,7.34677,213,18.8097,19.0156,0.45,11673
1.20725e-06,3.20323e-07,-2.5978e-06,-0.000884509,-9.47245e-05,-0.00303632,6.37356,8.73113,-0.0497534,4.52593,8.86675,6.37329,-0.185101,8.09833,213,0.656279,3.67178,0.45,11674
-1.21286e-06,3.6993e-07,-2.54111e-06,-0.000898933,-0.00011688,-0.00302919,6.23711,8.5716,-0.12185,4.48534,8.71022,6.23709,-0.260457,8.0252,213,19.4443,3.18494,0.4325,11675
-1.21114e-06,3.21392e-07,-2.59854e-06,-0.000927725,-9.60427e-05,-0.0030249,6.13954,8.62217,-0.120679,4.47784,8.72862,6.13946,-0.227048,7.98249,213,19.4443,3.67244,0.45,11676
-7.63872e-07,3.41133e-07,-2.73242e-06,-0.000303815,-9.69192e-05,-0.00331144,9.06918,9.68678,0.0911942,4.81563,9.70441,9.0696,0.0731434,9.33007,213,18.688,3.44422,0.45,11677
-1.24655e-06,3.70587e-07,-2.64652e-06,-0.000931027,-0.000115925,-0.00298663,6.17751,8.61065,0.0413713,4.38347,8.70939,6.17768,-0.0575405,7.81494,213,19.4437,3.18428,0.4675,11678
9.24687e-07,-1.11627e-06,-2.65883e-06,-0.000600992,-0.0011267,-0.00263552,6.11725,4.54798,0.0440425,3.42711,6.49637,4.57075,-0.357844,6.12288,213,0.828946,19.0156,0.4675,11679
9.01303e-07,-1.06882e-06,-2.56535e-06,-0.000561558,-0.00106963,-0.00272132,6.26889,4.75225,-0.178171,3.64202,6.66006,4.80689,-0.623981,6.5569,213,0.828946,19.0156,0.4325,11680
-9.85537e-07,1.3686e-06,-2.5631e-06,-0.000591418,-0.00116405,-0.00261215,6.13181,4.42246,0.0997631,3.3829,6.4758,4.46823,-0.289998,6.0186,213,19.2711,0.484385,0.4675,11681
-9.61243e-07,1.31723e-06,-2.47031e-06,-0.000554254,-0.00110403,-0.0027047,6.25749,4.61638,-0.161746,3.60298,6.61901,4.68006,-0.586953,6.4586,213,19.2711,0.484385,0.4325,11682
-8.99647e-07,-1.06652e-06,-2.56443e-06,-0.000558213,-0.00106362,-0.00271144,6.33987,4.83119,-0.0876796,3.66039,6.76762,4.8689,-0.553146,6.58018,213,19.2711,19.0156,0.4325,11683
-9.2281e-07,-1.1137e-06,-2.65794e-06,-0.000596287,-0.00112199,-0.00264312,6.13703,4.56776,0.0270762,3.4604,6.52886,4.59496,-0.391951,6.18493,213,19.2711,19.0156,0.4675,11684
-2.37984e-07,1.70546e-08,-2.71141e-06,-8.97022e-05,-2.34317e-05,-0.00345888,10.1529,10.3507,0.0955931,5.12787,10.351,10.1529,0.0953014,10.1581,213,15.1563,9.66448,0.45,11685
-3.17918e-07,1.51997e-08,-2.70671e-06,-9.40402e-05,-2.39294e-05,-0.00339057,10.3412,10.5505,0.500862,5.02966,10.5564,10.3391,0.497058,9.95247,213,15.9638,9.70839,0.45,11686
-3.84925e-07,-1.87352e-08,-2.73061e-06,-0.000111705,-2.27745e-05,-0.00347552,9.96672,10.2322,-0.0745108,5.15486,10.2347,9.96478,-0.0750472,10.1775,213,16.7221,11.0981,0.45,11687
9.13283e-08,-9.86925e-07,-2.74583e-06,-2.59381e-05,-0.00095077,-0.00301994,8.99642,6.23573,0.0591049,4.63547,9.16339,6.23542,-0.107552,8.20843,213,6.51197,18.7872,0.4675,11688
9.94754e-07,1.37919e-06,-2.58256e-06,-0.000620795,-0.00117649,-0.00260549,5.93264,4.27384,0.00818081,3.32448,6.26861,4.3264,-0.380349,5.92175,213,0.828946,0.484385,0.4675,11689
1.25264e-06,-2.689e-07,-2.65331e-06,-0.000946743,-8.97123e-05,-0.0029869,6.16306,8.72136,0.0730493,4.48606,8.88331,6.16298,-0.0888222,7.9682,213,0.655674,16.3149,0.4675,11690
-1.2138e-06,-2.67229e-07,-2.54757e-06,-0.000908486,-8.92442e-05,-0.00301376,6.31486,8.76036,0.0304515,4.53572,8.93116,6.31479,-0.14028,8.08716,213,19.4443,16.3151,0.4325,11691
-3.6557e-07,1.12602e-06,-2.69893e-06,-0.00010434,-0.000891019,-0.00299556,8.78054,6.43225,0.15003,4.43353,8.89876,6.43235,0.0317056,7.92705,213,16.9808,0.849583,0.4675,11692
1.25543e-06,4.58735e-08,-2.55635e-06,-0.000900503,-2.55345e-05,-0.00303783,6.48974,9.10158,0.109643,4.64932,9.2549,6.4898,-0.0437321,8.27035,213,0.710212,8.57036,0.4325,11693
1.21098e-06,-2.67922e-07,-2.54864e-06,-0.000906519,-9.02254e-05,-0.00301746,6.31215,8.74885,0.0108496,4.53864,8.91847,6.31219,-0.158817,8.09518,213,0.655674,16.3149,0.4325,11694
1.29429e-06,4.6831e-08,-2.66241e-06,-0.000952817,-2.87218e-05,-0.00300853,6.25049,9.00898,0.11403,4.58746,9.14908,6.25026,-0.0258452,8.12318,213,0.710212,8.57036,0.4675,11695
2.79364e-07,1.14665e-06,-2.6973e-06,-8.914e-05,-0.000864035,-0.00300529,8.92886,6.61574,0.22393,4.50399,9.08095,6.61461,0.0729691,8.06287,213,4.04193,0.849583,0.4675,11696
9.6995e-07,1.32673e-06,-2.49031e-06,-0.000578857,-0.00111356,-0.00267738,6.16241,4.56627,-0.10184,3.5298,6.52813,4.63019,-0.531478,6.32784,213,0.828946,0.484385,0.4325,11697
-3.54878e-07,-2.42597e-09,-2.71962e-06,-9.90593e-05,-2.42322e-05,-0.00344564,10.1347,10.3581,0.144916,5.1085,10.3601,10.1345,0.143128,10.1061,213,16.3937,10.4009,0.45,11698
3.641e-07,1.08507e-06,-2.58889e-06,-0.000113068,-0.000834232,-0.00300284,8.88384,6.73112,0.257663,4.50932,9.07957,6.7321,0.0609434,8.10403,213,3.1192,0.849583,0.4325,11699
-1.29964e-06,1.07689e-07,-2.54733e-06,-0.000951131,-4.02969e-05,-0.00305813,6.06682,8.78573,-0.22274,4.66026,8.94177,6.06678,-0.378743,8.26687,213,19.5021,6.88135,0.4325,11700
-6.1003e-07,1.40223e-08,-2.74882e-06,-0.000181717,-2.34657e-05,-0.00339487,9.78928,10.2617,0.197781,5.03326,10.263,9.78926,0.196496,9.8382,213,18.0736,9.73575,0.45,11701
-3.66728e-07,5.28405e-08,-2.72871e-06,-0.000113493,-2.90542e-05,-0.00347395,9.94077,10.1928,-0.090433,5.14395,10.1972,9.9366,-0.0906815,10.1601,213,16.6043,8.28305,0.45,11702
-3.49451e-07,3.32145e-08,-2.71975e-06,-0.000102383,-2.67676e-05,-0.00345211,10.0857,10.3114,0.0864796,5.11456,10.314,10.0846,0.0849281,10.1163,213,16.364,9.00618,0.45,11703
-3.64856e-07,1.0896e-06,-2.59382e-06,-0.000106126,-0.000853604,-0.00302677,8.78922,6.55795,0.0708748,4.4726,8.90284,6.55756,-0.0423556,8.03355,213,16.9808,0.849583,0.4325,11704
-1.35215e-06,-6.77788e-08,-2.65945e-06,-0.000982435,-3.17954e-05,-0.00302382,6.0099,8.84763,-0.0837865,4.61454,8.99646,6.0099,-0.232618,8.15673,213,19.5037,12.6109,0.4675,11705
-9.07479e-08,-9.51146e-07,-2.64213e-06,-2.20563e-05,-0.000922856,-0.00304237,9.0377,6.34874,0.0218194,4.68408,9.21381,6.34879,-0.15435,8.3145,213,13.5881,18.7871,0.4325,11706
-9.10985e-08,-9.90491e-07,-2.74787e-06,-1.92703e-05,-0.000961644,-0.00299864,9.07053,6.25747,0.176875,4.62859,9.25231,6.25743,-0.00486505,8.18171,213,13.5881,18.7871,0.4675,11707
1.35404e-06,1.09075e-07,-2.53238e-06,-0.00102109,-3.26178e-05,-0.00301965,5.78253,8.73318,-0.183344,4.64878,8.92369,5.78254,-0.373868,8.19185,213,0.548396,6.81497,0.4325,11708
2.78142e-07,1.10988e-06,-2.59126e-06,-8.84863e-05,-0.000811245,-0.00304216,8.98339,6.8259,0.166465,4.54998,9.12608,6.82355,0.0261203,8.195,213,4.04193,0.849583,0.4325,11709
3.65086e-07,1.12471e-06,-2.69388e-06,-0.000109706,-0.000893036,-0.00298295,8.78111,6.44282,0.204268,4.45147,8.9441,6.44294,0.0411623,7.95301,213,3.1192,0.849583,0.4675,11710
-1.25576e-06,-2.68158e-07,-2.65218e-06,-0.000949111,-8.85559e-05,-0.00298433,6.16029,8.72911,0.0850235,4.48421,8.89136,6.16012,-0.0770536,7.96224,213,19.4443,16.3149,0.4675,11711
1.39725e-06,1.0962e-07,-2.63765e-06,-0.00106967,-3.4774e-05,-0.00299188,5.56465,8.6539,-0.17327,4.58394,8.82427,5.56463,-0.343611,8.0493,213,0.548396,6.81497,0.4675,11712
9.1118e-08,-9.48401e-07,-2.63973e-06,-2.74403e-05,-0.000913581,-0.00305721,8.9869,6.3417,-0.057201,4.69526,9.16023,6.34146,-0.230291,8.34612,213,6.51197,18.7872,0.4325,11713
1.0846e-06,2.41046e-07,-2.65071e-06,-0.000797101,-7.34134e-05,-0.00309539,6.79193,8.9522,-0.0686447,4.5917,9.03454,6.78979,-0.14885,8.29212,213,0.853224,4.48891,0.45,11714
-1.09033e-06,2.3889e-07,-2.64518e-06,-0.000846532,-7.22255e-05,-0.00306841,6.57696,8.88832,-0.055513,4.53656,8.95385,6.57518,-0.119267,8.14847,213,19.2584,4.50158,0.45,11715
3.15168e-07,6.71096e-07,-2.7499e-06,-8.44677e-05,-0.000200186,-0.00340102,9.80799,9.46256,-0.0921788,4.95355,9.81404,9.45739,-0.093057,9.73367,213,3.57022,1.69917,0.45,11716
2.38501e-07,1.16113e-06,-2.64468e-06,-8.51746e-05,-0.000803503,-0.00303246,9.05908,6.91482,0.261212,4.55905,9.22014,6.91294,0.102035,8.21131,213,4.50329,0.849583,0.45,11717
4.14976e-07,-4.26273e-07,-2.74703e-06,-0.000165392,-0.000129212,-0.00338735,9.57824,9.68624,-0.0395429,4.88533,9.72606,9.54346,-0.0445893,9.68064,213,2.68271,17.6879,0.45,11718
4.28704e-07,6.23822e-07,-2.74062e-06,-0.000158067,-0.000218105,-0.00336202,9.42172,9.2425,-0.142334,4.7975,9.45177,9.21334,-0.143222,9.47803,213,2.68271,1.81212,0.45,11719
-6.79679e-07,4.35314e-07,-2.74301e-06,-0.000241011,-0.00015599,-0.00333085,9.20694,9.46074,-0.016451,4.76493,9.49941,9.18227,-0.0304469,9.37531,213,18.4967,2.68498,0.45,11720
1.21108e-06,-3.17937e-07,-2.60673e-06,-0.000903034,-0.00012097,-0.00302268,6.21951,8.55403,-0.107802,4.42463,8.64763,6.21975,-0.201635,7.91954,213,0.655674,16.8024,0.45,11721
-1.30621e-06,1.28535e-06,-2.41216e-06,-0.00099891,-0.000984152,-0.00253474,4.43911,4.48316,-0.145456,3.02984,5.28718,4.26215,-0.772511,5.61775,213,19.7324,0.484385,0.45,11722
-1.24247e-06,-1.05334e-06,-2.52776e-06,-0.000995597,-0.000921283,-0.00254245,4.63445,4.85629,0.016983,3.25288,5.74801,4.51746,-0.757744,5.9861,213,19.7324,19.0156,0.45,11723
1.24857e-06,-1.05907e-06,-2.52353e-06,-0.00100362,-0.000922663,-0.00253372,4.60839,4.85005,0.0409241,3.22916,5.72122,4.51525,-0.737103,5.94775,213,0.367583,19.0156,0.45,11724
-1.11155e-06,-1.64417e-07,-2.65442e-06,-0.000853627,-5.61456e-05,-0.00307653,6.55853,8.93907,-0.0769907,4.57144,9.00381,6.55585,-0.139058,8.19776,213,19.2584,14.9984,0.45,11725
1.11181e-06,-1.64868e-07,-2.65408e-06,-0.000850473,-5.67113e-05,-0.00307877,6.56903,8.93847,-0.0826143,4.57292,9.0023,6.56612,-0.143536,8.20368,213,0.84159,14.9954,0.45,11726
2.45087e-08,6.71949e-07,-2.75499e-06,-2.84278e-05,-0.000214221,-0.00340972,10.0809,9.5263,-0.012501,5.05319,10.0879,9.52527,-0.0184798,9.83714,213,9.13248,1.8799,0.45,11727
1.08546e-06,4.66774e-09,-2.67223e-06,-0.000751687,-2.61367e-05,-0.00309897,7.21013,9.37595,0.203295,4.68775,9.4776,7.20967,0.102106,8.47233,213,0.959135,10.115,0.45,11728
4.06302e-08,-1.88558e-07,-2.72326e-06,-2.8059e-05,-7.03496e-05,-0.00348375,10.3047,10.1785,-0.010809,5.15792,10.305,10.1783,-0.0108599,10.2531,213,8.5609,15.2805,0.45,11729
-4.07851e-08,-1.88636e-07,-2.72646e-06,-2.94641e-05,-6.90948e-05,-0.00348382,10.2998,10.1815,-0.0116865,5.15586,10.3,10.1814,-0.0117482,10.2529,213,11.5411,15.2785,0.45,11730
-4.19035e-07,1.0928e-06,-2.66311e-06,-0.000150593,-0.000818324,-0.00304753,8.56151,6.56829,-0.0860602,4.40597,8.64358,6.56852,-0.168365,7.97941,213,17.4422,0.849583,0.45,11731
4.23036e-07,1.08689e-06,-2.655e-06,-0.000151869,-0.000790806,-0.00308204,8.53148,6.62421,-0.2153,4.45139,8.60945,6.62426,-0.293319,8.09485,213,2.65784,0.849583,0.45,11732
-2.07473e-07,-7.10261e-08,-2.72712e-06,-7.0806e-05,-3.49521e-05,-0.00347782,10.1726,10.2796,0.00238206,5.13886,10.2801,10.1722,0.00234276,10.2242,213,14.9707,12.9505,0.45,11733
-3.37059e-07,2.56072e-07,-2.70838e-06,-0.00011005,-9.0462e-05,-0.00342872,9.91067,9.96914,0.00420247,4.98746,9.97887,9.9012,0.00394592,9.93632,213,16.5198,4.34639,0.45,11734
1.27615e-06,3.51063e-08,-2.60521e-06,-0.000917101,-2.47193e-05,-0.0029888,6.54565,9.20948,0.361478,4.68762,9.47307,6.54571,0.0978321,8.30781,213,0.710212,9.05786,0.45,11735
7.55284e-07,4.85832e-08,-2.7591e-06,-0.000326941,-2.69245e-05,-0.00334729,9.03511,9.93068,0.0191524,4.96026,9.93516,9.03514,0.0146417,9.50253,213,1.52042,8.36573,0.45,11736
3.44675e-07,-3.01278e-09,-2.70962e-06,-0.000110283,-2.4018e-05,-0.00340027,10.2102,10.4677,0.389345,5.04257,10.4711,10.2102,0.385957,9.95725,213,3.80823,10.4472,0.45,11737
1.80698e-07,3.97131e-07,-2.70022e-06,-6.13249e-05,-0.000143983,-0.00342881,10.0406,9.79387,-0.0115731,5.02752,10.0427,9.79259,-0.0123704,9.93237,213,5.29047,3.20684,0.45,11738
-1.81373e-07,-2.56814e-07,-2.71164e-06,-6.45583e-05,-9.3925e-05,-0.00345609,10.0929,10.0053,-0.0310453,5.06475,10.0982,10.0003,-0.0313478,10.081,213,14.8307,16.2955,0.45,11739
2.64339e-07,-2.07389e-07,-2.70573e-06,-9.34806e-05,-7.39488e-05,-0.00344449,10.015,10.0733,0.0120231,5.03524,10.0823,10.0061,0.0118629,10.0326,213,4.29105,15.7297,0.45,11740
5.3494e-07,4.9945e-08,-2.74395e-06,-0.000197302,-2.8415e-05,-0.00345139,9.49835,10.0025,-0.215341,5.1095,10.0031,9.49834,-0.215918,9.97621,213,2.42248,8.35573,0.45,11741
-7.54739e-07,7.30171e-07,-2.77271e-06,-0.000354268,-0.000367097,-0.00318277,8.30976,8.27146,-0.133524,4.25707,8.35337,8.25511,-0.160781,8.46545,213,18.7848,1.44693,0.45,11742
7.44176e-07,-5.21693e-07,-2.75067e-06,-0.000397578,-0.00027165,-0.00321417,8.24624,8.62215,-0.161478,4.41301,8.63815,8.25665,-0.187884,8.6416,213,1.31519,18.0531,0.45,11743
-7.37607e-07,-5.18076e-07,-2.75755e-06,-0.000402853,-0.000293989,-0.00318156,8.24635,8.57131,-0.0482948,4.33041,8.58762,8.25495,-0.0731999,8.49937,213,18.7848,18.0531,0.45,11744
-6.00264e-07,-3.96297e-07,-2.76495e-06,-0.000215899,-0.000121934,-0.00335969,9.3781,9.65859,-0.00634731,4.84483,9.67135,9.3773,-0.0183141,9.54604,213,18.3048,17.5749,0.45,11745
1.00039e-07,-1.96008e-07,-2.72391e-06,-4.35426e-05,-7.29715e-05,-0.00347457,10.2302,10.1423,-0.0117053,5.12139,10.231,10.1416,-0.0117909,10.1984,213,6.87501,15.4591,0.45,11746
-3.21848e-07,1.09091e-06,-2.64608e-06,-8.53011e-05,-0.000913338,-0.00301934,8.75156,6.27981,-0.00675779,4.46473,8.837,6.28006,-0.0924496,7.96498,213,16.5194,0.849583,0.45,11747
3.20607e-07,1.10682e-06,-2.63965e-06,-8.64593e-05,-0.000875531,-0.00300119,8.9219,6.56646,0.221211,4.52775,9.09906,6.56695,0.0435588,8.09223,213,3.58056,0.849583,0.45,11748
-8.2312e-08,2.01337e-08,-2.73251e-06,-3.97314e-05,-2.62838e-05,-0.00349733,10.3295,10.3697,0.00834372,5.1807,10.3697,10.3295,0.00832937,10.3413,213,12.5855,9.60702,0.45,11749
3.11076e-08,-8.89952e-07,-2.70947e-06,-2.4067e-05,-0.000784647,-0.00311957,9.21882,6.94843,-0.0214907,4.74829,9.34695,6.94844,-0.149628,8.55337,213,8.71244,18.6886,0.45,11750
-3.38701e-08,-8.95805e-07,-2.70669e-06,-1.96301e-05,-0.000814119,-0.00312088,9.14852,6.77691,-0.10894,4.72968,9.24957,6.77671,-0.209788,8.49723,213,11.3876,18.6886,0.45,11751
-1.29074e-07,1.29329e-06,-2.6229e-06,-4.17379e-05,-0.00093739,-0.00305644,8.82582,6.15223,-0.173295,4.66846,8.99473,6.15222,-0.342189,8.28961,213,14.0757,0.671629,0.45,11752
1.38569e-07,-8.26713e-08,-2.72965e-06,-5.41525e-05,-3.68193e-05,-0.00348525,10.2456,10.2974,0.0035694,5.14729,10.2981,10.2449,0.00353409,10.2681,213,6.23255,13.2673,0.45,11753
-9.8715e-08,-9.46396e-07,-2.7046e-06,-3.10396e-05,-0.000842216,-0.00309026,9.08628,6.66486,-0.0457166,4.75249,9.27278,6.66485,-0.232207,8.50633,213,14.0494,18.7871,0.45,11754
1.00746e-07,-9.42884e-07,-2.70106e-06,-3.40051e-05,-0.000853896,-0.00308994,9.032,6.58456,-0.0901842,4.7138,9.18469,6.5846,-0.242911,8.43371,213,6.05061,18.7872,0.45,11755
1.55045e-07,7.82038e-10,-2.72768e-06,-5.89554e-05,-2.42846e-05,-0.00348999,10.2408,10.3443,-0.00110436,5.17272,10.3443,10.2408,-0.00112441,10.2941,213,6.03167,10.3453,0.45,11756
1.34695e-06,1.26204e-07,-2.5914e-06,-0.00100001,-4.70158e-05,-0.00295595,6.06866,8.91343,0.230042,4.57133,9.14362,6.06755,0.000966214,8.05772,213,0.548396,6.32747,0.45,11757
3.30797e-07,-5.09437e-08,-2.72036e-06,-0.000110789,-2.92669e-05,-0.00348099,9.93442,10.1778,-0.125874,5.15194,10.1779,9.93441,-0.12597,10.1843,213,3.81989,12.3586,0.45,11758
7.97485e-08,1.20891e-07,-2.7311e-06,-3.89502e-05,-4.7935e-05,-0.00348738,10.2972,10.2704,0.00341098,5.14737,10.2981,10.2695,0.00338024,10.2805,213,7.50597,6.63641,0.45,11759
1.33739e-06,-5.37147e-08,-2.60529e-06,-0.000943519,-3.04661e-05,-0.00300591,6.31049,9.03603,0.154095,4.63602,9.2312,6.31026,-0.0408455,8.21094,213,0.596249,12.1234,0.45,11760
-1.09688e-07,-1.00145e-07,-2.72983e-06,-4.53336e-05,-4.26835e-05,-0.00348682,10.2764,10.2843,0.00327905,5.14247,10.2882,10.2725,0.00324484,10.2771,213,13.3174,13.6757,0.45,11761
-2.07807e-07,1.36797e-07,-2.72293e-06,-7.33695e-05,-5.18585e-05,-0.00346984,10.1285,10.1927,-0.0102054,5.10205,10.1938,10.1274,-0.010272,10.1711,213,15.0301,6.22195,0.45,11762
5.7993e-08,4.17959e-07,-2.72118e-06,-3.31878e-05,-0.000136188,-0.00343893,10.2065,9.899,0.0400795,5.0836,10.2069,9.89894,0.0397174,10.0168,213,7.95466,3.13353,0.45,11763
7.74086e-07,1.34718e-06,-2.60448e-06,-0.000359657,-0.00104876,-0.00283293,7.22413,5.1671,-0.158789,3.998,7.52,5.18843,-0.475994,7.12243,213,1.29031,0.484385,0.45,11764
-3.16523e-08,-1.68898e-08,-2.73481e-06,-3.10296e-05,-2.51089e-05,-0.00350391,10.366,10.3836,-0.000842187,5.19226,10.3837,10.3659,-0.000845125,10.3757,213,11.1077,11.0328,0.45,11765
-4.20611e-10,-2.96306e-08,-2.73503e-06,-2.86508e-05,-2.5908e-05,-0.00350439,10.3765,10.3847,0.00119854,5.19177,10.3847,10.3765,0.00119651,10.3794,213,10.051,11.5178,0.45,11766
-1.99316e-08,-7.23198e-08,-2.73361e-06,-2.90514e-05,-3.56204e-05,-0.00349978,10.3579,10.3383,-0.00246335,5.18028,10.3581,10.3381,-0.00246949,10.3506,213,10.7555,12.902,0.45,11767
2.25417e-07,1.30693e-07,-2.72044e-06,-7.93849e-05,-5.03143e-05,-0.00346649,10.107,10.1938,-0.00377754,5.09939,10.1949,10.1059,-0.0038516,10.1546,213,4.87502,6.3294,0.45,11768
5.14292e-07,3.43634e-07,-2.71452e-06,-0.000220916,-0.000108226,-0.00335462,9.40674,9.74313,0.0523864,4.84829,9.74704,9.40475,0.0504652,9.53004,213,2.35352,3.42977,0.45,11769
8.44211e-10,8.57159e-08,-2.73368e-06,-2.877e-05,-3.80759e-05,-0.00349995,10.3513,10.3235,-0.0104544,5.18091,10.3514,10.3235,-0.0104626,10.3479,213,10.0329,7.48503,0.45,11770
8.45364e-08,-3.14502e-08,-2.73408e-06,-3.966e-05,-2.78165e-05,-0.00349904,10.3197,10.355,-0.00680183,5.18096,10.3551,10.3196,-0.00681236,10.3442,213,7.44066,11.6056,0.45,11771
7.68886e-08,-9.61553e-07,-2.69436e-06,-3.39053e-05,-0.000902852,-0.00303575,9.04921,6.45534,0.0884927,4.66422,9.23328,6.45492,-0.0951599,8.29586,213,6.97334,18.7872,0.45,11772
-8.04302e-08,-9.47698e-07,-2.70303e-06,-3.39496e-05,-0.000928799,-0.00304559,8.93542,6.26423,-0.0545546,4.63343,9.07406,6.26383,-0.192793,8.22982,213,13.1267,18.7871,0.45,11773
6.22701e-07,-5.76907e-08,-2.73492e-06,-0.000274335,-3.00891e-05,-0.00340023,9.18105,9.91014,-0.149965,5.03485,9.91502,9.18089,-0.154679,9.72344,213,2.07677,12.5302,0.45,11774
3.02157e-07,-3.20723e-08,-2.71778e-06,-9.9187e-05,-2.5472e-05,-0.00345888,10.088,10.308,0.0590737,5.12511,10.3091,10.0871,0.058858,10.1411,213,4.12933,11.674,0.45,11775
-1.45104e-07,5.51501e-08,-2.72717e-06,-5.74315e-05,-3.00736e-05,-0.00348666,10.2424,10.3241,0.00589726,5.15945,10.3248,10.2418,0.00585948,10.2777,213,13.9175,8.28292,0.45,11776
-1.94107e-08,3.03706e-08,-2.73456e-06,-3.0367e-05,-2.77135e-05,-0.00350356,10.3629,10.3708,-0.00483376,5.18783,10.3708,10.3629,-0.00483564,10.3717,213,10.7129,9.24691,0.45,11777
4.55618e-08,-9.11119e-08,-2.73198e-06,-3.05061e-05,-4.00793e-05,-0.00349589,10.3471,10.3186,0.00270115,5.17236,10.3474,10.3183,0.00268773,10.3302,213,8.49077,13.4101,0.45,11778
-4.53981e-08,-9.05169e-08,-2.73238e-06,-3.1049e-05,-4.07258e-05,-0.003496,10.3414,10.3125,-0.00174131,5.17169,10.3416,10.3123,-0.00175364,10.3287,213,11.6161,13.3983,0.45,11779
1.86843e-08,1.08018e-07,-2.73225e-06,-2.82718e-05,-4.56996e-05,-0.00349544,10.3445,10.2925,-0.0052539,5.17491,10.3446,10.2925,-0.00526631,10.3239,213,9.39286,6.9509,0.45,11780
-2.41277e-07,-2.5778e-08,-2.71871e-06,-8.1019e-05,-2.5685e-05,-0.00348066,10.1301,10.2953,-0.0180581,5.15699,10.2959,10.1295,-0.0180634,10.2318,213,15.2968,11.4148,0.45,11781
-9.56818e-08,3.59753e-07,-2.71715e-06,-4.08336e-05,-0.000125407,-0.00344919,10.1611,9.9086,-0.0131361,5.08745,10.1615,9.90845,-0.0133875,10.0508,213,13.1477,3.56493,0.45,11782
1.24991e-06,6.07086e-08,-2.62189e-06,-0.000900129,-3.3288e-05,-0.0029997,6.58839,9.17597,0.321011,4.64294,9.39205,6.58716,0.106162,8.2492,213,0.710212,8.08286,0.45,11783
-2.3743e-07,1.79856e-08,-2.71175e-06,-8.61594e-05,-2.35232e-05,-0.00346449,10.1566,10.3436,0.072025,5.13661,10.345,10.1554,0.0718212,10.1797,213,15.1567,9.62287,0.45,11784
2.37642e-07,1.70158e-07,-2.71786e-06,-8.49188e-05,-5.9085e-05,-0.00345795,10.0722,10.1493,0.0034098,5.07403,10.1514,10.0702,0.00331578,10.1077,213,4.69058,5.59664,0.45,11785
1.21608e-07,-3.93969e-08,-2.73213e-06,-5.02045e-05,-2.86035e-05,-0.00349407,10.268,10.3325,-0.0121776,5.17247,10.3327,10.2678,-0.0121983,10.3126,213,6.60617,11.916,0.45,11786
-7.18535e-08,5.85808e-07,-2.7295e-06,-3.47881e-05,-0.00022752,-0.00340326,10.0201,9.44476,-0.0350517,5.03024,10.0229,9.4445,-0.0375801,9.7841,213,12.5564,2.23548,0.45,11787
2.39221e-10,-1.27662e-07,-2.72945e-06,-2.64209e-05,-5.02943e-05,-0.00349182,10.3528,10.2815,0.0083514,5.17225,10.3528,10.2815,0.00833119,10.309,213,10.0512,14.2135,0.45,11788
3.59522e-07,1.04352e-07,-2.71807e-06,-0.000120168,-4.15614e-05,-0.00347058,9.87069,10.1053,-0.130544,5.11795,10.1054,9.87064,-0.130547,10.1206,213,3.52036,6.81668,0.45,11789
-4.29811e-07,5.58541e-09,-2.73486e-06,-0.000142457,-2.40271e-05,-0.00348584,9.74068,10.0942,-0.239566,5.16764,10.095,9.74057,-0.240266,10.1627,213,17.023,10.0734,0.45,11790
5.9037e-07,7.28377e-08,-2.7428e-06,-0.000232936,-3.37208e-05,-0.00342496,9.34595,9.94063,-0.182487,5.06211,9.94122,9.34588,-0.183005,9.84007,213,2.16315,7.62839,0.45,11791
1.36908e-06,9.22397e-08,-2.58863e-06,-0.000984908,-3.74236e-05,-0.00296118,6.1755,9.00381,0.276193,4.60458,9.24446,6.17574,0.035307,8.1219,213,0.548396,7.30247,0.45,11792
3.37401e-07,4.7578e-07,-2.70517e-06,-0.000107345,-0.000183343,-0.00337396,9.80641,9.57955,0.0553337,4.87765,9.81005,9.57649,0.054754,9.64064,213,3.43235,2.55757,0.45,11793
-3.3487e-07,-3.16931e-07,-2.71218e-06,-0.000110598,-0.000130677,-0.00340719,9.84802,9.78809,0.00745811,4.9327,9.87194,9.7651,0.00653559,9.81242,213,16.6676,16.9424,0.45,11794
3.36314e-07,-3.13746e-07,-2.71414e-06,-0.000110494,-0.000126888,-0.00340287,9.87438,9.82544,0.0463975,4.92532,9.8964,9.80404,0.0457725,9.80478,213,3.43235,16.9424,0.45,11795
-4.67206e-07,-2.98249e-07,-2.72565e-06,-0.000182131,-0.000113224,-0.00338227,9.54201,9.7477,-0.0106388,4.88573,9.75899,9.53255,-0.0124748,9.66024,213,17.5552,16.8295,0.45,11796
4.62179e-07,4.45702e-07,-2.70421e-06,-0.000175466,-0.000166657,-0.00335853,9.48886,9.51515,-0.0128222,4.78132,9.54829,9.45723,-0.0143357,9.51742,213,2.54485,2.67053,0.45,11797
5.24657e-08,-2.82998e-08,-2.73483e-06,-3.24969e-05,-2.73405e-05,-0.00350228,10.355,10.3704,-0.00254923,5.18663,10.3707,10.3547,-0.0025548,10.3653,213,8.31584,11.4727,0.45,11798
-1.81925e-07,-1.40584e-07,-2.723e-06,-6.56046e-05,-5.28312e-05,-0.00346983,10.1733,10.2114,0.0113855,5.10123,10.2138,10.1709,0.0113406,10.1811,213,14.6749,14.5923,0.45,11799
-8.80062e-11,-5.67042e-08,-2.73437e-06,-2.83038e-05,-3.26197e-05,-0.00350207,10.3648,10.3519,-0.00469093,5.18478,10.3649,10.3518,-0.0046954,10.3631,213,10.0517,12.4419,0.45,11800
-1.8603e-07,-1.28611e-08,-2.7218e-06,-6.93635e-05,-2.44937e-05,-0.00348172,10.2023,10.3362,0.0161404,5.16019,10.3365,10.202,0.016109,10.2538,213,14.5203,10.9214,0.45,11801
-3.88147e-07,7.58523e-08,-2.73546e-06,-0.000125658,-3.51757e-05,-0.00346213,9.88395,10.154,-0.0756526,5.11498,10.1542,9.88377,-0.0757156,10.0974,213,16.8695,7.55579,0.45,11802
-1.32177e-06,8.81495e-08,-2.60079e-06,-0.000931482,-3.9223e-05,-0.0030244,6.29819,8.96165,0.0506575,4.60303,9.1092,6.29816,-0.0968573,8.17158,213,19.5021,7.36885,0.45,11803
-1.3277e-06,-5.22262e-08,-2.60684e-06,-0.000893527,-3.15131e-05,-0.00304095,6.50383,9.07701,0.0936112,4.66975,9.25499,6.50397,-0.0845149,8.31272,213,19.5037,12.1234,0.45,11804
-1.22393e-06,-2.303e-07,-2.60882e-06,-0.000916137,-7.43354e-05,-0.00304932,6.20226,8.7151,-0.165468,4.53863,8.81369,6.20178,-0.263574,8.09381,213,19.4443,15.8276,0.45,11805
1.22201e-06,-2.30541e-07,-2.60717e-06,-0.00091369,-7.42026e-05,-0.00304972,6.21648,8.72241,-0.159736,4.54019,8.8217,6.21612,-0.258669,8.09831,213,0.655674,15.8274,0.45,11806
-2.06091e-07,5.48439e-09,-2.71605e-06,-7.52582e-05,-2.41834e-05,-0.00347832,10.1777,10.3302,0.0193335,5.15547,10.3302,10.1777,0.0192969,10.2355,213,14.7729,10.1626,0.45,11807
4.20224e-07,7.31431e-08,-2.72864e-06,-0.000141425,-3.36938e-05,-0.0034887,9.70728,10.0289,-0.284598,5.15726,10.0299,9.70634,-0.284646,10.1566,213,3.0652,7.61839,0.45,11808
-1.29736e-06,3.29865e-08,-2.59247e-06,-0.000897715,-2.75471e-05,-0.00308966,6.33614,8.93366,-0.206976,4.67219,9.03556,6.33608,-0.308819,8.32945,213,19.3898,9.05786,0.45,11809
-1.2139e-06,-3.16591e-07,-2.60632e-06,-0.000895131,-0.000121327,-0.00302535,6.25858,8.56844,-0.10029,4.42102,8.65503,6.25871,-0.187007,7.92058,213,19.4443,16.8026,0.45,11810
-2.06209e-08,-4.21911e-08,-2.73477e-06,-2.94149e-05,-2.89295e-05,-0.00350302,10.3666,10.3681,-0.002358,5.18555,10.3687,10.366,-0.00236121,10.3697,213,10.7548,11.978,0.45,11811
-3.84394e-07,-8.14612e-07,-2.70888e-06,-0.000159507,-0.000731046,-0.00308951,8.6503,6.94421,-0.0959964,4.44813,8.72523,6.94432,-0.171037,8.15302,213,17.4422,18.6504,0.45,11812
8.27094e-07,7.4382e-08,-2.73926e-06,-0.000371419,-3.52492e-05,-0.00332083,8.81877,9.82227,0.014558,4.90541,9.82456,8.8173,0.0137436,9.34797,213,1.35861,7.58533,0.45,11813
3.08196e-08,-1.62402e-08,-2.73499e-06,-3.13067e-05,-2.50917e-05,-0.00350381,10.3646,10.3832,-0.0010788,5.19216,10.3832,10.3646,-0.00108216,10.375,213,9.01557,11.0025,0.45,11814
-1.08843e-06,5.45826e-09,-2.65268e-06,-0.000753911,-2.44779e-05,-0.00314428,7.05799,9.2354,-0.0774585,4.72199,9.30098,7.05796,-0.143008,8.54617,213,19.1409,10.115,0.45,11815
-7.05324e-07,2.58517e-07,-2.74401e-06,-0.000225892,-9.06319e-05,-0.00338098,9.3483,9.75206,-0.0698839,4.91706,9.75816,9.34828,-0.075963,9.63572,213,18.4911,4.26135,0.45,11816
1.32463e-06,1.30127e-06,-2.40829e-06,-0.00100519,-0.000983858,-0.00249613,4.52385,4.58752,0.0732614,3.06074,5.45417,4.39777,-0.667302,5.6676,213,0.367583,0.484385,0.45,11817
-4.16886e-07,-4.25426e-07,-2.74477e-06,-0.000166279,-0.000134465,-0.0033863,9.55945,9.65442,-0.0525456,4.88407,9.70964,9.5102,-0.0585127,9.66997,213,17.4173,17.6879,0.45,11818
-6.95603e-07,-3.01871e-07,-2.74245e-06,-0.000263374,-0.000105082,-0.00334863,9.17434,9.64685,-0.0353677,4.85932,9.67302,9.15842,-0.0456165,9.47183,213,18.4967,16.815,0.45,11819
1.64353e-08,3.36331e-07,-2.56399e-06,-2.57778e-05,-0.000111298,-0.00284443,230.961,223.956,0.0961706,115.433,230.961,223.956,0.0959971,227.444,213,9.42004,3.79912,0.40625,11820
4.29027e-10,2.77655e-07,-2.56771e-06,-2.53e-05,-9.01233e-05,-0.00285448,232.037,226.728,0.309509,115.864,232.038,226.727,0.309483,229.119,213,10.0494,4.3678,0.40625,11821
2.20982e-08,2.65677e-07,-2.56973e-06,-2.70975e-05,-8.88591e-05,-0.00286246,231.128,226.07,-1.10561,116.117,231.129,226.069,-1.10561,229.746,213,9.2121,4.50428,0.40625,11822
3.90356e-08,3.21545e-07,-2.56999e-06,-2.83834e-05,-0.000108037,-0.00283816,231.367,224.843,1.22887,115.07,231.368,224.842,1.22861,226.947,213,8.58272,3.9356,0.40625,11823
-3.9482e-08,-2.08464e-07,-2.57911e-06,-2.88478e-05,-7.4942e-05,-0.00286568,231.786,228.011,-0.567449,116.179,231.789,228.008,-0.567943,230.49,213,11.5173,15.5644,0.40625,11824
-2.20849e-08,-1.70079e-07,-2.57942e-06,-2.80535e-05,-6.12213e-05,-0.00286838,232.908,230.191,0.267476,116.321,232.91,230.189,0.267465,231.294,213,10.8879,14.9957,0.40625,11825
-1.57505e-08,-2.19299e-07,-2.57691e-06,-2.69127e-05,-7.79257e-05,-0.00286313,232.078,227.9,-0.225926,116.152,232.079,227.899,-0.226102,230.244,213,10.68,15.7009,0.40625,11826
4.14413e-10,-1.78897e-07,-2.57713e-06,-2.55707e-05,-6.27224e-05,-0.00287099,232.966,229.923,-0.0912701,116.529,232.966,229.923,-0.0913176,231.551,213,10.0506,15.1322,0.40625,11827
5.30033e-07,-2.8365e-08,-2.59324e-06,-0.000180665,-2.52427e-05,-0.00281689,214.58,227.31,-1.34293,114.329,227.315,214.576,-1.34323,222.562,213,2.44779,11.5111,0.40625,11828
7.16908e-07,-2.85481e-08,-2.61401e-06,-0.000257905,-2.75118e-05,-0.00276344,205.922,224.793,0.703179,112.088,224.878,205.838,0.702044,215.288,213,1.66352,11.5277,0.40625,11829
6.15451e-07,-4.22426e-09,-2.61176e-06,-0.000159702,-1.87797e-05,-0.00282233,218.264,229.806,0.178324,114.814,229.807,218.264,0.177774,224.081,213,2.02641,10.4943,0.40625,11830
1.30669e-07,-8.09539e-08,-2.58295e-06,-5.17481e-05,-3.64429e-05,-0.00286973,230.944,232.197,0.133567,116.042,232.217,230.924,0.133409,231.44,213,6.37507,13.2248,0.40625,11831
1.96074e-07,-7.08788e-08,-2.57959e-06,-6.96515e-05,-3.4653e-05,-0.0028651,228.449,231.316,-0.515563,115.923,231.33,228.436,-0.516557,230.413,213,5.31385,12.9645,0.40625,11832
2.20698e-07,-3.79688e-08,-2.57704e-06,-7.57901e-05,-2.70013e-05,-0.00286048,228.495,232.492,0.412032,116.043,232.497,228.492,0.410378,230.11,213,5.02524,11.9021,0.40625,11833
1.48966e-07,-4.58585e-08,-2.58286e-06,-5.83152e-05,-2.90541e-05,-0.00286886,230.557,232.953,0.355619,116.302,232.958,230.553,0.354871,231.41,213,6.08646,12.1623,0.40625,11834
1.42323e-07,2.56127e-07,-2.57185e-06,-5.45713e-05,-8.8457e-05,-0.00284392,228.115,225.34,-0.350033,114.251,228.152,225.303,-0.350088,227.091,213,6.00584,4.50119,0.40625,11835
1.8296e-07,2.86704e-07,-2.56691e-06,-6.4505e-05,-9.64612e-05,-0.00283392,226.591,223.974,-0.241246,113.457,226.674,223.892,-0.241335,225.537,213,5.30338,4.13348,0.40625,11836
1.7761e-07,2.19599e-07,-2.57376e-06,-6.42773e-05,-7.77713e-05,-0.00284198,227.582,226.477,0.0710933,113.81,227.69,226.369,0.0710369,226.961,213,5.4412,4.91629,0.40625,11837
-1.80276e-07,-1.39542e-07,-2.57671e-06,-6.51196e-05,-5.2487e-05,-0.0028561,228.436,229.471,-0.162789,114.849,229.536,228.371,-0.162796,229.119,213,14.6588,14.5837,0.40625,11838
-1.85475e-07,-1.8451e-07,-2.56977e-06,-6.71735e-05,-6.3103e-05,-0.00284776,227.881,228.214,0.133779,114.197,228.528,227.567,0.133765,227.915,213,14.7966,15.3665,0.40625,11839
-1.4406e-07,-1.63896e-07,-2.57583e-06,-5.63013e-05,-5.92776e-05,-0.00285745,229.219,228.975,-0.21248,114.819,229.426,228.768,-0.212505,229.31,213,14.0942,14.9988,0.40625,11840
-1.78592e-07,4.04609e-07,-2.55888e-06,-6.1506e-05,-0.000135769,-0.00282538,224.353,218.27,-2.02536,113.217,224.409,218.214,-2.02547,223.401,213,14.7977,3.14006,0.40625,11841
-1.32908e-07,4.99336e-07,-2.57849e-06,-5.07788e-05,-0.000165623,-0.00279027,226.661,217.255,2.27995,112.203,226.686,217.23,2.27969,219.831,213,14.0085,2.56374,0.40625,11842
-1.79507e-07,5.36665e-07,-2.59586e-06,-6.09514e-05,-0.000147977,-0.00281692,224.112,216.984,-1.61931,112.882,224.144,216.952,-1.61953,222.255,213,14.8463,2.26464,0.40625,11843
1.78213e-07,-2.67128e-07,-2.56806e-06,-6.37166e-05,-9.55322e-05,-0.00283078,227.091,224.485,0.451057,113.401,227.251,224.328,0.448276,225.355,213,5.30233,16.3599,0.40625,11844
1.28031e-07,-3.31544e-07,-2.58312e-06,-5.09021e-05,-0.000115039,-0.0028355,227.119,221.866,-0.95718,114.066,227.175,221.811,-0.957365,225.498,213,6.0915,16.9363,0.40625,11845
1.7287e-07,-3.60206e-07,-2.58682e-06,-6.22807e-05,-7.25332e-05,-0.00284454,228.163,227.324,0.279494,114.318,228.913,226.576,0.277022,227.477,213,5.25371,17.2354,0.40625,11846
1.30919e-07,3.40777e-07,-2.56635e-06,-5.13787e-05,-0.000115481,-0.00282404,228.023,222.773,0.925485,113.558,228.041,222.755,0.925277,224.519,213,6.18821,3.682,0.40625,11847
-1.30296e-07,-2.2086e-07,-2.57305e-06,-5.21745e-05,-7.73551e-05,-0.00284865,229.096,227.034,0.0475707,114.566,229.18,226.95,0.0474878,228.026,213,13.9118,15.818,0.40625,11848
1.05717e-06,-6.55669e-09,-2.53042e-06,-0.000722161,-2.07372e-05,-0.0025283,148.003,205.454,0.0686303,102.706,205.467,148.003,0.0557396,183.554,213,0.967271,10.6168,0.401875,11849
1.0533e-06,3.95753e-09,-2.541e-06,-0.00071926,-2.60139e-05,-0.00251495,149.223,206.004,2.14431,101.974,206.056,149.208,2.10813,182.297,213,0.959135,10.115,0.40625,11850
1.06564e-06,-6.18244e-09,-2.55054e-06,-0.000729189,-2.05244e-05,-0.002526,147.024,205.068,-0.145642,102.618,205.079,147.024,-0.15677,183.241,213,0.959135,10.6025,0.410625,11851
4.97382e-07,2.01698e-08,-2.58975e-06,-0.000161104,-2.57068e-05,-0.00282218,217.418,228.507,-0.540821,114.527,228.514,217.411,-0.540837,223.71,213,2.64713,9.46415,0.40625,11852
6.78585e-07,2.15136e-08,-2.62261e-06,-0.000236999,-2.45231e-05,-0.00278441,207.896,225.299,-0.752391,113.032,225.311,207.884,-0.752457,217.873,213,1.7753,9.42967,0.40625,11853
-5.10943e-08,4.12188e-08,-2.58606e-06,-3.24151e-05,-2.73478e-05,-0.00288905,233.342,233.757,-0.633623,117.202,233.769,233.332,-0.634865,234.185,213,11.7252,8.84059,0.40625,11854
-7.69632e-08,6.55362e-08,-2.58525e-06,-3.78905e-05,-3.40708e-05,-0.00288086,232.535,232.847,-0.322443,116.599,232.875,232.508,-0.322622,233.014,213,12.4888,8.01354,0.40625,11855
-8.07243e-08,4.04868e-08,-2.58499e-06,-3.9276e-05,-2.68062e-05,-0.00288289,232.766,233.787,-0.143945,116.969,233.793,232.761,-0.144585,233.423,213,12.5633,8.83959,0.40625,11856
8.07146e-08,-7.16563e-09,-2.58642e-06,-3.90791e-05,-2.38694e-05,-0.00288492,232.881,234.126,-0.211114,117.169,234.127,232.881,-0.211901,233.718,213,7.5367,10.6604,0.40625,11857
7.75996e-08,-2.8188e-08,-2.58662e-06,-3.82304e-05,-2.73359e-05,-0.00288098,233.068,233.96,0.228769,116.867,233.962,233.066,0.2286,233.287,213,7.61123,11.4865,0.40625,11858
5.11335e-08,-7.39438e-09,-2.58692e-06,-3.2358e-05,-2.43341e-05,-0.00288343,234.124,234.782,0.604458,117.091,234.785,234.122,0.603288,233.851,213,8.37481,10.6594,0.40625,11859
-7.25932e-08,-5.57455e-08,-2.58573e-06,-3.79955e-05,-3.10617e-05,-0.00287968,232.891,233.459,0.139467,116.665,233.469,232.882,0.139017,233.037,213,12.3737,12.4412,0.40625,11860
-1.09019e-07,-5.9481e-08,-2.58415e-06,-4.48037e-05,-3.15217e-05,-0.00287758,231.871,232.959,-0.1512,116.561,232.972,231.858,-0.151239,232.568,213,13.2579,12.578,0.40625,11861
-7.90292e-08,-7.41777e-08,-2.58498e-06,-3.91781e-05,-3.56721e-05,-0.00287521,232.676,232.964,0.388113,116.303,232.995,232.645,0.388028,232.432,213,12.5632,12.9973,0.40625,11862
-4.76968e-08,-6.98716e-08,-2.58582e-06,-3.18613e-05,-3.4966e-05,-0.0028821,233.377,233.123,-0.0747317,116.734,233.393,233.108,-0.075652,233.326,213,11.679,12.8605,0.40625,11863
7.1805e-08,1.01654e-07,-2.5849e-06,-3.73988e-05,-4.1871e-05,-0.00287745,232.226,231.86,-0.392205,116.321,232.249,231.838,-0.392919,232.437,213,7.7263,7.05879,0.40625,11864
1.07599e-07,1.0637e-07,-2.5837e-06,-4.4154e-05,-4.28664e-05,-0.00287218,231.451,231.556,-0.182272,115.923,231.663,231.344,-0.18229,231.686,213,6.84207,6.922,0.40625,11865
4.71981e-08,1.21216e-07,-2.58391e-06,-3.14885e-05,-4.85556e-05,-0.00287131,233.19,231.792,0.591093,116.304,233.198,231.786,0.58926,231.906,213,8.42102,6.63952,0.40625,11866
7.80771e-08,1.26905e-07,-2.58361e-06,-3.85397e-05,-4.97623e-05,-0.00287208,231.805,230.885,-0.280147,116.053,231.825,230.865,-0.28033,231.627,213,7.5368,6.50273,0.40625,11867
9.59925e-08,5.71838e-07,-2.58721e-06,-4.17421e-05,-0.000235565,-0.00276331,224.364,208.489,1.45102,111.464,224.374,208.484,1.44621,215.423,213,6.90395,2.27198,0.40625,11868
1.38618e-07,6.56048e-07,-2.60125e-06,-4.77588e-05,-0.000242887,-0.0027821,220.997,205.015,-2.96259,112.097,221.226,204.792,-2.96826,216.446,213,5.96314,1.8487,0.40625,11869
1.08781e-07,8.13085e-07,-2.60761e-06,-3.50636e-05,-0.000313214,-0.00273295,221.278,198.496,0.304187,110.493,221.285,198.494,0.299047,210.518,213,6.66617,1.41548,0.40625,11870
-8.86452e-08,-3.82961e-07,-2.58844e-06,-3.92408e-05,-0.000171563,-0.00280744,226.571,215.733,-0.161944,113.378,226.593,215.711,-0.162098,221.515,213,13.1961,17.228,0.40625,11871
-9.3703e-08,-5.62119e-07,-2.60683e-06,-3.34746e-05,-0.000217684,-0.00278615,225.337,210.249,-0.12381,112.741,225.356,210.231,-0.125225,218.312,213,13.4338,18.0845,0.40625,11872
-1.28009e-07,-4.41386e-07,-2.59803e-06,-4.79729e-05,-0.00016028,-0.00280529,226.276,217.077,0.434636,113.242,226.904,216.464,0.419539,221.449,213,14.1369,17.6513,0.40625,11873
6.58776e-07,1.95305e-07,-2.60163e-06,-0.000183839,-6.08178e-05,-0.00278781,213.455,223.531,0.174163,111.693,223.559,213.428,0.173619,218.496,213,1.79482,5.09048,0.40625,11874
5.5131e-07,1.39405e-07,-2.58841e-06,-0.000206186,-5.24089e-05,-0.00278581,210.556,223.152,-0.730439,111.941,223.152,210.556,-0.730454,217.858,213,2.29453,5.9971,0.40625,11875
7.65318e-07,1.44955e-07,-2.59268e-06,-0.000276581,-5.57995e-05,-0.00274143,202.16,220.243,0.273795,110.044,220.359,202.046,0.271732,211.526,213,1.48999,5.95405,0.40625,11876
-1.7678e-07,-9.87049e-08,-2.58078e-06,-6.26179e-05,-4.01228e-05,-0.00286265,229.385,231.227,0.045105,115.596,231.237,229.375,0.0450903,230.267,213,14.5609,13.6965,0.40625,11877
-1.36015e-07,-1.19518e-07,-2.58056e-06,-5.34685e-05,-4.66935e-05,-0.002863,230.334,230.889,0.215887,115.373,230.962,230.261,0.215862,230.396,213,13.8856,14.1474,0.40625,11878
-1.05596e-07,-9.66422e-08,-2.58299e-06,-4.40546e-05,-4.17073e-05,-0.00287121,231.658,231.85,0.0965002,115.929,231.955,231.553,0.0964947,231.658,213,13.2306,13.5985,0.40625,11879
-1.3979e-07,-7.81643e-08,-2.58265e-06,-5.38595e-05,-3.59922e-05,-0.00287052,230.551,232.014,-0.151247,116.088,232.024,230.541,-0.151277,231.437,213,13.906,13.1476,0.40625,11880
-1.9182e-07,1.21005e-07,-2.57764e-06,-6.66303e-05,-4.82657e-05,-0.00285494,228.658,230.162,0.278048,114.964,230.205,228.616,0.276658,229.138,213,14.7936,6.53731,0.40625,11881
-2.16904e-07,7.63966e-08,-2.57512e-06,-7.27425e-05,-3.4843e-05,-0.00287147,227.333,230.437,-1.90043,116.186,230.465,227.31,-1.90625,230.81,213,15.0822,7.59975,0.40625,11882
-1.46837e-07,8.75606e-08,-2.58048e-06,-5.67045e-05,-3.86268e-05,-0.00287112,229.774,231.255,-0.744542,116.015,231.284,229.746,-0.745518,231.264,213,14.0146,7.33794,0.40625,11883
-1.28179e-07,1.36005e-07,-2.5809e-06,-5.0366e-05,-5.15692e-05,-0.00286533,230.221,230.122,-0.341643,115.358,230.374,229.969,-0.342162,230.514,213,13.726,6.2755,0.40625,11884
1.2865e-06,-5.46276e-08,-2.47833e-06,-0.00088165,-2.92817e-05,-0.00244464,127.391,197.205,-0.627273,98.9749,197.278,127.363,-0.672106,173.875,213,0.596249,12.1234,0.40625,11885
8.69873e-07,-6.01709e-08,-2.58969e-06,-0.000343035,-3.06188e-05,-0.00271745,195.169,220.758,0.690512,110.037,220.761,195.169,0.687216,208.459,213,1.29413,12.5546,0.40625,11886
1.38085e-07,1.31807e-07,-2.58091e-06,-5.41512e-05,-5.04021e-05,-0.00286273,229.909,230.216,-0.130475,115.223,230.315,229.81,-0.130614,230.194,213,6.19404,6.3524,0.40625,11887
1.04189e-07,1.58348e-07,-2.58098e-06,-4.30432e-05,-5.95863e-05,-0.00286277,230.987,229.632,0.0335341,115.493,231.02,229.599,0.0335316,230.279,213,6.86937,5.9015,0.40625,11888
1.33938e-07,1.90943e-07,-2.57783e-06,-5.27687e-05,-6.77605e-05,-0.00285351,229.418,228.19,0.0199759,114.733,229.486,228.122,0.0198844,228.787,213,6.21439,5.35261,0.40625,11889
1.75006e-07,1.60059e-07,-2.57746e-06,-6.35827e-05,-5.75069e-05,-0.00285289,228.537,229.035,0.0751659,114.539,229.152,228.42,0.0751368,228.712,213,5.53906,5.80352,0.40625,11890
3.65093e-07,-2.09618e-08,-2.57156e-06,-0.000118456,-2.36391e-05,-0.0028431,223.039,230.805,-0.125897,115.468,230.81,223.034,-0.12598,227.148,213,3.56753,11.212,0.40625,11891
2.87856e-07,-1.59142e-08,-2.56877e-06,-9.85543e-05,-2.39035e-05,-0.00284677,226.098,232.212,1.00178,115.607,232.216,226.095,1.00161,228.215,213,4.28949,11.0219,0.40625,11892
2.67065e-07,1.57225e-09,-2.56672e-06,-9.29662e-05,-2.36993e-05,-0.0028536,226.463,232.137,0.350709,115.893,232.138,226.463,0.350576,229.002,213,4.52982,10.2988,0.40625,11893
3.40266e-07,-3.61513e-09,-2.56598e-06,-0.000110364,-2.35301e-05,-0.00284746,224.046,231.158,-0.139388,115.649,231.159,224.045,-0.139507,227.825,213,3.80787,10.4888,0.40625,11894
-2.54399e-07,4.36216e-07,-2.55884e-06,-8.92209e-05,-0.000148196,-0.00278934,221.716,216.885,0.559672,110.611,221.781,216.82,0.559641,218.783,213,15.8271,2.84997,0.40625,11895
-2.3856e-07,5.98149e-07,-2.60434e-06,-7.9097e-05,-0.000201856,-0.0027718,220.218,210.164,-0.331003,110.278,220.225,210.158,-0.331361,215.699,213,15.6893,1.99156,0.40625,11896
2.2822e-07,-3.93977e-07,-2.59035e-06,-7.96258e-05,-0.000119031,-0.00281982,223.242,220.014,-1.19708,112.262,223.327,219.929,-1.1972,222.845,213,4.41074,17.5084,0.40625,11897
2.54445e-07,-2.85991e-07,-2.56516e-06,-9.17568e-05,-9.99714e-05,-0.0028161,223.201,222.529,0.0610601,111.86,223.78,221.95,0.0607094,222.81,213,4.27287,16.65,0.40625,11898
-2.25462e-07,-2.00582e-08,-2.57171e-06,-7.85543e-05,-2.48442e-05,-0.00288012,226.457,230.857,-3.0085,116.94,230.871,226.443,-3.00906,231.698,213,15.0834,11.187,0.40625,11899
-2.28547e-07,-3.7349e-08,-2.5763e-06,-7.64887e-05,-2.67077e-05,-0.00284886,229.442,233.519,2.36733,115.591,233.542,229.425,2.36108,229.15,213,15.191,11.8637,0.40625,11900
-2.93282e-07,-3.30945e-08,-2.57481e-06,-9.24662e-05,-2.54435e-05,-0.00287115,224.823,230.312,-2.76854,116.576,230.371,224.776,-2.78031,230.405,213,15.9285,11.6864,0.40625,11901
-2.90593e-07,-1.64987e-08,-2.56928e-06,-9.49523e-05,-2.39483e-05,-0.00285544,225.936,231.752,-0.164708,115.972,231.778,225.912,-0.16605,229.067,213,15.8209,11.0097,0.40625,11902
-3.12446e-07,6.63361e-07,-2.60564e-06,-8.36867e-05,-0.00017224,-0.00276672,222.536,215.283,2.77926,109.939,222.657,215.163,2.77865,216.229,213,16.5298,1.69917,0.40625,11903
-2.37697e-07,1.12261e-06,-2.51606e-06,-8.59315e-05,-0.000723998,-0.00250751,195.977,143.715,-2.36568,99.238,196.097,143.608,-2.37908,178.129,213,15.5967,0.849583,0.40625,11904
-2.79057e-07,1.08769e-06,-2.53201e-06,-8.95248e-05,-0.00077152,-0.00245493,195.814,139.955,2.07347,96.9429,195.937,139.854,2.05139,172.81,213,16.0581,0.849583,0.410625,11905
-2.79009e-07,1.08508e-06,-2.51053e-06,-8.92812e-05,-0.000767865,-0.00246233,195.521,139.94,1.1533,97.2601,195.648,139.838,1.1282,173.484,213,16.0581,0.849583,0.401875,11906
-2.97592e-07,-4.53308e-07,-2.59591e-06,-8.89138e-05,-7.31157e-05,-0.0028145,226.234,227.528,2.99126,112.903,228.797,224.966,2.99088,223.915,213,16.5298,17.8008,0.40625,11907
-2.02885e-07,-8.28604e-07,-2.56884e-06,-7.98657e-05,-0.000654396,-0.00253011,201.222,154.164,0.53117,100.465,201.436,153.975,0.5055,181.905,213,15.5967,18.6504,0.40625,11908
-2.41423e-07,-7.94542e-07,-2.56141e-06,-8.41287e-05,-0.00069856,-0.00249473,199.705,149.38,2.26198,98.8419,199.919,149.193,2.23493,177.832,213,16.0581,18.6504,0.401875,11909
-2.41475e-07,-7.9597e-07,-2.58321e-06,-8.41977e-05,-0.000700895,-0.00249927,199.079,148.568,1.26996,99.0137,199.28,148.385,1.25247,178.119,213,16.0581,18.6504,0.410625,11910
7.56907e-07,4.77704e-08,-2.61768e-06,-0.000290179,-2.6033e-05,-0.0027494,201.779,223.415,0.353977,111.531,223.416,201.779,0.353254,213.07,213,1.52638,8.37251,0.40625,11911
8.23818e-07,7.39886e-08,-2.59901e-06,-0.000334163,-3.59096e-05,-0.00273761,194.413,218.842,-2.44384,110.659,218.874,194.382,-2.44414,210.145,213,1.35787,7.5905,0.40625,11912
1.20015e-06,5.88514e-08,-2.49479e-06,-0.000855609,-3.63309e-05,-0.00244213,131.448,198.552,1.50286,98.6062,198.669,131.377,1.45683,173.638,213,0.710212,8.08286,0.40625,11913
-3.83792e-07,-7.84486e-07,-2.57838e-06,-0.000156103,-0.000665484,-0.00248907,190.836,149.115,-0.248185,95.5637,190.86,149.111,-0.267892,174.05,213,17.4422,18.6504,0.40625,11914
-3.24365e-07,-7.83316e-07,-2.58299e-06,-0.000111812,-0.000728706,-0.00246336,195.07,144.543,2.46383,96.3272,195.094,144.543,2.43956,173.009,213,16.9808,18.6504,0.410625,11915
4.23469e-07,1.05835e-06,-2.52494e-06,-0.000155755,-0.00073375,-0.00245217,188.09,140.748,-0.000922517,94.061,188.107,140.746,-0.0153912,169.48,213,2.65784,0.849583,0.40625,11916
3.63732e-07,1.067e-06,-2.52449e-06,-0.000113409,-0.000792048,-0.00242863,192.237,136.653,2.60691,94.8423,192.269,136.644,2.58401,168.888,213,3.1192,0.849583,0.410625,11917
-4.18812e-07,1.05665e-06,-2.53456e-06,-0.000149997,-0.000741693,-0.00245188,188.392,139.928,-0.147307,94.2871,188.41,139.927,-0.164006,169.612,213,17.4422,0.849583,0.40625,11918
-3.64686e-07,1.07453e-06,-2.52932e-06,-0.000106798,-0.000813413,-0.00241755,192.45,134.573,3.18439,94.6636,192.491,134.552,3.16385,168.025,213,16.9808,0.849583,0.410625,11919
1.72694e-07,9.5497e-07,-2.57709e-06,-7.29281e-05,-0.000644592,-0.00252066,204.134,157.311,3.64906,100.293,204.188,157.305,3.60169,181.738,213,5.34892,1.13583,0.40625,11920
1.79018e-07,5.42416e-07,-2.58027e-06,-6.22637e-05,-0.00015131,-0.00280649,224.522,217.229,-0.247367,112.413,224.578,217.174,-0.248297,221.217,213,5.25636,2.27783,0.40625,11921
-1.48473e-07,-6.7574e-07,-2.59855e-06,-6.49977e-05,-0.000582231,-0.00257814,205.929,163.565,0.0871548,102.921,205.929,163.565,0.0870067,188.269,213,14.7511,18.3642,0.40625,11922
-1.72958e-07,-3.57933e-07,-2.58045e-06,-6.22884e-05,-7.94201e-05,-0.00284168,227.802,226.398,0.152252,114.099,228.348,225.854,0.150301,226.961,213,14.8436,17.2222,0.40625,11923
-3.24446e-07,-7.81706e-07,-2.56146e-06,-0.000111972,-0.000726285,-0.00246691,194.942,144.626,2.05824,96.4717,194.972,144.626,2.02842,173.343,213,16.9808,18.6504,0.401875,11924
3.14255e-07,6.7408e-07,-2.60633e-06,-8.52064e-05,-0.000168548,-0.00276818,222.476,215.65,2.72428,109.968,222.66,215.466,2.72406,216.429,213,3.57022,1.69917,0.40625,11925
3.63848e-07,1.06426e-06,-2.50325e-06,-0.000113738,-0.000788307,-0.00243302,192.122,136.871,2.15847,95.0133,192.158,136.861,2.1317,169.293,213,3.1192,0.849583,0.401875,11926
-3.64835e-07,1.07172e-06,-2.50816e-06,-0.000107173,-0.000809513,-0.00242327,192.223,134.697,2.52041,94.8911,192.273,134.676,2.4912,168.534,213,16.9808,0.849583,0.401875,11927
7.45845e-08,7.74617e-07,-2.6109e-06,-3.78488e-05,-0.000265455,-0.00276718,222.011,203.369,-1.53796,111.777,222.016,203.365,-1.53882,214.837,213,7.43988,1.53098,0.40625,11928
-6.47543e-08,-5.29135e-07,-2.60541e-06,-3.35795e-05,-0.000173685,-0.00280556,227.519,216.044,0.476846,113.524,227.522,216.043,0.47457,221.531,213,12.6601,17.969,0.40625,11929
3.95888e-08,-3.30522e-08,-2.58703e-06,-3.05627e-05,-2.79128e-05,-0.002886,233.882,234.099,0.00359581,117.054,234.111,233.871,0.00290332,233.988,213,8.71051,11.6449,0.40625,11930
6.43803e-08,-5.72932e-08,-2.58615e-06,-3.63812e-05,-3.06585e-05,-0.00288204,232.993,233.461,-0.0847921,116.776,233.467,232.987,-0.0850321,233.313,213,7.94693,12.472,0.40625,11931
-6.33428e-08,1.03631e-07,-2.58514e-06,-3.57689e-05,-4.18525e-05,-0.00287654,232.588,232.09,-0.0884216,116.346,232.604,232.074,-0.0888412,232.429,213,12.1531,7.028,0.40625,11932
-3.91887e-08,7.20324e-08,-2.58612e-06,-3.03434e-05,-3.52143e-05,-0.00288302,233.532,233.133,-0.11959,116.833,233.546,233.119,-0.120078,233.453,213,11.3895,7.85505,0.40625,11933
1.00561e-07,1.22826e-06,-2.50371e-06,-3.9307e-05,-0.000926126,-0.00240824,194.765,122.129,0.735062,97.096,194.88,122.06,0.688354,169.918,213,6.97468,0.702609,0.40625,11934
6.51402e-08,1.15735e-06,-2.52639e-06,-3.81974e-05,-0.000855403,-0.00244281,198.189,131.255,1.2364,98.5614,198.31,131.183,1.18747,173.583,213,7.74839,0.818111,0.40625,11935
-7.92745e-08,-9.17747e-07,-2.57306e-06,-3.26228e-05,-0.000867852,-0.00244831,197.539,129.129,-0.320463,98.9803,197.619,129.069,-0.341132,174.119,213,13.1253,18.7974,0.40625,11936
-5.14979e-08,-8.56567e-07,-2.57592e-06,-2.93722e-05,-0.000799818,-0.00248553,200.853,137.749,-0.320784,100.646,200.964,137.646,-0.32881,178.277,213,12.3516,18.6819,0.40625,11937
-2.5381e-07,-2.85978e-07,-2.56413e-06,-9.12836e-05,-0.000105504,-0.00281061,223.279,222.114,0.549264,111.532,223.613,221.78,0.549212,222.153,213,15.8271,16.65,0.40625,11938
-2.28653e-07,-4.03408e-07,-2.58721e-06,-8.0237e-05,-0.000119178,-0.00281957,223.146,219.957,-1.22256,112.186,223.149,219.954,-1.2226,222.791,213,15.6893,17.5084,0.40625,11939
4.53577e-07,-5.57587e-08,-2.58094e-06,-0.000153411,-2.85807e-05,-0.00282298,218.407,228.631,-0.247023,114.439,228.631,218.407,-0.24703,223.941,213,2.86105,12.5348,0.40625,11940
3.58449e-07,-6.02497e-08,-2.5743e-06,-0.000120426,-3.09394e-05,-0.00283576,222.706,230.035,0.303066,114.867,230.037,222.704,0.302743,226.157,213,3.57589,12.6722,0.40625,11941
4.00664e-07,-3.80281e-08,-2.57712e-06,-0.000132101,-2.63043e-05,-0.0028396,220.775,229.441,-0.985904,115.216,229.445,220.771,-0.986168,226.219,213,3.25809,11.8965,0.40625,11942
3.51406e-07,3.03432e-08,-2.56682e-06,-0.00011387,-2.64718e-05,-0.00283588,224.218,231.376,1.26872,115.057,231.382,224.213,1.26798,226.614,213,3.70627,9.09913,0.40625,11943
4.33906e-07,4.18327e-09,-2.57552e-06,-0.000146438,-2.30566e-05,-0.00283344,219.16,229.266,-0.922255,115.094,229.266,219.16,-0.922267,225.305,213,3.08554,10.1293,0.40625,11944
3.06744e-07,1.30364e-08,-2.56241e-06,-0.000101764,-2.35184e-05,-0.00285036,225.262,231.67,0.134825,115.768,231.671,225.261,0.134709,228.399,213,4.13618,9.79161,0.40625,11945
4.61997e-08,-1.82508e-07,-2.57669e-06,-2.89906e-05,-6.84004e-05,-0.00286394,232.503,229.275,0.303151,116.105,232.513,229.265,0.303005,230.603,213,8.36802,15.2075,0.40625,11946
2.344e-08,-1.57131e-07,-2.57818e-06,-2.79544e-05,-5.71612e-05,-0.00286877,233.253,230.861,0.572948,116.342,233.256,230.858,0.572745,231.494,213,9.19059,14.7827,0.40625,11947
1.66434e-08,-2.19781e-07,-2.57468e-06,-2.59509e-05,-7.88042e-05,-0.00285671,232.739,228.41,0.882454,115.929,232.74,228.41,0.881818,229.724,213,9.42148,15.7012,0.40625,11948
3.77118e-08,-2.55724e-07,-2.57641e-06,-2.68285e-05,-8.84078e-05,-0.00285834,231.584,226.54,-0.334601,115.962,231.589,226.535,-0.334679,229.438,213,8.59891,16.1259,0.40625,11949
-4.61175e-08,2.83353e-07,-2.57275e-06,-2.95995e-05,-9.96916e-05,-0.00285021,230.827,225.086,-0.198439,115.514,230.83,225.084,-0.198875,228.21,213,11.732,4.29249,0.40625,11950
-2.28663e-08,2.45958e-07,-2.57415e-06,-2.79605e-05,-8.29426e-05,-0.00286999,230.837,226.333,-1.94283,116.392,230.841,226.33,-1.94365,230.562,213,10.9094,4.71728,0.40625,11951
-1.60277e-08,3.36457e-07,-2.56712e-06,-2.70341e-05,-0.000113461,-0.00283303,231.572,224.493,1.74334,114.915,231.572,224.493,1.7433,226.372,213,10.6785,3.79884,0.40625,11952
-3.8647e-08,3.89265e-07,-2.57116e-06,-2.82461e-05,-0.000128332,-0.00283348,229.993,221.795,0.226898,114.883,229.993,221.795,0.226839,225.779,213,11.5011,3.37405,0.40625,11953
1.04112e-06,-1.64835e-08,-2.54903e-06,-0.000716581,-2.6376e-05,-0.0025232,148.911,205.443,0.938166,102.291,205.513,148.849,0.9302,182.955,213,0.967271,11.1043,0.40625,11954
-6.27075e-09,1.00303e-06,-2.57225e-06,-2.41711e-05,-0.000710352,-0.00253708,205.136,148.934,-0.68673,102.933,205.178,148.893,-0.687382,184.286,213,10.5114,1.06179,0.40625,11955
-2.49321e-10,1.02067e-06,-2.55702e-06,-1.32752e-05,-0.000717129,-0.00253892,206.234,148.584,-0.631908,103.437,206.238,148.584,-0.635994,184.916,213,10.05,1.06179,0.401875,11956
-2.32053e-10,1.02277e-06,-2.57915e-06,-1.31868e-05,-0.00071972,-0.00253438,206.423,148.553,-0.07877,103.259,206.431,148.553,-0.0865791,184.517,213,10.05,1.06179,0.410625,11957
4.7832e-10,6.05716e-07,-2.60259e-06,-1.68248e-05,-0.00013322,-0.00283682,231.214,221.681,0.239,115.488,231.215,221.681,0.238433,226.36,213,10.05,2.12359,0.40625,11958
5.96498e-09,1.00662e-06,-2.567e-06,-2.47798e-05,-0.000703511,-0.00253761,205.598,150.005,-0.218349,102.934,205.647,149.958,-0.22083,184.441,213,9.58864,1.06179,0.40625,11959
-3.93689e-09,-7.19774e-07,-2.59115e-06,-2.12131e-05,-0.000633157,-0.00257043,209.567,159.445,0.770052,104.463,209.67,159.368,0.744696,188.867,213,10.5114,18.4382,0.40625,11960
3.35208e-10,-7.39112e-07,-2.60173e-06,-8.75251e-06,-0.000650767,-0.00257066,210.106,157.521,0.269589,104.934,210.122,157.521,0.25371,189.135,213,10.05,18.4382,0.410625,11961
4.25326e-09,-7.1805e-07,-2.59516e-06,-1.88277e-05,-0.000638038,-0.00256877,209.687,158.97,0.830384,104.494,209.787,158.903,0.798158,188.762,213,9.58864,18.4382,0.40625,11962
3.32316e-10,-7.37848e-07,-2.5793e-06,-9.02206e-06,-0.000649361,-0.00256999,210.246,157.798,0.486668,104.895,210.261,157.798,0.471687,189.097,213,10.05,18.4382,0.401875,11963
-2.93809e-10,-4.04638e-07,-2.59849e-06,-1.5315e-05,-5.56029e-05,-0.00287774,234.756,231.456,0.305402,117.226,234.757,231.456,0.304886,232.819,213,10.05,17.3764,0.40625,11964
6.31781e-07,1.00547e-07,-2.59107e-06,-0.00027508,-3.94861e-05,-0.00274509,203.549,222.846,1.24014,110.806,222.85,203.547,1.23806,212.619,213,2.00059,6.85317,0.40625,11965
8.97945e-07,1.04175e-07,-2.57488e-06,-0.000370059,-3.78085e-05,-0.00270052,191.41,218.623,0.530681,109.053,218.632,191.406,0.526418,205.847,213,1.19605,6.81011,0.40625,11966
-1.07948e-06,-1.64212e-07,-2.52456e-06,-0.000783956,-5.53904e-05,-0.00247768,138.841,198.515,0.114713,99.2614,198.614,138.766,0.0911712,176.386,213,19.2584,14.9984,0.40625,11967
-1.11038e-06,-1.44531e-07,-2.52837e-06,-0.000793149,-3.87874e-05,-0.00248256,138.315,200.102,-0.0586471,100.094,200.116,138.313,-0.0713005,177.546,213,19.2584,14.5109,0.410625,11968
-1.05984e-06,2.37954e-07,-2.51549e-06,-0.000770362,-7.5921e-05,-0.00247337,139.72,196.599,0.233141,98.2155,196.654,139.676,0.222706,175.041,213,19.2584,4.50158,0.40625,11969
-1.08458e-06,2.08004e-07,-2.50459e-06,-0.000780979,-5.94412e-05,-0.00247465,139.26,198.359,0.538151,98.928,198.377,139.259,0.521051,175.912,213,19.2584,4.98908,0.401875,11970
1.06427e-06,2.39781e-07,-2.51735e-06,-0.000775528,-6.97599e-05,-0.00247897,138.884,196.691,-0.638221,98.7042,196.76,138.825,-0.648319,175.755,213,0.841592,4.50158,0.40625,11971
1.08423e-06,2.09473e-07,-2.50845e-06,-0.000777344,-5.99855e-05,-0.00248335,139.056,197.812,-0.676139,99.2566,197.825,139.056,-0.68866,176.621,213,0.841592,4.98908,0.401875,11972
-6.57713e-07,1.93415e-07,-2.60213e-06,-0.000178907,-5.86275e-05,-0.00278513,214.736,224.587,1.26996,111.69,224.648,214.676,1.26857,218.564,213,18.3168,5.10316,0.40625,11973
-1.08708e-06,2.08046e-07,-2.5262e-06,-0.000783868,-5.93214e-05,-0.00247367,138.864,198.209,0.4588,98.8916,198.226,138.863,0.442783,175.787,213,19.2584,4.98908,0.410625,11974
-6.68578e-07,-1.30054e-07,-2.60543e-06,-0.000187661,-3.61883e-05,-0.00279335,214.507,226.914,1.08496,112.922,226.927,214.496,1.08331,219.892,213,18.3168,14.3968,0.40625,11975
-1.10777e-06,-1.44624e-07,-2.50669e-06,-0.000790134,-3.90604e-05,-0.00248211,138.848,200.365,0.264215,100.067,200.382,138.845,0.249414,177.551,213,19.2584,14.5109,0.401875,11976
-6.66082e-08,-2.09872e-07,-2.57862e-06,-3.46388e-05,-7.52474e-05,-0.00286552,230.78,227.454,-1.08679,115.943,230.798,227.437,-1.08808,230.224,213,12.3844,15.6042,0.40625,11977
-5.62482e-08,-2.67443e-07,-2.57954e-06,-3.1878e-05,-9.08952e-05,-0.00285123,231.132,226.298,0.209936,115.467,231.143,226.287,0.209872,228.544,213,12.1328,16.2901,0.40625,11978
-8.64823e-08,-2.67775e-07,-2.57748e-06,-3.79216e-05,-9.0844e-05,-0.00284852,230.343,226.008,0.137347,115.119,230.376,225.975,0.13732,228.07,213,13,16.3299,0.40625,11979
6.66513e-08,3.2373e-07,-2.57266e-06,-3.51334e-05,-0.000109127,-0.0028291,230.923,224.862,2.07947,114.426,230.931,224.855,2.07882,225.875,213,7.71558,3.89577,0.40625,11980
8.86876e-08,4.07981e-07,-2.57442e-06,-3.90441e-05,-0.00013307,-0.00282695,228.303,220.602,-0.0430457,114.175,228.308,220.597,-0.0431292,224.595,213,7.10003,3.17009,0.40625,11981
5.74181e-08,4.0653e-07,-2.57531e-06,-3.28177e-05,-0.000130508,-0.00283236,229.115,221.114,-0.184542,114.651,229.118,221.112,-0.184865,225.406,213,7.96717,3.20992,0.40625,11982
-4.04313e-08,-8.75811e-07,-2.56085e-06,-1.98837e-05,-0.000791976,-0.00248025,203.653,140.414,2.13339,100.83,203.724,140.414,2.06281,178.628,213,11.8902,18.6819,0.401875,11983
5.01511e-08,1.17839e-06,-2.53181e-06,-2.69963e-05,-0.000855231,-0.00245956,198.626,130.788,-0.615958,99.6218,198.626,130.789,-0.617016,175.453,213,8.20976,0.818111,0.410625,11984
-1.08034e-06,1.80057e-07,-2.51968e-06,-0.000768902,-6.13271e-05,-0.00247305,141.305,199.259,1.72413,98.8299,199.331,141.286,1.67102,175.97,213,19.2584,5.47658,0.40625,11985
1.09552e-06,-1.25761e-07,-2.5276e-06,-0.000770547,-4.7819e-05,-0.00248226,141.407,200.603,1.20774,99.7475,200.669,141.375,1.174,177.441,213,0.84159,14.0204,0.40625,11986
1.10801e-06,-1.44513e-07,-2.53246e-06,-0.000789093,-3.97429e-05,-0.00248182,138.991,200.367,0.345871,100.024,200.38,138.992,0.332191,177.502,213,0.84159,14.5079,0.410625,11987
4.48683e-07,1.87998e-07,-2.57114e-06,-0.00016732,-6.49338e-05,-0.00279747,215.053,223.439,-0.372645,111.92,223.466,215.027,-0.373537,219.742,213,2.83621,5.17731,0.40625,11988
3.79732e-07,1.37079e-07,-2.56876e-06,-0.000128793,-5.05783e-05,-0.002821,220.835,227.241,0.325748,113.466,227.257,220.819,0.325587,223.782,213,3.33592,6.08393,0.40625,11989
1.07471e-06,1.81392e-07,-2.52704e-06,-0.000769338,-6.4021e-05,-0.0024789,140.466,198.236,0.442505,98.9215,198.278,140.431,0.435115,176.192,213,0.841592,5.47658,0.40625,11990
4.20406e-08,-8.69737e-07,-2.56456e-06,-2.34588e-05,-0.000790616,-0.00248103,203.092,140.258,1.8023,100.729,203.176,140.258,1.71804,178.518,213,8.18005,18.6863,0.401875,11991
5.3868e-08,-8.57748e-07,-2.57663e-06,-2.72232e-05,-0.000805537,-0.00249574,199.796,136.048,-2.39012,101.112,199.832,136.014,-2.39252,179.059,213,7.71869,18.6863,0.40625,11992
-5.22012e-08,1.17542e-06,-2.53421e-06,-2.90132e-05,-0.000857841,-0.00246211,197.818,129.932,-1.46733,99.6439,197.818,129.934,-1.46984,175.486,213,11.9199,0.813717,0.410625,11993
-6.71788e-08,1.16175e-06,-2.52523e-06,-3.60116e-05,-0.000863864,-0.00242569,199.339,131.533,3.61031,97.9868,199.472,131.511,3.49882,172.354,213,12.3813,0.813717,0.40625,11994
-4.60437e-07,-1.21088e-07,-2.57381e-06,-0.000167923,-4.58688e-05,-0.00280641,215.856,225.853,-0.252121,113.068,225.883,215.826,-0.252292,221.278,213,17.2754,14.31,0.40625,11995
-4.97233e-07,-1.71307e-07,-2.58114e-06,-0.000181227,-5.94756e-05,-0.00278904,213.912,223.885,0.316293,111.805,223.926,213.871,0.31612,218.756,213,17.5612,15.2404,0.40625,11996
-5.62434e-07,-8.61108e-08,-2.58068e-06,-0.000201501,-3.57177e-05,-0.00282297,209.528,223.107,-5.18638,114.165,223.131,209.517,-5.19958,221.837,213,17.7779,13.4764,0.40625,11997
-3.81981e-07,-8.51308e-08,-2.57494e-06,-0.000136416,-3.47221e-05,-0.00282325,220.746,229.075,0.677211,114.201,229.079,220.742,0.677108,224.35,213,16.7365,13.3896,0.40625,11998
-4.45913e-07,-5.67988e-08,-2.59176e-06,-0.00016266,-2.898e-05,-0.00281598,217.412,228.361,0.088634,114.145,228.379,217.394,0.088547,223.001,213,17.2389,12.556,0.40625,11999
-3.43745e-07,-1.66141e-07,-2.56391e-06,-0.000114552,-6.00037e-05,-0.00282552,222.028,226.496,-0.0167438,113.292,226.567,221.957,-0.0167914,224.314,213,16.5198,15.1536,0.40625,12000
-3.21476e-07,-1.17945e-07,-2.56812e-06,-0.000109061,-4.28994e-05,-0.00283753,223.425,228.844,-0.0533657,114.453,228.853,223.416,-0.0534189,226.237,213,16.234,14.2232,0.40625,12001
-3.20254e-07,1.05776e-06,-2.51833e-06,-8.7616e-05,-0.000836618,-0.00243097,192.46,131.112,0.524606,95.9878,192.484,131.104,0.508666,169.819,213,16.5194,0.849583,0.40625,12002
2.78175e-07,-7.77242e-07,-2.56949e-06,-8.16884e-05,-0.000779177,-0.00246313,195.738,138.609,0.683339,97.5826,195.826,138.544,0.66034,173.756,213,3.58056,18.6504,0.40625,12003
2.39401e-07,-8.08171e-07,-2.5582e-06,-8.14723e-05,-0.000719287,-0.00248635,199.056,146.815,2.08126,98.6099,199.276,146.619,2.05652,176.871,213,4.04193,18.6504,0.401875,12004
3.18693e-07,1.06136e-06,-2.51308e-06,-8.73128e-05,-0.00082614,-0.0024366,192.946,132.432,0.524781,96.2401,192.977,132.429,0.497016,170.471,213,3.58056,0.849583,0.40625,12005
2.7703e-07,1.09094e-06,-2.52702e-06,-8.83226e-05,-0.000781555,-0.00244925,195.63,138.85,2.25606,96.7412,195.716,138.786,2.23362,172.225,213,4.04193,0.849583,0.410625,12006
1.25654e-07,1.22879e-06,-2.49556e-06,-3.59483e-05,-0.00087748,-0.00245396,195.603,126.676,-2.44729,99.0517,195.635,126.665,-2.4681,174.18,213,6.05196,0.702609,0.40625,12007
-9.9793e-08,-9.20392e-07,-2.57246e-06,-2.99932e-05,-0.000818834,-0.00248306,199.266,134.655,-1.65542,100.502,199.322,134.625,-1.68137,177.718,213,14.048,18.7974,0.40625,12008
1.29878e-07,4.69791e-07,-2.57226e-06,-5.05799e-05,-0.000158375,-0.00280161,226.329,217.499,1.00184,112.671,226.342,217.488,1.00045,221.047,213,6.15923,2.74681,0.40625,12009
-1.25123e-07,-3.08579e-07,-2.57859e-06,-5.12146e-05,-0.000108719,-0.00283565,227.618,222.908,-0.444822,114.059,227.674,222.852,-0.445098,225.747,213,13.9408,16.7532,0.40625,12010
6.73828e-07,-1.29914e-07,-2.60816e-06,-0.000186301,-3.7752e-05,-0.0027918,214.739,226.906,1.33276,112.79,226.911,214.735,1.33121,219.745,213,1.78318,14.3938,0.40625,12011
1.10533e-06,-1.44692e-07,-2.51079e-06,-0.000786012,-4.0013e-05,-0.00248161,139.513,200.615,0.633178,100.009,200.633,139.514,0.614103,177.533,213,0.841592,14.5109,0.401875,12012
-5.97234e-07,9.7376e-07,-2.58348e-06,-0.000247606,-0.000671828,-0.00243171,179.72,144.973,0.828482,89.5861,179.966,144.761,0.794246,164.421,213,18.3297,0.962542,0.40625,12013
-6.09588e-07,5.79005e-07,-2.62377e-06,-0.00018672,-0.000200948,-0.00271132,207.267,206.102,0.486988,103.538,207.558,205.814,0.48343,206.208,213,18.3048,1.92508,0.40625,12014
-4.28474e-07,6.21053e-07,-2.59476e-06,-0.00016459,-0.00021581,-0.00272524,208.485,204.29,-1.24772,105.191,209.133,203.644,-1.24899,207.692,213,17.4173,1.81212,0.40625,12015
4.14032e-07,-4.22761e-07,-2.60371e-06,-0.000164112,-0.000122662,-0.00277449,212.494,215.889,-1.31225,109.063,216.813,211.57,-1.31264,215.552,213,2.68271,17.6879,0.40625,12016
5.63086e-07,-7.19045e-07,-2.60633e-06,-0.000239157,-0.000642126,-0.00245137,182.066,149.06,0.872202,90.7694,182.397,148.743,0.858095,167.271,213,1.77033,18.5375,0.40625,12017
5.96647e-07,-4.00267e-07,-2.62046e-06,-0.000217751,-0.000108543,-0.00274427,207.268,216.213,0.330265,107.979,216.286,207.197,0.328014,211.56,213,1.79521,17.5749,0.40625,12018
4.97799e-07,-1.71238e-07,-2.58153e-06,-0.000182266,-5.96371e-05,-0.00278823,213.792,223.836,0.347818,111.769,223.885,213.743,0.347477,218.643,213,2.53883,15.2404,0.40625,12019
7.19533e-07,-1.76862e-07,-2.59737e-06,-0.000230073,-6.5425e-05,-0.00276257,207.377,220.863,-0.050395,110.483,220.915,207.325,-0.0510903,214.495,213,1.59727,15.2258,0.40625,12020
-3.36047e-07,2.55139e-07,-2.56378e-06,-0.000110945,-9.00822e-05,-0.00281223,221.144,222.852,-0.108797,111.602,223.095,220.901,-0.108833,222.115,213,16.5198,4.34639,0.40625,12021
-4.85736e-07,2.58184e-07,-2.57798e-06,-0.000179211,-8.93843e-05,-0.0027774,212.624,219.981,-0.18388,110.122,220.061,212.544,-0.183976,216.584,213,17.5612,4.25957,0.40625,12022
-3.59852e-07,3.48614e-07,-2.55732e-06,-0.000114734,-0.000114207,-0.00279691,219.706,219.75,0.019391,110.299,220.616,218.84,0.0193527,219.714,213,16.8055,3.41598,0.40625,12023
-2.63397e-07,-2.05445e-07,-2.56098e-06,-9.40625e-05,-7.03728e-05,-0.00283131,224.093,226.034,-0.104342,113.156,226.207,223.92,-0.10436,225.177,213,15.8091,15.7295,0.40625,12024
-3.65795e-07,-2.28168e-07,-2.56047e-06,-0.000121252,-7.52419e-05,-0.00281383,220.562,224.331,0.0238889,112.231,224.486,220.407,0.0237754,222.451,213,16.8055,16.084,0.40625,12025
2.59157e-07,3.17069e-07,-2.55932e-06,-9.13723e-05,-0.000107149,-0.00281245,222.951,221.659,0.0783017,111.573,223.224,221.386,0.0782324,222.232,213,4.29089,3.77046,0.40625,12026
2.53718e-07,4.36108e-07,-2.5586e-06,-8.97495e-05,-0.000151397,-0.00279046,221.238,216.189,0.033175,110.642,221.316,216.111,0.0330751,218.727,213,4.27286,2.84999,0.40625,12027
3.60031e-07,3.48508e-07,-2.5574e-06,-0.000116515,-0.000112828,-0.00279666,219.547,219.849,0.0267784,110.25,220.527,218.87,0.0267232,219.676,213,3.29449,3.41598,0.40625,12028
3.13731e-07,1.8508e-07,-2.56414e-06,-0.000103375,-6.33335e-05,-0.00282997,223.247,226.527,-0.0776618,113.339,226.601,223.173,-0.0776745,224.984,213,3.86597,5.2768,0.40625,12029
-5.51461e-07,1.37107e-07,-2.58761e-06,-0.000206876,-5.17007e-05,-0.00278799,210.306,223.016,-1.10286,112.06,223.017,210.305,-1.10318,218.042,213,17.7779,6.02355,0.40625,12030
-3.74376e-07,1.36598e-07,-2.57239e-06,-0.0001316,-4.96788e-05,-0.00282228,220.32,227.03,-0.0630363,113.547,227.03,220.32,-0.0630505,223.814,213,16.7365,6.11038,0.40625,12031
-4.40204e-07,9.76559e-08,-2.59229e-06,-0.000162935,-3.82701e-05,-0.00281293,216.807,227.018,-0.243663,113.633,227.022,216.803,-0.244048,222.333,213,17.2389,6.94395,0.40625,12032
3.23131e-07,-7.82119e-07,-2.56159e-06,-0.000117903,-0.000724326,-0.00247059,193.772,144.102,1.07194,96.3793,193.801,144.102,1.04267,173.338,213,3.1192,18.6504,0.401875,12033
-7.43427e-07,7.18177e-07,-2.63888e-06,-0.000340769,-0.000345282,-0.00256333,181.194,180.824,-0.847787,91.7492,182.649,179.37,-0.848864,181.881,213,18.7848,1.44693,0.40625,12034
-7.60245e-07,1.27875e-06,-2.46705e-06,-0.000333728,-0.000954203,-0.00224851,156.087,105.266,-0.746009,78.5338,156.253,105.169,-0.814554,138.766,213,18.8097,0.484385,0.40625,12035
-9.58471e-07,9.25886e-07,-2.53802e-06,-0.000478602,-0.00046378,-0.00241583,160.167,161.381,1.49633,80.7219,162.904,158.681,1.45975,159.374,213,19.2648,0.968771,0.40625,12036
3.04551e-08,-8.63001e-07,-2.577e-06,-2.82601e-05,-0.000726872,-0.00254837,201.948,144.727,-4.46478,103.249,202,144.707,-4.49722,184.642,213,8.71244,18.6886,0.40625,12037
-3.82784e-08,1.16917e-06,-2.5231e-06,-3.41715e-05,-0.000801143,-0.00245065,203.033,140.213,5.10856,99.1288,203.209,140.194,4.95143,175.453,213,11.3876,0.811382,0.40625,12038
-2.32304e-08,6.71717e-07,-2.60825e-06,-2.85709e-05,-0.000205174,-0.00280613,225.51,211.045,-1.98927,113.765,225.538,211.02,-1.99279,220.631,213,10.9262,1.87317,0.40625,12039
2.02015e-08,-4.50596e-07,-2.60348e-06,-2.51783e-05,-0.000124779,-0.00283479,230.72,222.562,0.595645,115.094,230.769,222.527,0.581705,226.179,213,9.1738,17.6268,0.40625,12040
3.90497e-08,1.1678e-06,-2.51888e-06,-3.56531e-05,-0.000789188,-0.00246494,202.57,140.85,3.59589,99.5869,202.676,140.839,3.50171,176.572,213,8.71244,0.811382,0.40625,12041
2.30396e-08,6.68717e-07,-2.61201e-06,-2.83899e-05,-0.000201892,-0.00280167,226.233,212.023,-0.914905,113.594,226.272,211.984,-0.915003,220.391,213,9.1738,1.87317,0.40625,12042
-3.23411e-08,-8.62403e-07,-2.5751e-06,-2.9886e-05,-0.000718985,-0.00254449,202.722,146.281,-3.23903,102.992,202.736,146.276,-3.24806,184.356,213,11.3876,18.6886,0.40625,12043
-2.14056e-08,-4.47977e-07,-2.60318e-06,-2.5488e-05,-0.000117446,-0.00284178,230.697,223.165,0.0251484,115.379,230.779,223.087,0.0211197,227.01,213,10.9262,17.6268,0.40625,12044
-7.02664e-07,2.5651e-07,-2.60174e-06,-0.000230273,-8.89819e-05,-0.00274927,206.426,217.998,0.104465,108.948,217.999,206.426,0.103485,212.346,213,18.5027,4.27402,0.40625,12045
-5.08091e-07,3.41233e-07,-2.57268e-06,-0.000208438,-0.000108244,-0.00274581,208.753,216.96,0.926656,108.063,217.052,208.662,0.92549,212.056,213,17.7471,3.43043,0.40625,12046
-7.53148e-07,3.39373e-07,-2.59256e-06,-0.000288146,-9.58025e-05,-0.00271138,199.287,215.041,0.809108,107.119,215.046,199.283,0.808205,206.807,213,18.6887,3.44488,0.40625,12047
-2.58955e-07,3.18087e-07,-2.55546e-06,-9.09498e-05,-0.000109448,-0.00281589,222.51,220.995,-0.679709,111.723,222.767,220.738,-0.679755,222.439,213,15.809,3.77034,0.40625,12048
-2.40824e-07,2.31512e-07,-2.56643e-06,-8.5925e-05,-8.22159e-05,-0.00282494,224.999,225.303,0.656763,112.538,225.733,224.569,0.656755,224.497,213,15.5232,4.70075,0.40625,12049
-3.14429e-07,1.85153e-07,-2.56507e-06,-0.000104254,-6.26323e-05,-0.00283015,223.143,226.552,-0.124617,113.368,226.612,223.083,-0.124631,224.993,213,16.234,5.2768,0.40625,12050
4.17294e-07,7.19414e-08,-2.58143e-06,-0.000135321,-3.31672e-05,-0.00282803,220.645,229.012,0.0959024,114.463,229.021,220.636,0.0957804,224.85,213,3.0928,7.64485,0.40625,12051
5.3179e-07,4.97787e-08,-2.59828e-06,-0.000202146,-2.80349e-05,-0.0027965,212.473,226.733,-0.0211519,113.378,226.735,212.472,-0.0215881,219.972,213,2.42844,8.36252,0.40625,12052
3.95973e-07,4.92881e-08,-2.57566e-06,-0.000121319,-2.81815e-05,-0.00283823,222.578,230.207,0.046741,115.092,230.23,222.555,0.0466885,226.443,213,3.30027,8.397,0.40625,12053
5.9674e-07,9.78846e-07,-2.58062e-06,-0.000239526,-0.000693321,-0.0024255,179.737,142.568,0.6917,89.6429,179.941,142.401,0.655095,163.775,213,1.77033,0.962542,0.40625,12054
-5.63053e-07,-7.32464e-07,-2.60388e-06,-0.000242305,-0.00063131,-0.00245465,182.2,150.339,0.995482,90.8376,182.634,149.941,0.958972,167.736,213,18.3297,18.5375,0.40625,12055
-2.46936e-07,-1.48159e-07,-2.56987e-06,-8.94136e-05,-5.42508e-05,-0.00284204,225.373,228.253,-0.0846749,114.197,228.31,225.316,-0.0846777,226.912,213,15.5234,14.7991,0.40625,12056
-7.68851e-07,-9.86353e-08,-2.5961e-06,-0.000288673,-4.30376e-05,-0.00273056,202.202,222.321,2.19661,110.098,222.38,202.156,2.18368,210.813,213,18.6108,13.5408,0.40625,12057
1.80345e-07,3.93525e-07,-2.55546e-06,-6.13346e-05,-0.000137986,-0.00281569,225.051,218.772,-0.548136,112.822,225.096,218.727,-0.548211,222.528,213,5.28535,3.21301,0.40625,12058
-1.79504e-07,-2.55087e-07,-2.56625e-06,-6.41041e-05,-9.34146e-05,-0.00283613,226.735,224.334,-0.311359,113.593,226.874,224.195,-0.311482,225.858,213,14.8147,16.287,0.40625,12059
7.60935e-07,-9.25253e-08,-2.59904e-06,-0.000268677,-4.10793e-05,-0.00276103,203.078,221.719,-1.06108,111.416,221.771,203.027,-1.06178,214.077,213,1.53947,13.4765,0.40625,12060
5.57376e-07,-8.74479e-08,-2.58431e-06,-0.000203741,-3.76366e-05,-0.00278971,211.948,225.553,0.14185,112.707,225.556,211.946,0.141271,218.927,213,2.32212,13.4734,0.40625,12061
-7.19295e-07,-1.75978e-07,-2.59973e-06,-0.00023126,-6.55559e-05,-0.00276131,207.275,220.847,0.048783,110.433,220.913,207.21,0.0477315,214.343,213,18.5027,15.226,0.40625,12062
4.85135e-07,2.59453e-07,-2.57835e-06,-0.000177261,-8.91395e-05,-0.00277586,213.117,220.335,0.275227,110.088,220.452,213.001,0.275164,216.547,213,2.55047,4.2469,0.40625,12063
5.11681e-07,3.4197e-07,-2.57301e-06,-0.000213655,-0.000110161,-0.00274325,207.917,216.394,0.727243,107.858,216.444,207.868,0.726755,211.559,213,2.35352,3.42977,0.40625,12064
-1.18432e-06,-2.295e-07,-2.48022e-06,-0.000839652,-7.35614e-05,-0.00244281,130.791,193.538,-0.518181,97.0627,193.582,130.772,-0.543163,171.571,213,19.4443,15.8276,0.40625,12065
-7.89469e-07,-2.3929e-07,-2.58418e-06,-0.000268117,-6.67505e-05,-0.00273388,203.306,219.799,1.34522,109.229,219.801,203.306,1.34299,210.695,213,18.6887,16.0551,0.40625,12066
6.74786e-07,4.33395e-07,-2.59856e-06,-0.000250318,-0.000149222,-0.00271007,201.108,209.388,-0.361201,105.159,209.954,200.545,-0.363718,205.774,213,1.60388,2.68432,0.40625,12067
7.62369e-07,3.39798e-07,-2.58839e-06,-0.000278364,-0.000100351,-0.00271386,200.335,214.915,0.852721,107.035,214.922,200.328,0.852173,207.159,213,1.41195,3.44422,0.40625,12068
3.02674e-07,4.55372e-08,-2.56731e-06,-0.000103775,-2.82873e-05,-0.00284913,224.6,230.783,-0.262274,115.53,230.797,224.586,-0.262578,228.018,213,4.11767,8.55381,0.40625,12069
2.6604e-07,2.65656e-08,-2.56596e-06,-9.33038e-05,-2.59109e-05,-0.00285794,225.819,231.339,-0.622049,115.985,231.346,225.813,-0.622969,229.253,213,4.52367,9.25594,0.40625,12070
-7.62515e-07,1.45698e-07,-2.58602e-06,-0.000249018,-5.47419e-05,-0.00278472,203.105,219.017,-4.58502,111.958,219.241,202.97,-4.6745,216.24,213,18.6108,5.95922,0.40625,12071
4.6111e-07,4.44337e-07,-2.56245e-06,-0.000173349,-0.000161334,-0.00273756,210.755,211.739,0.729595,105.859,212.448,210.046,0.72939,210.528,213,2.54485,2.67053,0.40625,12072
5.9879e-07,5.7014e-07,-2.61979e-06,-0.0001886,-0.000196018,-0.00271335,207.204,206.596,0.410875,103.699,207.804,205.999,0.407201,206.501,213,1.79521,1.92508,0.40625,12073
2.3064e-07,1.27789e-08,-2.57023e-06,-8.39886e-05,-2.34251e-05,-0.00286039,227.419,232.379,0.0140909,116.183,232.38,227.418,0.014078,229.925,213,4.94367,9.83552,0.40625,12074
1.99839e-07,8.3362e-10,-2.57472e-06,-7.26044e-05,-2.40952e-05,-0.0028658,228.826,232.799,0.0461026,116.378,232.8,228.826,0.0448415,230.794,213,5.33732,10.3427,0.40625,12075
1.17042e-06,3.19209e-07,-2.46939e-06,-0.000839327,-9.71006e-05,-0.00242257,130.551,191.344,0.874087,95.2503,191.359,130.551,0.858743,168.535,213,0.655674,3.67244,0.40625,12076
8.11253e-10,4.13804e-07,-2.56848e-06,-2.4599e-05,-0.000148206,-0.00283465,228.735,218.611,-1.4258,115.081,228.736,218.611,-1.4263,225.27,213,10.0494,3.2101,0.40625,12077
-1.58695e-08,4.90449e-07,-2.58003e-06,-2.71231e-05,-0.000174382,-0.00281824,227.429,215.368,-1.18037,114.306,227.43,215.368,-1.18134,222.825,213,10.6791,2.71232,0.40625,12078
5.14722e-10,-2.73079e-07,-2.57834e-06,-2.42634e-05,-0.000101768,-0.00285349,231.262,224.914,-0.469418,115.866,231.262,224.914,-0.469519,228.624,213,10.0506,16.2899,0.40625,12079
1.54576e-08,-3.26162e-07,-2.58268e-06,-2.48893e-05,-0.000119258,-0.00283958,230.834,223.105,0.293238,115.271,230.835,223.104,0.293175,226.775,213,9.4209,16.7877,0.40625,12080
9.92364e-08,1.55014e-08,-2.58526e-06,-4.47164e-05,-2.56913e-05,-0.00288093,232.109,233.667,-0.1946,116.931,233.668,232.109,-0.194763,233.087,213,7.09327,9.75,0.40625,12081
1.32019e-07,2.69618e-08,-2.58247e-06,-5.33e-05,-2.60805e-05,-0.00288081,230.613,232.842,-0.978031,116.911,232.844,230.611,-0.978688,232.715,213,6.42204,9.29368,0.40625,12082
1.71135e-07,1.50934e-08,-2.57811e-06,-6.29751e-05,-2.42268e-05,-0.00287086,230.012,233.185,0.0288653,116.578,233.185,230.012,0.0287855,231.586,213,5.7515,9.75189,0.40625,12083
1.32394e-07,3.98763e-09,-2.58258e-06,-5.35241e-05,-2.41779e-05,-0.00287081,231.64,234.044,0.887409,116.579,234.045,231.64,0.88677,231.965,213,6.42273,10.2082,0.40625,12084
1.23365e-06,4.53367e-08,-2.49248e-06,-0.000873229,-2.36786e-05,-0.00244112,129.65,199.234,1.23021,99.0241,199.264,129.634,1.21617,174.015,213,0.710212,8.57036,0.410625,12085
8.11591e-08,4.11214e-08,-2.58607e-06,-3.89407e-05,-2.76739e-05,-0.00287891,233.102,234.024,0.490419,116.77,234.03,233.098,0.489208,233.076,213,7.51445,8.8093,0.40625,12086
6.51482e-08,1.66017e-08,-2.58659e-06,-3.39751e-05,-2.64697e-05,-0.00288524,233.494,234.109,-0.041839,117.076,234.109,233.494,-0.0422082,233.844,213,7.95789,9.71972,0.40625,12087
-1.34169e-07,4.7193e-09,-2.57966e-06,-5.5345e-05,-2.4379e-05,-0.00286572,231.765,234.301,1.5781,116.364,234.303,231.765,1.57604,231.468,213,13.678,10.2063,0.40625,12088
-1.00038e-07,1.6241e-08,-2.58343e-06,-4.56466e-05,-2.55628e-05,-0.00287816,232.208,233.853,0.207685,116.823,233.853,232.208,0.207399,232.828,213,13.0067,9.75,0.40625,12089
-1.33636e-07,2.75525e-08,-2.57949e-06,-5.49794e-05,-2.55761e-05,-0.00288038,230.409,232.817,-1.00938,116.915,232.82,230.407,-1.01016,232.633,213,13.6773,9.29179,0.40625,12090
-1.74315e-07,1.56434e-08,-2.57355e-06,-6.63919e-05,-2.40991e-05,-0.00286883,229.619,233.083,0.0818578,116.501,233.085,229.618,0.0816932,231.289,213,14.3485,9.74811,0.40625,12091
-6.54262e-08,1.56566e-08,-2.58575e-06,-3.43377e-05,-2.62951e-05,-0.0028847,233.496,234.155,0.0336231,117.061,234.155,233.496,0.0333234,233.793,213,12.1421,9.78028,0.40625,12092
-8.19268e-08,-7.51798e-09,-2.58519e-06,-3.9864e-05,-2.44342e-05,-0.00288196,232.96,234.224,0.174498,117.026,234.226,232.959,0.173638,233.421,213,12.5855,10.6907,0.40625,12093
-1.73021e-07,9.67043e-07,-2.57239e-06,-6.90583e-05,-0.000661805,-0.00250519,204.641,156.091,5.10666,99.8223,204.712,156.06,5.06713,180.31,213,14.7537,1.12267,0.40625,12094
-1.28509e-07,1.25404e-06,-2.49371e-06,-3.91573e-05,-0.000899389,-0.00245238,193.233,122.775,-4.4252,98.8518,193.257,122.773,-4.44669,173.55,213,14.0757,0.671629,0.40625,12095
-4.61456e-07,4.45946e-07,-2.56348e-06,-0.000174965,-0.000166578,-0.00273795,209.974,210.661,0.0492932,105.584,211.217,209.418,0.0492597,210.274,213,17.5552,2.67053,0.40625,12096
5.26213e-07,-2.28613e-07,-2.58423e-06,-0.000224531,-7.43261e-05,-0.0027543,208.271,220.574,1.06736,109.761,220.588,208.258,1.06583,213.624,213,2.35292,16.0696,0.40625,12097
3.65743e-07,-2.27509e-07,-2.56199e-06,-0.000121259,-7.60061e-05,-0.00281351,220.521,224.228,0.00941496,112.174,224.358,220.391,0.00932095,222.392,213,3.29449,16.084,0.40625,12098
4.66821e-07,-2.98714e-07,-2.58496e-06,-0.00018063,-0.000117253,-0.00276013,211.432,216.623,0.155092,108.357,216.868,211.188,0.154669,213.93,213,2.54485,16.8295,0.40625,12099
2.95725e-07,-4.39071e-07,-2.5986e-06,-8.93674e-05,-9.2396e-05,-0.00280776,225.034,224.786,2.38081,112.231,226.842,222.978,2.38059,222.555,213,3.57022,17.8008,0.40625,12100
2.39428e-07,-8.09601e-07,-2.57993e-06,-8.15202e-05,-0.000721583,-0.00248659,198.821,146.396,1.83138,98.6151,199.038,146.203,1.80754,176.835,213,4.04193,18.6504,0.410625,12101
2.76904e-07,1.08828e-06,-2.50559e-06,-8.82664e-05,-0.000777889,-0.00245406,195.538,139.054,1.76536,96.9462,195.63,138.989,1.7379,172.685,213,4.04193,0.849583,0.401875,12102
2.97348e-07,1.43746e-07,-2.56736e-06,-0.000101377,-5.31609e-05,-0.00283302,224.227,228.176,0.489,113.856,228.201,224.202,0.488917,225.739,213,4.05041,6.00955,0.40625,12103
3.56185e-07,1.02833e-07,-2.57199e-06,-0.000120006,-4.11564e-05,-0.00283527,221.907,228.365,-0.49003,114.431,228.371,221.901,-0.490157,225.696,213,3.54796,6.84313,0.40625,12104
4.51351e-07,9.78942e-08,-2.58346e-06,-0.000155909,-3.8076e-05,-0.00281552,217.797,227.448,-0.0422403,113.747,227.451,217.795,-0.0428556,222.823,213,2.83347,6.9175,0.40625,12105
3.23056e-07,-7.83735e-07,-2.58315e-06,-0.000117828,-0.000726654,-0.00246657,193.936,144.069,1.55924,96.2116,193.959,144.069,1.53595,172.962,213,3.1192,18.6504,0.410625,12106
9.95738e-07,5.74889e-07,-2.55779e-06,-0.000728953,-0.000220613,-0.0024165,138.959,180.595,0.738273,89.9913,180.694,138.888,0.711062,163.148,213,0.847604,1.93754,0.40625,12107
7.37157e-07,7.12189e-07,-2.63208e-06,-0.000353215,-0.000350853,-0.00255418,179.381,179.575,-0.891358,91.1635,181.435,177.522,-0.892034,180.402,213,1.31519,1.44693,0.40625,12108
-9.88494e-07,5.74212e-07,-2.56701e-06,-0.000713228,-0.000228133,-0.00242002,140.667,180.399,0.869961,89.8313,180.507,140.584,0.844457,163.401,213,19.2524,1.93754,0.40625,12109
-1.02078e-06,-4.18969e-07,-2.54334e-06,-0.000729072,-0.000170651,-0.00244099,141.217,186.956,1.00054,93.0495,187.065,141.142,0.966409,167.915,213,19.2524,17.5625,0.40625,12110
-5.95193e-07,-3.92549e-07,-2.62317e-06,-0.000216709,-0.000124854,-0.00273744,206.599,214.122,0.135662,107.056,214.246,206.477,0.133652,210.335,213,18.3048,17.5749,0.40625,12111
-7.27223e-07,-5.10708e-07,-2.62212e-06,-0.000373496,-0.000269363,-0.0025875,180.215,188.744,-1.12554,95.0198,188.914,180.046,-1.12589,185.764,213,18.7848,18.0531,0.40625,12112
-3.34083e-07,-3.15649e-07,-2.5684e-06,-0.000110627,-0.000129992,-0.0027877,219.822,218.236,0.553932,109.946,220.446,217.613,0.55362,218.489,213,16.6676,16.9424,0.40625,12113
3.36224e-07,4.75116e-07,-2.56287e-06,-0.000107191,-0.000187496,-0.00276087,217.666,211.089,0.313411,108.739,217.79,210.965,0.312716,214.147,213,3.43235,2.55757,0.40625,12114
3.35287e-07,-3.12877e-07,-2.57069e-06,-0.000110303,-0.000123066,-0.00279111,220.192,219.147,0.617432,110.079,220.774,218.565,0.617218,219.061,213,3.43235,16.9424,0.40625,12115
-9.0745e-08,-9.42101e-07,-2.55417e-06,-2.23561e-05,-0.000884781,-0.00240863,201.334,130.696,5.88277,97.8023,201.411,130.695,5.80662,171.55,213,13.5867,18.7974,0.401875,12116
1.14257e-07,1.25376e-06,-2.50454e-06,-2.7219e-05,-0.000946369,-0.00237578,197.93,122.646,5.56842,96.2247,197.976,122.641,5.5269,167.97,213,6.51332,0.702609,0.410625,12117
2.38721e-07,-1.10262e-07,-2.57566e-06,-8.66983e-05,-4.14968e-05,-0.00284983,226.282,229.985,-0.0347974,115.017,230,226.267,-0.0348069,228.191,213,4.71495,14.0168,0.40625,12118
2.46014e-07,-1.48025e-07,-2.5684e-06,-8.80798e-05,-5.57132e-05,-0.00284314,225.372,228.023,-0.284519,114.188,228.091,225.304,-0.284602,226.995,213,4.57679,14.7993,0.40625,12119
3.2054e-07,-1.17912e-07,-2.56977e-06,-0.000106073,-4.30505e-05,-0.00283903,223.789,228.951,-0.0562808,114.513,228.97,223.77,-0.0563308,226.471,213,3.86597,14.2232,0.40625,12120
-2.33692e-07,1.76279e-07,-2.57292e-06,-8.50671e-05,-6.05157e-05,-0.00284047,225.698,227.709,0.0133299,113.871,227.756,225.651,0.0132216,226.698,213,15.3851,5.48319,0.40625,12121
2.34184e-07,1.76472e-07,-2.572e-06,-8.41858e-05,-6.1817e-05,-0.00284045,225.734,227.566,-0.0213103,113.833,227.644,225.656,-0.0214019,226.678,213,4.71445,5.48368,0.40625,12122
2.41665e-07,2.31225e-07,-2.56843e-06,-8.56274e-05,-8.11039e-05,-0.00282966,224.727,225.097,-0.0259265,112.755,225.483,224.341,-0.0259708,224.94,213,4.57664,4.70087,0.40625,12123
-3.52267e-07,-6.17956e-08,-2.5798e-06,-0.000119658,-3.15836e-05,-0.00283186,223.129,230.343,0.982988,114.683,230.349,223.125,0.981858,225.841,213,16.5241,12.6934,0.40625,12124
-2.37353e-07,-1.10959e-07,-2.57618e-06,-8.6952e-05,-4.24125e-05,-0.00284893,226.237,229.886,0.0146836,114.94,229.894,226.23,0.0141731,228.07,213,15.3855,14.0163,0.40625,12125
1.30784e-06,-6.64341e-08,-2.48529e-06,-0.000942801,-2.48552e-05,-0.00239883,121.406,196.592,2.14908,97.2569,196.627,121.407,2.11321,169.889,213,0.596249,12.6109,0.410625,12126
1.30288e-06,-6.65421e-08,-2.46472e-06,-0.000937044,-2.47773e-05,-0.00241249,121.177,195.898,0.329112,97.8172,195.931,121.177,0.296211,170.987,213,0.597879,12.6186,0.401875,12127
-4.65556e-07,-2.97059e-07,-2.58301e-06,-0.000180394,-0.000112722,-0.00276195,211.715,217.258,0.270014,108.624,217.518,211.455,0.269863,214.281,213,17.5552,16.8295,0.40625,12128
-2.96919e-07,-9.06288e-08,-2.57431e-06,-0.000104522,-3.73458e-05,-0.00284531,224.003,229.506,-0.483954,114.995,229.506,224.003,-0.484106,227.289,213,16.0216,13.527,0.40625,12129
-4.85728e-08,2.02711e-07,-2.57856e-06,-2.9965e-05,-6.96134e-05,-0.00286471,232.158,228.911,-0.0249746,116.095,232.165,228.904,-0.025001,230.577,213,11.7726,5.25414,0.40625,12130
-2.38049e-08,1.71142e-07,-2.58217e-06,-2.85608e-05,-6.20531e-05,-0.00286913,232.679,229.936,0.0190587,116.331,232.681,229.934,0.0188334,231.301,213,10.9114,5.75219,0.40625,12131
-2.31187e-08,2.30825e-07,-2.576e-06,-2.79938e-05,-7.88506e-05,-0.00285935,232.149,227.984,0.243583,115.954,232.152,227.981,0.24354,229.851,213,10.9126,4.90467,0.40625,12132
2.36662e-08,-1.46691e-07,-2.57931e-06,-2.81538e-05,-5.45289e-05,-0.00287342,233.038,230.878,-0.00668572,116.524,233.041,230.875,-0.00683557,231.972,213,9.18735,14.5953,0.40625,12133
2.44316e-08,-1.05351e-07,-2.58342e-06,-2.90374e-05,-4.31779e-05,-0.00287862,233.437,232.279,0.0384045,116.701,233.44,232.276,0.0383303,232.822,213,9.18858,13.7478,0.40625,12134
4.9402e-08,-1.27351e-07,-2.58078e-06,-3.01456e-05,-4.77524e-05,-0.00287712,232.972,231.53,-0.212791,116.601,232.989,231.513,-0.212866,232.467,213,8.32736,14.2459,0.40625,12135
2.23574e-07,-8.3231e-08,-2.57766e-06,-7.99471e-05,-3.67389e-05,-0.00285374,227.515,231.054,0.323784,115.37,231.064,227.505,0.323607,228.982,213,4.92733,13.3206,0.40625,12136
2.99872e-07,-9.00611e-08,-2.57241e-06,-0.000102466,-3.79204e-05,-0.00284512,224.321,229.608,-0.318837,114.965,229.612,224.317,-0.318963,227.33,213,4.07836,13.527,0.40625,12137
-2.91908e-07,1.46153e-07,-2.56985e-06,-0.000100729,-5.32353e-05,-0.00283397,224.246,228.136,0.37617,113.883,228.142,224.24,0.376058,225.84,213,16.0216,5.97304,0.40625,12138
-2.17705e-07,1.38054e-07,-2.57584e-06,-7.70294e-05,-5.18558e-05,-0.00284938,227.052,229.114,-0.0203344,114.578,229.136,227.031,-0.0208712,228.111,213,15.1727,6.17943,0.40625,12139
7.72077e-08,-9.62831e-07,-2.55958e-06,-3.49958e-05,-0.000901821,-0.0024253,196.152,125.153,0.370945,97.9443,196.214,125.136,0.325656,171.759,213,6.94707,18.8284,0.40625,12140
9.19511e-08,-9.65981e-07,-2.54736e-06,-2.74241e-05,-0.000907133,-0.00239919,199.311,127.257,5.04881,97.1998,199.386,127.245,4.98629,170.21,213,6.48571,18.8284,0.401875,12141
-9.74969e-08,1.27694e-06,-2.48855e-06,-4.07145e-05,-0.000955595,-0.00240236,192.413,117.478,-1.02085,96.7551,192.462,117.457,-1.04837,168.99,213,13.1529,0.671629,0.40625,12142
-1.14857e-07,1.28195e-06,-2.50068e-06,-3.37094e-05,-0.000963935,-0.0023671,196.022,119.831,4.90283,95.6079,196.071,119.83,4.85496,166.726,213,13.6143,0.671629,0.410625,12143
-1.23984e-06,4.72473e-08,-2.46066e-06,-0.00084833,-3.01488e-05,-0.00245183,132.381,199.395,1.04459,99.282,199.516,132.353,0.951855,174.935,213,19.3838,8.57715,0.401875,12144
-1.21609e-06,6.22628e-08,-2.48448e-06,-0.000838717,-3.1684e-05,-0.00242176,136.581,202.682,6.91967,98.1577,202.998,136.502,6.68246,172.937,213,19.3838,8.08965,0.40625,12145
-1.24865e-06,-1.58292e-08,-2.48324e-06,-0.000844954,-2.75399e-05,-0.00247147,131.435,198.386,-1.78712,100.105,198.419,131.405,-1.79026,176.516,213,19.3838,10.9229,0.410625,12146
-1.22219e-06,-2.97996e-08,-2.48715e-06,-0.000828903,-2.8894e-05,-0.00251917,129.797,195.323,-8.64644,102.066,195.444,129.719,-8.68849,180.48,213,19.3838,11.4104,0.40625,12147
3.8285e-07,-8.42576e-08,-2.57272e-06,-0.000130094,-3.59581e-05,-0.00283093,221.031,228.742,-0.184074,114.464,228.744,221.029,-0.184089,225.17,213,3.36352,13.3896,0.40625,12148
-9.89216e-08,6.08527e-07,-2.58274e-06,-4.10438e-05,-0.000252809,-0.00276042,223.199,205.854,0.465117,111.379,223.222,205.831,0.46485,214.591,213,13.3017,2.13459,0.40625,12149
-1.38247e-07,6.50995e-07,-2.60908e-06,-5.18117e-05,-0.000238759,-0.00278569,220.35,205.038,-3.57189,112.165,220.752,204.642,-3.57785,216.724,213,14.1395,1.83549,0.40625,12150
-3.4693e-07,1.05054e-07,-2.57746e-06,-0.000118081,-4.18622e-05,-0.00283461,222.233,228.476,-0.267068,114.372,228.477,222.233,-0.267535,225.687,213,16.5241,6.80662,0.40625,12151
1.02445e-07,-9.34574e-07,-2.56545e-06,-3.14866e-05,-0.000837672,-0.0024706,198.44,132.408,-1.3387,99.9397,198.507,132.375,-1.37239,176.371,213,6.02434,18.8284,0.40625,12152
4.0519e-08,5.51389e-07,-2.58927e-06,-2.83703e-05,-0.000216517,-0.00279178,225.813,210.403,-0.527071,113.171,225.814,210.403,-0.527879,219.043,213,8.53191,2.38581,0.40625,12153
1.63397e-08,5.02129e-07,-2.57962e-06,-2.57174e-05,-0.000176671,-0.00281031,228.175,215.811,0.0995457,114.041,228.181,215.805,0.0995414,222.152,213,9.40811,2.63622,0.40625,12154
-3.82106e-08,-3.6951e-07,-2.58801e-06,-2.55601e-05,-0.000151971,-0.00281684,229.827,219.473,1.20411,114.313,229.829,219.473,1.20236,223.628,213,11.5681,17.1142,0.40625,12155
-1.55476e-08,-3.34216e-07,-2.58558e-06,-2.58666e-05,-0.000120466,-0.00284268,230.281,222.533,-0.433578,115.36,230.286,222.528,-0.433727,226.94,213,10.6919,16.8638,0.40625,12156
-3.90335e-07,-3.88531e-08,-2.58893e-06,-0.00012469,-2.70075e-05,-0.00281997,223.739,231.74,2.97848,114.406,231.768,223.735,2.95495,224.904,213,16.8458,11.9187,0.40625,12157
-4.1206e-07,7.05636e-08,-2.59301e-06,-0.000144262,-3.37499e-05,-0.00275983,225.162,234.214,10.9305,111.753,234.339,225.135,10.8327,219.049,213,17.0315,7.6961,0.40625,12158
-5.71567e-07,7.10061e-08,-2.60202e-06,-0.000224864,-3.40982e-05,-0.00287206,201.277,216.902,-15.5442,116.564,217.248,201.267,-15.8807,225.563,213,17.9033,7.66162,0.40625,12159
-4.15594e-07,-3.56629e-08,-2.59297e-06,-0.000141655,-2.61376e-05,-0.00289284,214.389,223.851,-10.9501,117.518,223.975,214.377,-11.0618,230.388,213,17.0315,11.8039,0.40625,12160
-5.76069e-07,-3.64051e-08,-2.60124e-06,-0.000229603,-2.73748e-05,-0.00268453,217.845,234.409,16.7715,109.239,234.837,217.829,16.3588,210.49,213,17.9033,11.8384,0.40625,12161
6.98344e-07,-1.02889e-06,-2.55123e-06,-0.000326398,-0.000940506,-0.00226215,157.348,107.049,-1.20251,79.482,157.706,106.747,-1.2581,140.591,213,1.29031,19.0156,0.40625,12162
-6.11447e-07,9.79975e-08,-2.59201e-06,-0.000263921,-3.88238e-05,-0.00274805,205.255,223.692,1.78959,110.965,223.712,205.242,1.78215,213.296,213,18.0216,6.94083,0.40625,12163
-7.85173e-07,7.25948e-08,-2.59131e-06,-0.000345671,-3.54513e-05,-0.00269917,195.92,221.329,3.15396,109.154,221.431,195.85,3.12205,206.709,213,18.686,7.6585,0.40625,12164
-6.17687e-07,-5.74464e-08,-2.59189e-06,-0.00026751,-3.15627e-05,-0.00278322,202.144,221.469,-3.90816,112.697,221.484,202.131,-3.91049,216.368,213,18.0216,12.5592,0.40625,12165
-7.95232e-07,-3.74027e-08,-2.59167e-06,-0.000352269,-2.7926e-05,-0.00273384,192.362,218.927,-2.70335,110.872,219.019,192.292,-2.72521,209.662,213,18.686,11.8415,0.40625,12166
-3.85788e-07,7.47736e-08,-2.58862e-06,-0.000124713,-3.47589e-05,-0.00285456,219.947,227.315,-3.64462,115.515,227.357,219.933,-3.67226,227.408,213,16.8419,7.58224,0.40625,12167
1.17461e-06,3.70023e-07,-2.45525e-06,-0.000845707,-0.000122989,-0.00240699,128.536,187.731,0.657345,93.5714,187.769,128.528,0.626641,165.667,213,0.655674,3.18494,0.401875,12168
1.17723e-06,3.70092e-07,-2.47647e-06,-0.000849002,-0.000122725,-0.0024043,128.235,187.722,0.84699,93.468,187.757,128.226,0.82079,165.41,213,0.656279,3.18428,0.410625,12169
-1.19721e-06,-2.66854e-07,-2.48294e-06,-0.000862335,-8.92641e-05,-0.00240632,128.763,192.083,2.30162,94.9296,192.127,128.752,2.26815,167.423,213,19.4443,16.3151,0.410625,12170
-1.19407e-06,-2.6678e-07,-2.46186e-06,-0.000858654,-8.9535e-05,-0.00241479,128.612,191.608,1.15532,95.2648,191.652,128.601,1.12248,168.119,213,19.4443,16.3151,0.401875,12171
1.18247e-06,-2.29849e-07,-2.47864e-06,-0.000841075,-7.18493e-05,-0.00243875,131.063,194.068,0.20381,96.9673,194.119,131.031,0.184475,171.335,213,0.655674,15.8276,0.40625,12172
1.19159e-06,-2.67513e-07,-2.4628e-06,-0.000856813,-9.02855e-05,-0.00240613,129.635,192.418,2.73584,94.896,192.477,129.627,2.68476,167.46,213,0.655674,16.3151,0.401875,12173
8.8518e-07,-1.0424e-06,-2.48924e-06,-0.000537657,-0.0010124,-0.00208868,130.231,91.3459,3.19208,63.9221,130.803,91.0077,2.95856,113.315,213,0.828946,19.0156,0.401875,12174
9.27631e-07,-7.07272e-07,-2.55915e-06,-0.000503019,-0.000387042,-0.0024429,160.427,169.926,1.53847,84.6341,170.761,159.638,1.49249,163.99,213,0.835166,18.5312,0.40625,12175
8.86842e-07,-1.04566e-06,-2.50756e-06,-0.000541394,-0.00101872,-0.00208944,128.957,89.861,2.1624,63.6946,129.425,89.519,2.03614,112.858,213,0.828946,19.0156,0.410625,12176
-9.46551e-07,1.29146e-06,-2.41288e-06,-0.000535637,-0.0010546,-0.00206759,128.689,86.1829,3.21274,62.9553,128.988,86.0197,3.07718,110.858,213,19.2711,0.484385,0.410625,12177
-9.44622e-07,1.28687e-06,-2.3947e-06,-0.000531848,-0.0010479,-0.00208205,128.644,86.3759,1.67258,63.7115,128.93,86.2563,1.50658,112.339,213,19.2711,0.484385,0.401875,12178
2.91691e-07,-3.37866e-08,-2.57222e-06,-9.84191e-05,-2.60257e-05,-0.00284209,226.35,232.279,1.62564,115.331,232.286,226.344,1.62425,227.749,213,4.21694,11.7416,0.40625,12179
2.17058e-07,-1.95526e-08,-2.57486e-06,-7.6043e-05,-2.45628e-05,-0.00287214,227.627,231.844,-1.38981,116.618,231.846,227.625,-1.39013,231.155,213,5.09779,11.1824,0.40625,12180
-1.27834e-06,8.80061e-08,-2.47305e-06,-0.000866554,-3.85259e-05,-0.00245619,128.118,195.939,-2.0831,99.0229,195.952,128.116,-2.09407,174.325,213,19.5021,7.36885,0.40625,12181
-1.28635e-06,-5.24273e-08,-2.47881e-06,-0.000857651,-2.98298e-05,-0.00243329,132.471,200.275,3.41679,98.5076,200.356,132.466,3.3408,173.346,213,19.5021,12.1311,0.40625,12182
-2.16137e-07,5.32104e-08,-2.57147e-06,-7.54428e-05,-2.98828e-05,-0.00284067,230.07,233.802,3.58121,115.127,233.834,230.039,3.58041,228.38,213,15.0019,8.3244,0.40625,12183
-2.86069e-07,4.79225e-08,-2.56932e-06,-9.49053e-05,-2.84691e-05,-0.00285226,225.824,231.265,-0.0210591,115.668,231.314,225.777,-0.0229426,228.619,213,15.8102,8.4849,0.40625,12184
-2.85201e-07,7.00455e-08,-2.57372e-06,-9.14387e-05,-3.35371e-05,-0.00284014,227.049,231.792,1.91398,114.981,231.865,226.987,1.90307,227.562,213,15.8905,7.76026,0.40625,12185
-3.73361e-07,-2.02938e-08,-2.58272e-06,-0.000110812,-2.29979e-05,-0.00282988,225.589,232.782,2.88062,114.983,232.837,225.543,2.87133,226.407,213,16.6383,11.1665,0.40625,12186
-3.70267e-07,5.10091e-08,-2.58287e-06,-0.00011293,-2.87866e-05,-0.00285767,222.223,229.114,-2.5883,115.891,229.189,222.153,-2.59348,228.346,213,16.6344,8.33439,0.40625,12187
1.71518e-07,5.86238e-08,-2.57973e-06,-6.39299e-05,-3.09523e-05,-0.00287255,229.094,231.795,-0.949268,116.377,231.804,229.087,-0.951018,231.408,213,5.71571,8.1608,0.40625,12188
2.24794e-07,7.4003e-08,-2.57451e-06,-7.64038e-05,-3.41714e-05,-0.00285861,227.916,231.375,0.0360447,115.676,231.388,227.904,0.0352848,229.63,213,4.9355,7.66338,0.40625,12189
2.18827e-07,5.26274e-08,-2.57338e-06,-7.5764e-05,-2.99289e-05,-0.00285287,228.919,232.674,1.45754,115.612,232.681,228.912,1.45716,229.363,213,5.04309,8.3401,0.40625,12190
4.70123e-08,2.34492e-07,-2.57455e-06,-3.03845e-05,-8.03999e-05,-0.00286501,231.094,226.998,-1.07914,116.09,231.101,226.992,-1.07994,230.154,213,8.35034,4.85553,0.40625,12191
7.05422e-08,-1.54236e-07,-2.5785e-06,-3.63286e-05,-5.71823e-05,-0.00286516,232.14,230.432,0.441293,115.862,232.166,230.407,0.440721,230.851,213,7.65149,14.7879,0.40625,12192
9.26301e-08,-2.1737e-07,-2.57756e-06,-4.11329e-05,-7.96082e-05,-0.0028701,228.868,225.717,-2.84159,115.872,228.896,225.696,-2.84813,230.161,213,7.0151,15.7461,0.40625,12193
6.40646e-08,-2.56555e-07,-2.57841e-06,-3.44435e-05,-8.96055e-05,-0.00285073,230.853,226.335,0.181602,115.346,230.872,226.317,0.18049,228.448,213,7.73164,16.1657,0.40625,12194
2.58954e-07,-5.56668e-08,-2.575e-06,-8.78868e-05,-3.07935e-05,-0.00285387,226.674,231.351,0.122783,115.617,231.355,226.67,0.122063,228.927,213,4.53474,12.5172,0.40625,12195
1.03591e-07,-1.60268e-07,-2.57805e-06,-4.5034e-05,-5.88796e-05,-0.00285453,231.446,230.312,1.33124,115.076,231.482,230.278,1.32936,229.553,213,6.83287,14.9267,0.40625,12196
-3.55093e-08,-4.19688e-08,-2.58679e-06,-2.98311e-05,-2.88273e-05,-0.00288298,234.195,234.277,0.504202,116.897,234.298,234.176,0.502843,233.734,213,11.2609,11.9786,0.40625,12197
3.32731e-08,4.05982e-07,-2.57046e-06,-2.71383e-05,-0.000131558,-0.00283794,229.495,220.942,-0.727209,115.112,229.497,220.94,-0.727403,226.067,213,8.77873,3.22523,0.40625,12198
-6.82079e-08,-3.21712e-08,-2.58609e-06,-3.70787e-05,-2.77185e-05,-0.00288695,232.697,233.464,-0.725284,117.097,233.467,232.695,-0.72711,233.809,213,12.2327,11.6359,0.40625,12199
-1.03895e-07,-3.54597e-08,-2.5844e-06,-4.42363e-05,-2.83317e-05,-0.00288208,231.852,233.155,-0.584607,116.873,233.16,231.848,-0.585269,233.092,213,13.1169,11.7727,0.40625,12200
-1.18247e-06,3.69802e-07,-2.4559e-06,-0.000864404,-0.000118904,-0.00239999,126.323,187.384,0.549781,93.4544,187.428,126.309,0.519731,165.066,213,19.4443,3.18494,0.401875,12201
-6.90745e-08,5.83596e-07,-2.58624e-06,-3.42117e-05,-0.000221942,-0.00278109,225.283,209.907,0.296569,112.496,225.289,209.901,0.296462,217.707,213,12.4853,2.23314,0.40625,12202
-7.55598e-08,7.68601e-07,-2.60422e-06,-3.40682e-05,-0.000271084,-0.00277627,221.342,201.929,-3.26158,112.315,221.363,201.913,-3.26666,215.564,213,12.6898,1.52654,0.40625,12203
-4.97615e-08,7.39432e-07,-2.60957e-06,-2.8311e-05,-0.000246192,-0.0027772,224.472,206.626,-0.678801,112.577,224.474,206.624,-0.678846,216.78,213,11.8734,1.6251,0.40625,12204
9.52293e-07,1.29506e-06,-2.41508e-06,-0.000544893,-0.00105414,-0.0020714,126.803,85.093,1.77274,62.7201,127.048,85.0135,1.60752,110.586,213,0.828946,0.484385,0.401875,12205
-1.62907e-07,1.64652e-07,-2.57829e-06,-5.91566e-05,-5.83153e-05,-0.00285665,228.887,228.956,-0.244443,114.705,229.165,228.678,-0.244453,229.166,213,14.3936,5.7321,0.40625,12206
-2.5203e-07,9.93436e-08,-2.57389e-06,-8.25551e-05,-4.14821e-05,-0.00285074,226.912,230.277,0.181361,115.055,230.289,226.902,0.179139,228.435,213,15.5727,6.98464,0.40625,12207
-3.36227e-08,1.04776e-07,-2.58565e-06,-2.92327e-05,-4.26614e-05,-0.00287957,233.365,232.265,-0.094824,116.731,233.366,232.264,-0.0949575,232.912,213,11.2388,7.01544,0.40625,12208
-1.36936e-08,8.55934e-08,-2.586e-06,-2.87267e-05,-3.79512e-05,-0.00287976,233.857,233.101,0.339913,116.759,233.857,233.102,0.338967,233.141,213,10.5391,7.48564,0.40625,12209
-1.85008e-08,5.68792e-08,-2.58635e-06,-2.99776e-05,-3.03759e-05,-0.00288345,233.99,233.957,0.273193,116.869,234.01,233.94,0.270619,233.704,213,10.6898,8.32525,0.40625,12210
-4.46388e-08,1.43687e-07,-2.58392e-06,-3.02276e-05,-5.48655e-05,-0.00287297,232.693,230.675,-0.144741,116.421,232.697,230.671,-0.144819,231.835,213,11.6119,6.20606,0.40625,12211
-1.35487e-08,1.26128e-07,-2.58465e-06,-2.78877e-05,-4.97776e-05,-0.00287634,233.248,231.455,-0.0572303,116.653,233.248,231.455,-0.0573725,232.414,213,10.5383,6.56157,0.40625,12212
4.88636e-08,7.45884e-07,-2.61637e-06,-2.65661e-05,-0.000252133,-0.00277513,224.425,205.95,-0.698841,112.563,224.426,205.949,-0.698936,216.479,213,8.25629,1.62949,0.40625,12213
6.56472e-08,5.5267e-07,-2.59074e-06,-3.28121e-05,-0.000218436,-0.00279072,224.974,209.771,-0.915838,112.947,224.978,209.768,-0.916106,218.686,213,7.72035,2.37049,0.40625,12214
4.71054e-08,5.20984e-08,-2.58652e-06,-3.13925e-05,-2.9677e-05,-0.0028865,233.537,233.677,-0.314221,117.012,233.707,233.509,-0.316361,233.924,213,8.48621,8.46662,0.40625,12215
9.89463e-08,-6.07496e-08,-2.58509e-06,-4.29601e-05,-3.12625e-05,-0.00287732,232.234,233.192,0.0824449,116.56,233.203,232.223,0.0824205,232.632,213,7.07175,12.605,0.40625,12216
1.30045e-06,-7.25104e-07,-2.44215e-06,-0.00109588,-0.000460891,-0.00209357,83.471,135.481,1.75419,67.0786,135.797,83.2687,1.64015,117.091,213,0.367583,18.5281,0.410625,12217
2.61388e-07,9.51484e-08,-2.57136e-06,-8.82849e-05,-4.02335e-05,-0.00285133,225.989,229.925,-0.32096,115.13,229.937,225.978,-0.32221,228.306,213,4.46524,7.07537,0.40625,12218
3.09303e-07,6.57399e-08,-2.57045e-06,-0.000104104,-3.21735e-05,-0.00285463,223.703,229.595,-1.58207,115.6,229.617,223.683,-1.58392,228.292,213,4.01008,7.87709,0.40625,12219
1.6636e-07,-1.01284e-07,-2.58047e-06,-6.11077e-05,-4.01562e-05,-0.00286292,229.616,231.332,0.130486,115.613,231.357,229.591,0.130363,230.349,213,5.70645,13.7679,0.40625,12220
-1.29093e-06,-7.21269e-07,-2.42629e-06,-0.00108489,-0.000454555,-0.00210168,85.1956,136.824,1.91389,67.7606,137.237,84.9809,1.71574,118.384,213,19.7324,18.5281,0.401875,12221
4.55989e-08,-8.61045e-08,-2.5848e-06,-3.06975e-05,-3.89431e-05,-0.00287839,233.552,232.877,0.308587,116.625,233.559,232.87,0.308571,232.907,213,8.48812,13.2939,0.40625,12222
3.42073e-08,-5.80254e-08,-2.58644e-06,-2.9641e-05,-3.15186e-05,-0.00288459,233.843,233.689,0.00436958,116.92,233.845,233.688,0.00425216,233.762,213,8.86121,12.4846,0.40625,12223
-1.19736e-07,-1.38595e-08,-2.58238e-06,-5.10373e-05,-2.46397e-05,-0.00287888,231.303,233.465,-0.314391,116.892,233.47,231.299,-0.314981,232.707,213,13.4253,10.9652,0.40625,12224
-1.3204e-06,9.20279e-07,-2.4019e-06,-0.00107919,-0.000517573,-0.00206839,83.5139,129.514,2.49244,63.7285,129.816,83.3447,2.35929,111.722,213,19.7324,0.971886,0.410625,12225
-2.5868e-07,-5.46196e-08,-2.57739e-06,-8.49944e-05,-3.0466e-05,-0.00286173,226.496,230.963,-0.935361,115.953,230.969,226.492,-0.937328,229.701,213,15.6068,12.4611,0.40625,12226
-1.31129e-07,1.93081e-07,-2.57754e-06,-5.10105e-05,-6.86379e-05,-0.00284658,230.26,228.816,1.28549,114.504,230.293,228.784,1.2844,228.258,213,13.8291,5.31748,0.40625,12227
2.63543e-07,-2.0643e-07,-2.56044e-06,-9.36361e-05,-7.30544e-05,-0.00282762,224.257,225.943,0.326853,112.919,226.165,224.035,0.326845,224.781,213,4.29105,15.7297,0.40625,12228
1.84045e-07,-1.90966e-07,-2.56822e-06,-6.5903e-05,-6.97276e-05,-0.00284659,227.61,227.297,-0.144784,114.043,227.941,226.966,-0.144797,227.6,213,5.3205,15.4396,0.40625,12229
6.37222e-08,-3.90671e-07,-2.59107e-06,-3.31688e-05,-0.0001561,-0.00282205,227.688,217.619,-0.738125,114.223,227.707,217.601,-0.739128,223.565,213,7.61467,17.2669,0.40625,12230
4.26955e-08,-5.00468e-07,-2.60781e-06,-2.50304e-05,-0.000156248,-0.00282143,229.125,218.378,0.0829242,114.531,229.144,218.36,0.0825081,223.864,213,8.22659,17.8749,0.40625,12231
9.29327e-08,-4.10639e-07,-2.58983e-06,-3.92288e-05,-0.000183653,-0.00280682,225.546,213.717,-1.13657,113.364,225.59,213.673,-1.13707,221.01,213,6.79829,17.3654,0.40625,12232
6.54607e-08,-5.22266e-07,-2.60711e-06,-3.23104e-05,-0.000176712,-0.00279357,228.538,216.711,2.37374,113.116,228.575,216.705,2.34262,220.537,213,7.41021,17.9735,0.40625,12233
-9.73472e-08,-2.00582e-07,-2.5769e-06,-4.14922e-05,-7.22383e-05,-0.00285603,230.725,228.206,0.196984,115.282,230.761,228.17,0.196933,229.28,213,13.1823,15.5107,0.40625,12234
1.17937e-07,4.80652e-08,-2.58413e-06,-4.95079e-05,-2.8978e-05,-0.00287671,231.371,233.052,-0.194688,116.627,233.059,231.365,-0.195494,232.412,213,6.67466,8.5348,0.40625,12235
1.0257e-07,7.4693e-08,-2.5848e-06,-4.33548e-05,-3.61958e-05,-0.00287243,232.162,232.749,0.443544,116.162,232.768,232.144,0.442909,232.014,213,6.98309,7.72732,0.40625,12236
1.17489e-07,-1.44238e-08,-2.58453e-06,-4.97401e-05,-2.41114e-05,-0.00287882,231.578,233.677,-0.140874,116.91,233.679,231.576,-0.141545,232.777,213,6.70221,10.9708,0.40625,12237
-3.28391e-08,-2.6744e-07,-2.5793e-06,-2.73682e-05,-9.20229e-05,-0.00285275,231.668,226.373,0.252631,115.71,231.673,226.368,0.252631,228.814,213,11.3213,16.2748,0.40625,12238
-1.28227e-06,1.07367e-07,-2.48251e-06,-0.000909172,-4.00738e-05,-0.00240445,125.304,196.489,2.83149,96.8661,196.527,125.303,2.79435,169.725,213,19.5021,6.88135,0.410625,12239
-4.73516e-08,-1.66592e-08,-2.58663e-06,-3.17731e-05,-2.5144e-05,-0.00288444,234.061,234.604,0.409611,117.102,234.611,234.057,0.407413,233.927,213,11.6138,11.0334,0.40625,12240
1.68426e-07,-2.37771e-08,-2.58085e-06,-6.34924e-05,-2.48021e-05,-0.00286492,230.402,233.571,0.947889,116.313,233.574,230.401,0.946828,231.057,213,5.79145,11.3542,0.40625,12241
-7.00265e-08,2.42813e-07,-2.5749e-06,-3.58113e-05,-8.42835e-05,-0.00285601,230.622,226.652,-0.369622,115.501,230.632,226.643,-0.370664,229.034,213,12.4485,4.71214,0.40625,12242
1.33531e-07,-1.20441e-07,-2.58031e-06,-5.24561e-05,-4.65723e-05,-0.0028691,229.972,230.454,-0.728621,115.622,230.515,229.912,-0.729327,230.943,213,6.27087,14.1825,0.40625,12243
-5.17996e-08,-1.07835e-07,-2.58374e-06,-3.2154e-05,-4.44215e-05,-0.00288026,232.645,231.641,-0.632043,116.644,232.654,231.634,-0.634312,232.78,213,11.8364,13.8207,0.40625,12244
9.0688e-08,-2.82412e-07,-2.58032e-06,-3.97212e-05,-0.000103621,-0.00283634,229.982,224.748,0.921713,114.539,229.998,224.733,0.920392,226.491,213,6.99448,16.4675,0.40625,12245
-8.70867e-07,1.03842e-07,-2.56922e-06,-0.000369151,-4.16107e-05,-0.00268903,192.253,219.081,2.2411,108.445,219.107,192.252,2.21625,204.788,213,18.8545,6.8765,0.40625,12246
-1.67193e-07,5.90565e-08,-2.57813e-06,-6.23742e-05,-3.05603e-05,-0.00287979,228.749,231.354,-2.01517,116.695,231.373,228.731,-2.01675,232.08,213,14.3086,8.14584,0.40625,12247
-2.73804e-07,1.53587e-09,-2.56384e-06,-9.23797e-05,-2.45854e-05,-0.0028625,225.688,231.241,-1.20162,116.229,231.251,225.684,-1.2068,229.724,213,15.5766,10.2856,0.40625,12248
-2.04528e-07,1.37238e-09,-2.56983e-06,-7.55553e-05,-2.43516e-05,-0.00286885,228.024,232.218,-0.763631,116.492,232.22,228.024,-0.76495,230.915,213,14.7685,10.3277,0.40625,12249
-1.17433e-07,4.83177e-08,-2.5822e-06,-5.00104e-05,-2.83474e-05,-0.00286986,231.954,233.728,0.990566,116.375,233.74,231.942,0.990125,231.856,213,13.3978,8.52925,0.40625,12250
9.12472e-08,-5.69991e-07,-2.60368e-06,-3.46532e-05,-0.00023945,-0.0027728,224.382,207.608,0.110478,112.174,224.455,207.539,0.107382,216.386,213,6.63859,18.1155,0.40625,12251
4.27174e-08,-3.48967e-07,-2.58577e-06,-2.67125e-05,-0.000138255,-0.0028238,230.234,221.098,1.13561,114.553,230.239,221.094,1.13406,224.672,213,8.35182,16.9651,0.40625,12252
-3.71689e-09,-1.32532e-07,-2.58175e-06,-2.63225e-05,-5.15324e-05,-0.00287763,233.244,231.179,-0.295197,116.77,233.244,231.179,-0.295218,232.514,213,10.2005,14.3201,0.40625,12253
1.29183e-07,-2.28458e-07,-2.5739e-06,-5.17795e-05,-8.36025e-05,-0.00284898,228.575,225.969,-0.532261,114.573,228.611,225.935,-0.534236,227.819,213,6.20532,15.8911,0.40625,12254
7.68747e-08,-1.32553e-07,-2.58033e-06,-3.84043e-05,-4.94013e-05,-0.00287589,231.52,230.619,-0.887582,116.223,231.557,230.583,-0.888313,231.96,213,7.50874,14.3847,0.40625,12255
1.86692e-08,-2.0591e-08,-2.58712e-06,-3.00545e-05,-2.53355e-05,-0.00288841,233.983,234.37,-0.133849,117.255,234.373,233.983,-0.136285,234.314,213,9.41025,11.1748,0.40625,12256
-1.75768e-07,-2.40091e-08,-2.57821e-06,-6.552e-05,-2.53858e-05,-0.00286278,230.194,233.481,1.08108,116.205,233.491,230.184,1.08069,230.775,213,14.4108,11.3663,0.40625,12257
1.54423e-07,-3.36031e-09,-2.58055e-06,-5.90855e-05,-2.41033e-05,-0.00287403,230.405,233.27,-0.15684,116.714,233.271,230.405,-0.157954,232.009,213,6.03098,10.5144,0.40625,12258
-4.26088e-08,-5.07399e-07,-2.60477e-06,-2.20793e-05,-0.000160808,-0.00281981,229.367,218.004,0.215507,114.577,229.369,218.002,0.214905,223.688,213,11.8437,17.8705,0.40625,12259
1.99149e-07,2.94941e-08,-2.5744e-06,-7.17624e-05,-2.63151e-05,-0.00286307,229.015,232.738,0.38978,116.176,232.741,229.013,0.388765,230.511,213,5.33149,9.17231,0.40625,12260
-6.07943e-08,-3.6982e-07,-2.587e-06,-3.0309e-05,-0.000153379,-0.00281884,228.709,218.628,0.311059,114.211,228.73,218.61,0.30825,223.534,213,12.3796,17.1295,0.40625,12261
-3.13636e-07,1.4031e-08,-2.56338e-06,-9.3619e-05,-2.47193e-05,-0.002858,225.866,231.51,-0.553335,116.033,231.513,225.863,-0.553587,229.294,213,15.9641,9.74992,0.40625,12262
-3.5055e-07,3.16137e-08,-2.57483e-06,-0.00010478,-2.64795e-05,-0.00285413,224.142,230.556,-1.04629,115.811,230.576,224.122,-1.04661,228.464,213,16.3941,9.05752,0.40625,12263
-2.71044e-07,2.79999e-08,-2.56408e-06,-9.12522e-05,-2.64437e-05,-0.00284494,227.286,232.594,1.74164,115.445,232.625,227.26,1.73589,228.254,213,15.5699,9.20803,0.40625,12264
5.10174e-08,1.75076e-07,-2.57996e-06,-3.17174e-05,-6.41974e-05,-0.0028586,232.889,230.228,1.34956,115.775,232.897,230.222,1.34712,230.224,213,8.26359,5.67931,0.40625,12265
1.33067e-06,9.26899e-07,-2.41903e-06,-0.00108821,-0.000529217,-0.00205779,81.8732,127.658,2.45897,62.803,127.919,81.7573,2.31344,110.043,213,0.367583,0.971886,0.410625,12266
4.80878e-07,-1.1943e-08,-2.58436e-06,-0.000162031,-2.30117e-05,-0.0028248,217.265,228.652,-0.832154,114.745,228.658,217.259,-0.832434,224.009,213,2.75723,10.8265,0.40625,12267
-4.58187e-08,5.23894e-07,-2.58271e-06,-2.87018e-05,-0.000197821,-0.00279775,226.895,213.043,0.0923863,113.402,226.896,213.042,0.0920626,220.204,213,11.7482,2.5349,0.40625,12268
-9.26963e-08,4.30141e-07,-2.57347e-06,-3.96242e-05,-0.000147866,-0.00282584,226.979,218.114,-1.22868,114.11,226.987,218.11,-1.23262,223.913,213,13.1055,3.03254,0.40625,12269
-6.55878e-08,3.92032e-07,-2.57306e-06,-3.43626e-05,-0.000129578,-0.002829,229.234,221.435,0.335393,114.452,229.24,221.43,0.334943,225.101,213,12.3684,3.3343,0.40625,12270
3.52898e-08,8.36805e-08,-2.58582e-06,-2.95255e-05,-3.75161e-05,-0.00288319,233.452,232.797,-0.28076,116.87,233.458,232.792,-0.282251,233.408,213,8.83907,7.52142,0.40625,12271
-4.79322e-08,-1.48542e-07,-2.58106e-06,-3.08777e-05,-5.49142e-05,-0.00286824,233.001,231.032,0.603313,116.202,233.008,231.026,0.603016,231.42,213,11.7497,14.6445,0.40625,12272
-1.55652e-07,3.52458e-08,-2.57679e-06,-6.01935e-05,-2.6737e-05,-0.00287843,229.586,232.326,-1.24577,116.79,232.332,229.581,-1.24698,232.216,213,14.069,8.98557,0.40625,12273
-2.02566e-07,2.99506e-08,-2.56965e-06,-7.47516e-05,-2.61152e-05,-0.0028589,228.894,232.878,0.855343,116.017,232.889,228.885,0.85391,230.059,213,14.7624,9.16412,0.40625,12274
1.23645e-07,7.39877e-08,-2.58362e-06,-5.02303e-05,-3.58135e-05,-0.00287057,231.184,232.365,0.180684,116.1,232.38,231.169,0.180571,231.596,213,6.53365,7.72948,0.40625,12275
4.00655e-09,2.10795e-07,-2.57677e-06,-2.59448e-05,-7.44349e-05,-0.00285727,233.081,229.11,1.1783,115.951,233.081,229.11,1.1783,229.943,213,9.89947,5.17991,0.40625,12276
2.77057e-08,1.85688e-07,-2.57841e-06,-2.87726e-05,-6.67229e-05,-0.00285867,233.161,230.053,1.37519,115.895,233.163,230.052,1.37418,230.249,213,9.03771,5.53116,0.40625,12277
2.39188e-08,1.29608e-07,-2.58317e-06,-2.88043e-05,-5.08309e-05,-0.00287222,233.365,231.561,0.471773,116.449,233.368,231.559,0.470777,231.998,213,9.19515,6.49137,0.40625,12278
1.4474e-08,1.02878e-07,-2.58508e-06,-2.8173e-05,-4.39554e-05,-0.00288277,233.144,231.852,-0.665177,116.906,233.145,231.851,-0.665811,233.167,213,9.54216,7.0575,0.40625,12279
3.98551e-09,1.54942e-07,-2.58204e-06,-2.69101e-05,-5.74531e-05,-0.00287339,232.993,230.491,-0.152069,116.573,232.993,230.491,-0.152105,231.904,213,9.89824,6.02744,0.40625,12280
1.55152e-07,3.47165e-08,-2.5802e-06,-5.90268e-05,-2.71665e-05,-0.00286971,230.528,233.137,0.315382,116.413,233.14,230.526,0.314148,231.53,213,6.00412,8.99301,0.40625,12281
1.5041e-07,8.71552e-08,-2.58138e-06,-5.81376e-05,-3.83727e-05,-0.00287028,229.627,231.246,-0.705111,115.986,231.267,229.607,-0.705558,231.147,213,6.02414,7.35332,0.40625,12282
1.39663e-08,-4.34794e-08,-2.58691e-06,-2.89962e-05,-2.91484e-05,-0.00288615,234.027,234.014,0.00838251,117.013,234.034,234.008,0.00743893,234.014,213,9.56095,12.0144,0.40625,12283
1.39606e-08,-7.35116e-08,-2.58584e-06,-2.83444e-05,-3.57878e-05,-0.00288333,233.796,233.186,-0.0454977,116.921,233.796,233.186,-0.0456598,233.537,213,9.56167,12.9384,0.40625,12284
1.80438e-08,9.31249e-10,-2.58702e-06,-2.99936e-05,-2.57856e-05,-0.00288865,233.933,234.277,-0.208909,117.243,234.277,233.933,-0.209354,234.315,213,9.43243,10.3286,0.40625,12285
-7.59333e-08,2.10901e-07,-2.57743e-06,-3.77513e-05,-7.28243e-05,-0.00285029,231.826,228.954,1.46193,115.188,231.838,228.943,1.46099,228.943,213,12.5913,5.11534,0.40625,12286
-1.02468e-07,2.52178e-07,-2.57385e-06,-4.39672e-05,-8.72053e-05,-0.00285314,229.219,225.678,-0.869449,115.05,229.229,225.669,-0.871115,228.341,213,13.2671,4.57334,0.40625,12287
-9.29545e-08,3.3604e-07,-2.57185e-06,-4.04482e-05,-0.000116286,-0.00281047,231.038,224.826,4.15569,113.452,231.052,224.819,4.14881,223.852,213,13.0849,3.75395,0.40625,12288
-1.29345e-07,3.51543e-07,-2.56447e-06,-5.05939e-05,-0.000121153,-0.00282696,227.389,221.609,-0.0129486,113.711,227.406,221.595,-0.0164637,224.574,213,13.8947,3.60886,0.40625,12289
6.75463e-08,7.0892e-08,-2.58597e-06,-3.64385e-05,-3.49758e-05,-0.00287882,232.885,233.005,0.0765033,116.478,233.032,232.86,0.0747285,232.871,213,7.86731,7.86411,0.40625,12290
-1.75775e-07,2.25155e-07,-2.5727e-06,-6.22021e-05,-8.09782e-05,-0.0028376,228.042,226.504,0.720358,113.701,228.123,226.423,0.720348,226.557,213,14.6413,4.84287,0.40625,12291
-7.38113e-08,1.49428e-07,-2.58244e-06,-3.69815e-05,-5.59849e-05,-0.00286934,231.76,230.204,-0.227298,116.003,231.778,230.187,-0.227945,231.214,213,12.4881,6.07336,0.40625,12292
-1.58454e-07,-2.67111e-09,-2.57684e-06,-6.16281e-05,-2.43759e-05,-0.00286713,230.563,233.614,0.77531,116.421,233.616,230.563,0.773913,231.33,213,14.0959,10.507,0.40625,12293
-1.0332e-07,8.2786e-07,-2.59748e-06,-3.70831e-05,-0.000337879,-0.00271169,220.627,195.99,1.55964,109.549,220.652,195.971,1.55361,207.86,213,13.4614,1.38446,0.40625,12294
-1.81485e-07,2.95802e-07,-2.56085e-06,-6.32533e-05,-0.000101835,-0.00282623,227.013,223.853,0.708103,113.193,227.093,223.773,0.708101,224.743,213,14.7795,4.06043,0.40625,12295
1.32836e-06,1.08922e-07,-2.44805e-06,-0.000981511,-3.17779e-05,-0.00237752,116.06,193.849,1.71802,96.1239,193.908,116.058,1.66039,167.491,213,0.547658,6.82014,0.401875,12296
1.29564e-06,-7.24572e-07,-2.4238e-06,-0.00108812,-0.000458127,-0.00209446,84.9684,136.569,2.54344,67.3238,136.979,84.7707,2.33127,117.584,213,0.367583,18.5281,0.401875,12297
-1.2537e-07,-3.50742e-08,-2.58294e-06,-5.1159e-05,-2.80863e-05,-0.0028732,231.481,233.371,0.338648,116.52,233.378,231.474,0.3385,232.093,213,13.5664,11.7705,0.40625,12298
-1.06823e-07,-1.41511e-07,-2.57988e-06,-4.43872e-05,-5.19219e-05,-0.00286576,231.175,230.558,0.0868383,115.584,231.255,230.478,0.0868276,230.781,213,13.321,14.5625,0.40625,12299
-7.40351e-08,-1.35802e-07,-2.58144e-06,-3.72979e-05,-5.05954e-05,-0.00287606,231.587,230.498,-0.924602,116.266,231.608,230.477,-0.924709,231.969,213,12.5038,14.4219,0.40625,12300
-7.55034e-08,-1.55165e-07,-2.57995e-06,-3.74128e-05,-5.71633e-05,-0.00287044,231.483,229.865,-0.55929,116.032,231.504,229.844,-0.559508,231.238,213,12.5668,14.785,0.40625,12301
-6.59871e-07,-1.05505e-08,-2.60832e-06,-0.000252873,-2.26364e-05,-0.00272675,210.503,229.361,7.87757,110.846,229.467,210.499,7.77497,212.843,213,18.3166,10.8146,0.40625,12302
-8.82891e-07,-6.14524e-08,-2.57352e-06,-0.000365251,-3.5714e-05,-0.00271791,190.865,217.856,-1.83201,109.851,217.867,190.856,-1.83456,207.519,213,18.8545,12.6235,0.40625,12303
-9.72795e-08,1.08161e-07,-2.58351e-06,-4.21944e-05,-4.32369e-05,-0.00287173,231.794,231.709,0.0374578,115.939,231.916,231.587,0.0374323,231.714,213,13.0293,6.8953,0.40625,12304
-3.52203e-07,-3.26688e-09,-2.57451e-06,-0.000103179,-2.39681e-05,-0.002836,226.264,232.752,2.42904,115.177,232.771,226.257,2.41667,227.168,213,16.394,10.4424,0.40625,12305
-1.45156e-08,-5.64046e-08,-2.58654e-06,-2.85724e-05,-3.25604e-05,-0.00288467,233.926,233.599,-0.00678953,116.968,233.929,233.596,-0.00722048,233.77,213,10.5578,12.4425,0.40625,12306
-3.80535e-09,-9.37945e-08,-2.58479e-06,-2.739e-05,-4.00929e-05,-0.00288117,233.768,232.727,0.0258966,116.871,233.768,232.727,0.0258873,233.223,213,10.2018,13.4726,0.40625,12307
-2.41171e-08,-7.5808e-08,-2.5857e-06,-2.92234e-05,-3.62954e-05,-0.00288286,233.642,233.063,-0.0880253,116.868,233.647,233.058,-0.088489,233.442,213,10.9049,13.0086,0.40625,12308
-8.85382e-07,-1.04354e-06,-2.50638e-06,-0.000532656,-0.0010148,-0.00208867,130.874,91.3829,3.42633,64.0334,131.355,91.0394,3.28858,113.417,213,19.2711,19.0156,0.410625,12309
-1.50994e-08,-2.94038e-08,-2.58709e-06,-2.89859e-05,-2.57594e-05,-0.00288782,234.182,234.446,0.0258354,117.213,234.45,234.18,0.024641,234.29,213,10.5571,11.5184,0.40625,12310
-2.09005e-07,-6.69389e-08,-2.58018e-06,-7.11047e-05,-3.3758e-05,-0.00286159,228.594,231.653,0.0358494,115.816,231.666,228.582,0.0347043,230.105,213,14.9946,12.8375,0.40625,12311
-1.53702e-07,-4.63253e-08,-2.5817e-06,-5.86209e-05,-2.92682e-05,-0.00286954,230.425,232.829,0.193623,116.324,232.841,230.413,0.193486,231.443,213,14.1024,12.1737,0.40625,12312
1.51278e-08,6.77473e-08,-2.58629e-06,-2.87711e-05,-3.20697e-05,-0.00288591,233.825,233.555,-0.192155,117.011,233.829,233.553,-0.19344,233.884,213,9.54289,7.98156,0.40625,12313
-1.29553e-06,-7.21792e-07,-2.44466e-06,-0.00109204,-0.000457002,-0.00209222,84.5987,136.612,2.67743,67.2016,136.964,84.3638,2.56057,117.309,213,19.7324,18.5281,0.410625,12314
-1.41649e-07,2.63933e-07,-2.57122e-06,-5.42248e-05,-9.201e-05,-0.00284256,227.978,224.883,-0.403843,114.206,228.008,224.854,-0.404545,226.852,213,14.0769,4.42825,0.40625,12315
-8.83731e-07,-1.04044e-06,-2.48802e-06,-0.000529482,-0.00100904,-0.00209882,131.026,91.7468,2.48663,64.6523,131.572,91.4198,2.26749,114.63,213,19.2711,19.0156,0.401875,12316
1.33108e-06,1.09079e-07,-2.46913e-06,-0.000985468,-3.19288e-05,-0.0023745,115.638,193.739,1.86749,95.981,193.785,115.636,1.82307,167.198,213,0.548396,6.81497,0.410625,12317
-1.3298e-06,-8.39917e-08,-2.44838e-06,-0.000920739,-4.83923e-05,-0.00240455,122.57,194.02,1.03672,96.509,194.038,122.569,1.02003,169.024,213,19.5523,13.1674,0.40625,12318
-2.79709e-08,-1.15036e-07,-2.58342e-06,-2.94594e-05,-4.58971e-05,-0.00288084,232.924,231.577,-0.621684,116.775,232.927,231.575,-0.622803,232.877,213,11.0623,13.9688,0.40625,12319
-4.87376e-07,-1.06669e-08,-2.59821e-06,-0.000159077,-2.23329e-05,-0.00293215,208.227,219.428,-18.9045,119.536,219.81,208.203,-19.2628,233.486,213,17.4447,10.7802,0.40625,12320
-6.04897e-07,1.36902e-08,-2.60565e-06,-0.00017224,-2.34447e-05,-0.00281002,216.799,228.987,0.749054,114.122,228.988,216.803,0.744072,222.402,213,18.0655,9.75,0.40625,12321
1.32517e-06,9.2519e-07,-2.40095e-06,-0.00107906,-0.000524448,-0.00207072,82.7111,128.138,1.48824,63.5226,128.378,82.6267,1.33268,111.45,213,0.367583,0.971886,0.401875,12322
-1.18571e-06,3.6979e-07,-2.47687e-06,-0.000868292,-0.000118552,-0.00239611,126.035,187.444,0.897208,93.3053,187.484,126.019,0.873088,164.716,213,19.4443,3.18494,0.410625,12323
-6.55059e-07,4.00372e-08,-2.60944e-06,-0.000246714,-2.56946e-05,-0.00281322,203.548,221.651,-6.66496,114.215,221.708,203.548,-6.72148,219.912,213,18.3166,8.68537,0.40625,12324
9.58012e-08,2.97268e-07,-2.57133e-06,-4.12172e-05,-0.000101701,-0.0028508,228.603,223.649,-1.51842,115.067,228.616,223.636,-1.51843,227.685,213,6.9614,4.11832,0.40625,12325
9.54412e-07,1.30005e-06,-2.43317e-06,-0.000550059,-0.00106252,-0.00205627,126.521,84.5467,3.15271,61.8922,126.788,84.4283,3.00378,108.965,213,0.828946,0.484385,0.410625,12326
-4.86645e-07,3.93607e-08,-2.5986e-06,-0.000159671,-2.61506e-05,-0.00273861,225.1,236.036,13.8685,111.396,236.361,225.074,13.5694,217.368,213,17.4447,8.71985,0.40625,12327
-1.29213e-06,-6.66485e-08,-2.46704e-06,-0.000897632,-2.97868e-05,-0.00243936,125.08,196.162,-1.19675,98.6923,196.173,125.084,-1.21192,173.155,213,19.5021,12.6186,0.401875,12328
1.0568e-07,2.23409e-07,-2.57547e-06,-4.344e-05,-7.66447e-05,-0.00285381,230.195,227.475,0.0077874,115.108,230.224,227.446,0.00777699,228.84,213,6.77903,4.93751,0.40625,12329
1.56985e-08,4.1977e-08,-2.58665e-06,-2.90278e-05,-2.93065e-05,-0.00288468,234.138,234.115,0.241685,116.953,234.147,234.107,0.240968,233.886,213,9.52071,8.82774,0.40625,12330
-1.56749e-08,-7.72427e-09,-2.587e-06,-2.9176e-05,-2.59888e-05,-0.00288991,233.942,234.203,-0.37004,117.287,234.204,233.942,-0.370666,234.444,213,10.5793,10.6723,0.40625,12331
7.30843e-08,2.15427e-07,-2.57693e-06,-3.70963e-05,-7.39413e-05,-0.00285521,231.398,228.381,0.577322,115.417,231.411,228.368,0.577217,229.327,213,7.59616,5.07807,0.40625,12332
1.01364e-07,-9.46353e-08,-2.58303e-06,-4.45896e-05,-4.05326e-05,-0.00287624,231.222,231.555,-0.707114,116.163,231.618,231.159,-0.707428,232.096,213,6.96755,13.5627,0.40625,12333
-1.31536e-06,9.18731e-07,-2.38374e-06,-0.00107182,-0.000513916,-0.00208042,84.0275,129.723,1.41719,64.3788,130.014,83.8969,1.25658,112.993,213,19.7324,0.971886,0.401875,12334
-1.79588e-08,3.234e-08,-2.58667e-06,-3.00127e-05,-2.78428e-05,-0.00288448,234.118,234.296,0.319031,116.989,234.297,234.117,0.318495,233.889,213,10.6676,9.17142,0.40625,12335
2.08228e-07,1.14699e-07,-2.57589e-06,-7.29562e-05,-4.63642e-05,-0.00285056,228.136,230.314,0.633606,114.854,230.342,228.109,0.6332,228.6,213,5.10541,6.66246,0.40625,12336
-4.27711e-07,2.18801e-08,-2.58752e-06,-0.000138751,-2.51379e-05,-0.00279702,223.55,232.856,5.82145,113.57,232.912,223.545,5.77079,222.605,213,17.0148,9.41225,0.40625,12337
1.16616e-06,4.39094e-07,-2.47474e-06,-0.000834465,-0.000158917,-0.00240193,127.7,183.032,-0.685328,91.8859,183.059,127.7,-0.712639,163.289,213,0.656279,2.69678,0.40625,12338
-2.36407e-07,1.604e-08,-2.56529e-06,-8.62737e-05,-2.39451e-05,-0.00285846,227.153,232.258,0.093406,116.084,232.261,227.15,0.0933811,229.655,213,15.1566,9.70601,0.40625,12339
5.82254e-07,7.16042e-08,-2.59876e-06,-0.000231127,-3.37227e-05,-0.00277448,208.968,225.137,0.651977,112.244,225.138,208.968,0.651039,216.855,213,2.19074,7.65484,0.40625,12340
2.02975e-07,-8.36005e-07,-2.56398e-06,-7.61399e-05,-0.000675099,-0.00251845,201.052,151.993,1.01179,100.118,201.206,151.881,0.969767,180.695,213,4.50329,18.6504,0.40625,12341
2.37236e-07,1.11327e-06,-2.51698e-06,-8.26244e-05,-0.000727984,-0.00250489,196.422,143.563,-1.97637,99.2371,196.491,143.501,-1.98335,177.997,213,4.50329,0.849583,0.40625,12342
3.86891e-07,-7.93705e-07,-2.5762e-06,-0.000159196,-0.000682475,-0.00247601,189.955,147.095,0.19309,94.9161,189.99,147.095,0.157774,172.434,213,2.65784,18.6504,0.40625,12343
1.28131e-06,-7.87474e-08,-2.47596e-06,-0.000914729,-3.56477e-05,-0.0024291,122.543,194.545,-1.49311,98.0594,194.606,122.503,-1.51327,171.816,213,0.596249,13.0984,0.40625,12344
1.2303e-06,3.56562e-08,-2.47783e-06,-0.000854511,-2.10846e-05,-0.00246392,131.051,199.314,-0.769709,100.07,199.346,131.044,-0.794865,176.214,213,0.710212,9.05786,0.40625,12345
-1.16859e-06,4.36395e-07,-2.47836e-06,-0.000847899,-0.000155375,-0.00239775,126.089,182.811,-0.854012,91.8657,182.848,126.082,-0.88374,162.941,213,19.4443,2.69744,0.40625,12346
-1.17408e-06,-3.16642e-07,-2.47866e-06,-0.000822111,-0.00012031,-0.00242766,130.97,188.451,-0.53476,94.5137,188.472,130.969,-0.555172,167.834,213,19.4443,16.8026,0.40625,12347
1.30283e-06,1.254e-07,-2.4652e-06,-0.000941883,-4.67752e-05,-0.00240382,119.156,192.471,-0.585333,96.5692,192.525,119.129,-0.613001,168.86,213,0.547658,6.33264,0.40625,12348
1.07999e-06,-1.64839e-07,-2.52413e-06,-0.000781495,-5.62876e-05,-0.00247523,139.403,198.802,0.67537,99.1171,198.898,139.319,0.663658,176.17,213,0.841592,14.9984,0.40625,12349
6.18825e-07,-5.79897e-08,-2.59159e-06,-0.000265774,-3.04038e-05,-0.00275502,205.068,224.346,1.18356,111.585,224.351,205.065,1.18171,214.178,213,2.07678,12.5515,0.40625,12350
-1.25283e-06,1.23472e-06,-2.30483e-06,-0.00092284,-0.000908147,-0.00196365,84.7338,85.9372,-0.515031,45.5376,90.3525,80.5262,-0.722741,86.5813,213,19.7324,0.484385,0.40625,12351
1.19594e-06,-1.0139e-06,-2.41632e-06,-0.0009364,-0.000861876,-0.00198021,85.0684,91.1724,-0.42588,47.3787,94.1051,82.3621,-0.652249,89.4657,213,0.367583,19.0156,0.40625,12352
-9.26064e-07,-7.06533e-07,-2.55928e-06,-0.000492409,-0.000386615,-0.00244783,161.842,170.507,1.68084,84.8814,171.406,160.981,1.64288,164.798,213,19.2648,18.5312,0.40625,12353
-1.19081e-06,-1.00857e-06,-2.42038e-06,-0.000932094,-0.000861578,-0.00198404,85.4901,91.2658,-0.67114,47.7065,94.5863,82.3253,-0.826818,89.9118,213,19.7324,19.0156,0.40625,12354
-1.25977e-06,-2.8282e-09,-2.46456e-06,-0.000856885,-2.56618e-05,-0.00252805,124.497,192.579,-12.3815,102.564,192.663,124.496,-12.4647,180.945,213,19.3838,10.4354,0.40625,12355
-1.25464e-06,3.30128e-08,-2.4645e-06,-0.000856698,-2.80484e-05,-0.00242381,133.641,201.513,5.28457,98.4201,201.82,133.639,4.97975,173.13,213,19.3838,9.06465,0.40625,12356
1.31876e-06,9.45752e-08,-2.46307e-06,-0.000945277,-3.57713e-05,-0.00240794,119.19,193.684,-0.611075,97.197,193.743,119.171,-0.651129,169.864,213,0.548396,7.30247,0.40625,12357
-1.10409e-06,-1.26274e-07,-2.52001e-06,-0.000778847,-4.24606e-05,-0.00248916,139.847,200.161,-0.238353,100.232,200.21,139.815,-0.254969,178.12,213,19.2584,14.0234,0.40625,12358
-4.49911e-07,1.87071e-07,-2.57233e-06,-0.00016615,-6.44988e-05,-0.00279776,215.267,223.593,-0.277981,111.966,223.653,215.208,-0.278697,219.831,213,17.2754,5.18998,0.40625,12359
3.43594e-07,-1.65239e-07,-2.56342e-06,-0.000114161,-5.95941e-05,-0.00282168,222.475,226.944,0.712325,113.147,227.007,222.412,0.712279,224.033,213,3.58023,15.1536,0.40625,12360
4.60729e-07,-1.21493e-07,-2.5753e-06,-0.000170443,-4.50704e-05,-0.00280714,215.43,225.699,-0.531755,113.121,225.709,215.42,-0.53182,221.276,213,2.82458,14.307,0.40625,12361
1.34192e-06,7.33591e-07,-2.45525e-06,-0.00103028,-0.000311735,-0.00221983,96.762,155.615,-0.669132,78.2667,155.794,96.6542,-0.739841,136.905,213,0.367583,1.45939,0.40625,12362
9.61406e-07,9.28228e-07,-2.56256e-06,-0.000498155,-0.000478616,-0.00239781,157.101,158.701,1.50766,79.0027,159.477,156.361,1.47141,156.471,213,0.835166,0.968771,0.40625,12363
7.30344e-07,-5.12669e-07,-2.61568e-06,-0.000377739,-0.000253345,-0.00259131,180.58,190.769,-0.724832,95.8421,190.959,180.39,-0.724872,186.624,213,1.31519,18.0531,0.40625,12364
-1.33141e-06,7.31725e-07,-2.43911e-06,-0.00101785,-0.000305363,-0.0022297,98.5785,156.936,-0.679551,78.9396,157.124,98.4668,-0.755489,138.224,213,19.7324,1.45939,0.40625,12365
-1.33278e-06,-5.63818e-07,-2.43799e-06,-0.00101392,-0.000248512,-0.00226142,101.502,164.194,-0.675798,82.6104,164.476,101.288,-0.74451,144.398,213,19.7324,18.0406,0.40625,12366
-2.80569e-07,-7.71894e-07,-2.57029e-06,-8.18315e-05,-0.00077007,-0.00246892,196.01,139.639,0.492371,97.7984,196.056,139.626,0.459255,174.37,213,16.5194,18.6504,0.40625,12367
3.36482e-07,2.55555e-07,-2.56305e-06,-0.000110636,-8.99361e-05,-0.00281206,221.225,222.921,-0.0380108,111.593,223.148,220.998,-0.0380609,222.119,213,3.58023,4.34639,0.40625,12368
-4.15246e-07,-4.213e-07,-2.602e-06,-0.000162581,-0.000136679,-0.00276613,212.25,214.371,-0.997108,108.432,215.867,210.755,-0.997986,214.355,213,17.4173,17.6879,0.40625,12369
4.26504e-07,6.21313e-07,-2.59966e-06,-0.000157835,-0.00021606,-0.00272761,209.408,204.639,-1.07293,105.635,210.194,203.854,-1.07465,208.171,213,2.68271,1.81212,0.40625,12370
-7.51241e-07,1.41894e-07,-2.58534e-06,-0.000297995,-5.22802e-05,-0.00270676,201.907,222.032,4.61401,108.825,222.162,201.878,4.51272,208.25,213,18.5605,6.02043,0.40625,12371
-5.25731e-07,-2.28354e-07,-2.58373e-06,-0.000224765,-7.41513e-05,-0.00275543,208.145,220.482,0.868487,109.817,220.501,208.127,0.867526,213.715,213,17.7471,16.0696,0.40625,12372
7.62507e-07,1.29148e-06,-2.4851e-06,-0.000340516,-0.000974028,-0.0022348,154.377,102.488,-0.776483,77.6895,154.54,102.388,-0.839403,136.964,213,1.29031,0.484385,0.40625,12373
-7.00487e-07,-1.0222e-06,-2.55037e-06,-0.000326496,-0.000917346,-0.0022727,158.46,110.065,-0.946404,79.9389,158.86,109.735,-1.01736,141.846,213,18.8097,19.0156,0.40625,12374
7.89165e-07,-2.39682e-07,-2.58269e-06,-0.000276731,-6.9503e-05,-0.0027351,201.474,218.448,0.118841,109.167,218.451,201.473,0.116997,210.359,213,1.41135,16.055,0.40625,12375
6.88268e-07,-3.03383e-07,-2.60054e-06,-0.00025685,-0.000106688,-0.00273404,201.649,213.948,-1.24815,107.82,214.391,201.208,-1.25001,209.361,213,1.60328,16.815,0.40625,12376
-6.88252e-07,-3.00511e-07,-2.60127e-06,-0.000260777,-0.000102136,-0.00273205,201.561,214.555,-0.851311,107.906,214.958,201.161,-0.853617,209.254,213,18.4967,16.815,0.40625,12377
-6.73071e-07,4.33857e-07,-2.6025e-06,-0.000242048,-0.000153977,-0.00271326,201.814,209.027,-0.594138,105.065,209.533,201.309,-0.595926,206.14,213,18.4967,2.68498,0.40625,12378
6.9802e-07,2.57154e-07,-2.60046e-06,-0.000226397,-8.92921e-05,-0.00275322,206.709,217.938,-0.253661,109.099,217.943,206.705,-0.254335,212.801,213,1.6089,4.26135,0.40625,12379
1.17181e-06,-3.17761e-07,-2.47923e-06,-0.000829553,-0.000119865,-0.00242199,130.242,188.369,-0.188565,94.2925,188.383,130.242,-0.202347,167.273,213,0.655674,16.8026,0.40625,12380
-1.16849e-06,3.20617e-07,-2.47081e-06,-0.000850489,-9.49242e-05,-0.00242618,128.51,190.395,-0.549546,95.4988,190.429,128.494,-0.568186,168.78,213,19.4443,3.67244,0.40625,12381
1.01988e-06,-4.21311e-07,-2.53957e-06,-0.000729797,-0.000170606,-0.00244055,141.137,186.938,1.01625,93.0124,187.018,141.08,0.993453,167.839,213,0.847604,17.5625,0.40625,12382
-3.3612e-07,4.74119e-07,-2.56096e-06,-0.000106379,-0.000181255,-0.00276471,218.021,211.888,0.28762,108.94,218.168,211.742,0.286636,214.74,213,16.6676,2.55757,0.40625,12383
3.21341e-08,-8.62029e-07,-2.57713e-06,-1.90011e-05,-0.000771273,-0.00249202,204.603,142.988,2.04768,101.615,204.968,142.934,1.73686,180.399,213,8.64142,18.6863,0.40625,12384
-4.02659e-08,1.1676e-06,-2.52386e-06,-2.22328e-05,-0.000840643,-0.00251057,196.183,129.15,-7.62709,102.017,196.316,129.108,-7.71792,180.094,213,11.4586,0.813717,0.40625,12385
-3.31292e-08,-8.58679e-07,-2.57552e-06,-1.0585e-05,-0.00077413,-0.00249721,205.326,142.787,1.65563,102.123,205.694,142.627,1.44805,181.142,213,11.4289,18.6819,0.40625,12386
4.00732e-08,1.1632e-06,-2.52073e-06,-1.62591e-05,-0.00083887,-0.00250576,197.796,130.419,-6.10957,102.056,197.962,130.293,-6.14955,180.08,213,8.67112,0.818111,0.40625,12387
-1.2629e-06,1.26988e-07,-2.46867e-06,-0.000903044,-4.49475e-05,-0.00244142,122.612,192.895,-3.3906,98.1481,192.905,122.602,-3.39068,172.263,213,19.5021,6.39386,0.40625,12388
-1.28332e-06,-8.1632e-08,-2.46529e-06,-0.000899987,-3.16399e-05,-0.00243946,124.501,195.624,-1.59097,98.7236,195.739,124.504,-1.7086,173.19,213,19.5021,13.1061,0.40625,12389
1.336e-06,-5.66108e-07,-2.43866e-06,-0.00101737,-0.00024928,-0.00225988,100.98,163.891,-0.789647,82.478,164.119,100.799,-0.836677,144.135,213,0.367583,18.0406,0.40625,12390
6.88347e-08,-9.02161e-08,-2.58411e-06,-3.57556e-05,-3.95e-05,-0.00287789,232.681,232.374,-0.10743,116.423,232.739,232.316,-0.107502,232.635,213,7.78617,13.4239,0.40625,12391
3.38832e-11,1.6364e-08,-2.5869e-06,-2.87283e-05,-2.68463e-05,-0.00288744,234.162,234.316,0.0156706,117.15,234.316,234.162,0.0156623,234.223,213,10.05,9.75,0.40625,12392
-1.05786e-06,2.43502e-08,-2.52153e-06,-0.000722268,-2.59724e-05,-0.00256121,144.572,201.603,-6.04908,103.87,201.647,144.572,-6.09267,185.894,213,19.1327,9.37072,0.40625,12393
2.36712e-07,1.69578e-07,-2.57199e-06,-8.45469e-05,-5.88775e-05,-0.00283938,226.031,228.133,0.393383,113.894,228.181,225.984,0.392936,226.697,213,4.69058,5.59664,0.40625,12394
1.49725e-07,-6.81424e-07,-2.59323e-06,-6.37158e-05,-0.000583391,-0.00258482,205.448,162.883,-1.0464,103.255,205.461,162.872,-1.04853,188.852,213,5.34626,18.3773,0.40625,12395
1.43525e-07,-1.68706e-07,-2.57622e-06,-5.58896e-05,-6.24533e-05,-0.0028504,229.636,229.098,0.747895,114.508,229.763,228.971,0.747595,228.621,213,6.02308,15.0717,0.40625,12396
1.02748e-07,-3.58083e-08,-2.58566e-06,-4.43167e-05,-2.82003e-05,-0.0028806,231.982,233.302,-0.327613,116.817,233.306,231.978,-0.327636,232.972,213,6.99723,11.7789,0.40625,12397
3.16028e-08,7.24459e-09,-2.58693e-06,-3.12561e-05,-2.5829e-05,-0.00288678,233.88,234.324,-0.00528294,117.165,234.324,233.88,-0.00554373,234.108,213,8.99239,10.0808,0.40625,12398
-2.395e-07,-1.06244e-07,-2.57662e-06,-8.65412e-05,-4.0569e-05,-0.00285258,226.146,229.912,-0.409051,115.162,229.913,226.146,-0.410046,228.463,213,15.4094,13.9034,0.40625,12399
-1.018e-07,7.48758e-08,-2.58374e-06,-4.4307e-05,-3.63106e-05,-0.00287074,232.14,232.795,0.63839,116.094,232.827,232.108,0.638348,231.83,213,13.1038,7.72135,0.40625,12400
-3.15708e-08,2.55474e-08,-2.58656e-06,-3.13843e-05,-2.69463e-05,-0.00288593,233.834,234.197,0.0287382,117.085,234.199,233.833,0.0285645,233.987,213,11.1076,9.41916,0.40625,12401
1.79269e-07,-1.42752e-07,-2.57529e-06,-6.44602e-05,-5.52215e-05,-0.00285584,228.328,229.084,-0.303519,114.747,229.191,228.221,-0.303531,229.011,213,5.45866,14.6571,0.40625,12402
2.40625e-07,6.03754e-07,-2.6035e-06,-8.01542e-05,-0.000201314,-0.00277436,219.857,209.934,-0.814537,110.344,219.872,209.92,-0.815888,215.884,213,4.41072,1.99158,0.40625,12403
1.26782e-06,1.24744e-06,-2.3026e-06,-0.000934504,-0.000915753,-0.00195359,82.9544,84.4902,-0.515293,44.2958,87.8675,79.786,-0.724147,84.84,213,0.367583,0.484385,0.40625,12404
1.27242e-07,-4.37901e-07,-2.60088e-06,-4.87258e-05,-0.000146804,-0.00280898,227.023,218.99,0.94093,113.535,227.989,218.045,0.919767,222.264,213,5.9605,17.6645,0.40625,12405
2.02058e-07,-8.11764e-07,-2.50639e-06,-7.63545e-05,-0.000644809,-0.00316381,9.20013,7.50325,-0.0161466,5.47773,10.072,7.4986,-0.883417,9.92227,213,4.50329,18.6504,0.38625,12406
2.37784e-07,-7.69906e-07,-2.49455e-06,-8.12459e-05,-0.000665409,-0.00316246,9.10894,7.36517,-0.088719,5.50545,10.0196,7.35714,-0.991326,9.95051,213,4.04193,18.6504,0.380625,12407
2.95428e-07,-4.37715e-07,-2.5349e-06,-9.0387e-05,-7.92594e-05,-0.00348515,9.88825,9.92147,-0.245378,5.11574,9.97602,9.84379,-0.255468,10.166,213,3.57022,17.8008,0.38625,12408
2.38817e-07,-7.96916e-07,-2.52974e-06,-8.10218e-05,-0.000692504,-0.00312317,9.14901,7.3237,0.0679872,5.52894,10.1411,7.31645,-0.916815,9.95092,213,4.04193,18.6504,0.391875,12409
-2.02285e-07,-8.00245e-07,-2.51163e-06,-7.85641e-05,-0.000598947,-0.00319753,9.22503,7.67165,-0.0853036,5.40379,9.97684,7.66528,-0.830747,9.85723,213,15.5967,18.6504,0.38625,12410
-2.40787e-07,-7.83649e-07,-2.53268e-06,-8.41122e-05,-0.000670814,-0.00313728,9.15401,7.40266,0.0400674,5.67195,10.2722,7.39615,-1.07166,10.2142,213,16.0581,18.6504,0.391875,12411
-2.97083e-07,-4.51982e-07,-2.53231e-06,-8.88819e-05,-6.14242e-05,-0.00347076,9.99973,10.0817,-0.095438,5.11759,10.1292,9.96271,-0.105945,10.1529,213,16.5298,17.8008,0.38625,12412
-2.39523e-07,-7.55575e-07,-2.49733e-06,-8.34372e-05,-0.000642354,-0.00319565,9.06331,7.3949,-0.226869,5.59819,10.0201,7.38761,-1.17633,10.1398,213,16.0581,18.6504,0.380625,12413
4.22434e-07,1.0359e-06,-2.46796e-06,-0.000155719,-0.000703295,-0.00315243,8.56209,6.92754,-0.383307,5.07098,9.15896,6.93036,-0.983001,9.23167,213,2.65784,0.849583,0.38625,12414
3.62303e-07,1.02391e-06,-2.44059e-06,-0.00011369,-0.000726665,-0.00309618,8.92514,7.09536,0.0221862,5.47265,9.94495,7.09809,-1.00036,9.83588,213,3.1192,0.849583,0.380625,12415
-4.18404e-07,1.02881e-06,-2.47785e-06,-0.000143161,-0.000693519,-0.00315485,8.66273,7.01987,-0.32739,5.29772,9.46485,7.02094,-1.13058,9.60946,213,17.4422,0.849583,0.38625,12416
-3.64483e-07,1.06005e-06,-2.48006e-06,-0.000107661,-0.000780736,-0.00305916,8.90817,6.89899,0.0977348,5.3446,9.84674,6.90061,-0.842455,9.56278,213,16.9808,0.849583,0.391875,12417
3.13523e-07,6.71715e-07,-2.54367e-06,-8.54496e-05,-0.000155774,-0.00342215,9.87579,9.66586,-0.0845172,5.00465,9.90566,9.65511,-0.103638,9.8864,213,3.57022,1.69917,0.38625,12418
3.63453e-07,1.05265e-06,-2.47506e-06,-0.000113063,-0.00075641,-0.00307142,8.91318,6.99274,0.082268,5.41605,9.91226,6.99577,-0.919846,9.70818,213,3.1192,0.849583,0.391875,12419
-3.11459e-07,6.60313e-07,-2.54301e-06,-8.53046e-05,-0.00015935,-0.0034215,9.86741,9.64638,-0.0913842,5.01309,9.90269,9.64321,-0.123494,9.899,213,16.5298,1.69917,0.38625,12420
-3.63399e-07,1.03243e-06,-2.44567e-06,-0.000108628,-0.000754206,-0.00309065,8.8865,6.9594,-0.015049,5.27619,9.70978,6.96368,-0.842601,9.4824,213,16.9808,0.849583,0.380625,12421
-4.82109e-08,2.10325e-07,-2.51361e-06,-2.97956e-05,-7.18176e-05,-0.00346824,10.3386,10.2131,0.074562,5.13256,10.3393,10.2129,0.0741399,10.2025,213,11.77,5.13793,0.38625,12422
-7.32826e-08,1.55527e-07,-2.51764e-06,-3.68002e-05,-5.77791e-05,-0.00348399,10.29,10.2274,-0.000120218,5.14566,10.2909,10.2269,-0.000446314,10.2595,213,12.4855,5.95715,0.38625,12423
-5.46259e-08,1.70158e-07,-2.49761e-06,-3.19396e-05,-6.18776e-05,-0.00348411,10.3065,10.2172,0.00155352,5.153,10.3072,10.2169,0.0011878,10.2611,213,11.9549,5.72831,0.380625,12424
-8.15076e-08,1.23832e-07,-2.49963e-06,-3.89173e-05,-4.78527e-05,-0.00349347,10.2784,10.2517,-0.0336978,5.15693,10.2799,10.2505,-0.0339776,10.2992,213,12.6704,6.54753,0.380625,12425
-5.47582e-08,1.70652e-07,-2.53677e-06,-3.20189e-05,-6.1998e-05,-0.00348327,10.3083,10.2189,0.00611061,5.1516,10.309,10.2186,0.00576802,10.2583,213,11.9549,5.72831,0.391875,12426
-1.04137e-07,1.12703e-07,-2.51858e-06,-4.37106e-05,-4.40738e-05,-0.00349036,10.2707,10.2696,-0.0178213,5.14737,10.2766,10.2639,-0.0181055,10.2884,213,13.2009,6.77638,0.38625,12427
-8.17328e-08,1.24201e-07,-2.53891e-06,-3.9029e-05,-4.79796e-05,-0.00349211,10.2816,10.2549,-0.0261175,5.15477,10.2831,10.2536,-0.0263965,10.2948,213,12.6704,6.54753,0.391875,12428
-1.14551e-06,-3.16142e-07,-2.42235e-06,-0.000767673,-0.000117554,-0.00313689,6.70151,8.64216,-0.370775,5.32413,9.45889,6.70338,-1.18938,9.57273,213,19.4443,16.8026,0.38625,12429
-7.82351e-07,-2.38308e-07,-2.52258e-06,-0.000263752,-6.83569e-05,-0.00335496,9.26839,9.85166,0.0409013,4.98872,9.93434,9.26971,-0.0430997,9.66228,213,18.6887,16.0551,0.38625,12430
-1.14862e-06,-2.65624e-07,-2.39934e-06,-0.000794327,-8.97764e-05,-0.00310247,6.73467,8.83781,-0.155306,5.67309,10.0137,6.736,-1.3325,10.1138,213,19.4443,16.3151,0.380625,12431
-1.18102e-06,-2.66518e-07,-2.43367e-06,-0.000824894,-8.98303e-05,-0.00305416,6.69953,8.89375,0.044998,5.7292,10.1981,6.70056,-1.26034,10.1711,213,19.4443,16.3151,0.391875,12432
-1.1382e-06,4.35038e-07,-2.4238e-06,-0.000812982,-0.000155551,-0.00301454,6.6901,8.65258,0.1183,5.30076,9.68442,6.69364,-0.917086,9.46731,213,19.4443,2.69744,0.38625,12433
-1.13766e-06,3.68298e-07,-2.39376e-06,-0.000809177,-0.000118115,-0.00308564,6.60675,8.66962,-0.188648,5.54411,9.78385,6.60825,-1.30437,9.89047,213,19.4443,3.18494,0.380625,12434
-7.4573e-07,3.37991e-07,-2.5315e-06,-0.000279121,-9.53256e-05,-0.00332408,9.18617,9.73481,0.0967256,4.91586,9.83116,9.18711,-0.000568136,9.52605,213,18.6887,3.44488,0.38625,12435
-1.1687e-06,3.69405e-07,-2.42808e-06,-0.000835962,-0.000118423,-0.00307647,6.46995,8.61186,-0.218121,5.49329,9.68871,6.47285,-1.29787,9.78342,213,19.4443,3.18494,0.391875,12436
1.13822e-06,4.37216e-07,-2.4194e-06,-0.00079959,-0.000158957,-0.00305009,6.64898,8.56131,-0.0689395,5.21252,9.45549,6.65541,-0.969547,9.3451,213,0.655674,2.69744,0.38625,12437
1.12913e-06,3.6845e-07,-2.39305e-06,-0.000783727,-0.000121155,-0.00309011,6.73962,8.71745,-0.145089,5.65008,9.93544,6.74126,-1.36472,10.0897,213,0.655674,3.18494,0.380625,12438
7.56362e-07,3.3844e-07,-2.52718e-06,-0.000270176,-9.95634e-05,-0.00333606,9.18981,9.6991,0.0379037,4.89605,9.76442,9.19008,-0.0276853,9.51794,213,1.41135,3.44488,0.38625,12439
1.161e-06,3.69559e-07,-2.42735e-06,-0.000814255,-0.000122237,-0.00306526,6.62706,8.69278,-0.0923523,5.58969,9.88871,6.62946,-1.29068,9.95816,213,0.655674,3.18494,0.391875,12440
7.82142e-07,-2.38675e-07,-2.521e-06,-0.000253735,-6.90827e-05,-0.0033613,9.30766,9.85886,0.031343,4.99384,9.93794,9.30966,-0.0497352,9.68882,213,1.41135,16.0551,0.38625,12441
1.14332e-06,-3.17175e-07,-2.42295e-06,-0.000762838,-0.000118463,-0.00314248,6.71067,8.63418,-0.392729,5.26679,9.38684,6.71203,-1.14674,9.48344,213,0.655674,16.8026,0.38625,12442
1.17849e-06,-2.67214e-07,-2.43468e-06,-0.000823795,-9.04329e-05,-0.00305667,6.69641,8.88556,0.0311071,5.70837,10.1663,6.69723,-1.25044,10.1376,213,0.655674,16.3151,0.391875,12443
1.14613e-06,-2.66307e-07,-2.4004e-06,-0.000792977,-9.01829e-05,-0.00309088,6.77845,8.87634,-0.0809787,5.72305,10.1199,6.78014,-1.32622,10.1951,213,0.655674,16.3151,0.380625,12444
-1.02647e-06,-1.98449e-08,-2.47436e-06,-0.00065746,-2.68461e-05,-0.00313608,7.67032,9.55275,0.271463,5.14835,10.0614,7.66842,-0.235296,9.3332,213,19.1327,11.1043,0.38625,12445
-1.05116e-06,-7.08678e-09,-2.48363e-06,-0.000689618,-2.55163e-05,-0.00311444,7.54519,9.52759,0.30693,5.10343,10.0208,7.54502,-0.186082,9.22169,213,19.1327,10.6168,0.391875,12446
-6.02576e-07,-3.89521e-09,-2.54277e-06,-0.000174872,-2.13269e-05,-0.00345041,9.66204,10.1204,-0.115682,5.12567,10.128,9.66202,-0.123298,10.0265,213,18.0655,10.5086,0.38625,12447
-1.02821e-06,-7.06121e-09,-2.44837e-06,-0.000673461,-2.53251e-05,-0.00313423,7.58248,9.51721,0.236887,5.17728,10.0544,7.5823,-0.300143,9.36647,213,19.1327,10.6168,0.380625,12448
1.02639e-06,-6.68786e-09,-2.46605e-06,-0.000680466,-2.11771e-05,-0.00318661,7.38639,9.35442,-0.0946328,5.19405,9.82395,7.38638,-0.564152,9.40918,213,0.967271,10.6168,0.380625,12449
1.02117e-06,-1.68171e-08,-2.49123e-06,-0.000695417,-2.73174e-05,-0.00317908,7.29874,9.29307,-0.115193,5.13835,9.72809,7.29712,-0.548599,9.30256,213,0.967271,11.1043,0.38625,12450
6.12043e-07,-4.49785e-09,-2.5475e-06,-0.000153262,-1.881e-05,-0.00346241,9.765,10.1664,-0.113058,5.16096,10.1876,9.76501,-0.134296,10.1172,213,2.03454,10.5086,0.38625,12451
1.04959e-06,-6.65742e-09,-2.50152e-06,-0.000695842,-2.06412e-05,-0.00315997,7.37793,9.39345,0.0223296,5.20961,9.9175,7.37792,-0.501715,9.41005,213,0.967271,10.6168,0.391875,12452
-4.50763e-09,-7.03074e-07,-2.53199e-06,-2.35141e-05,-0.000613441,-0.00325052,9.34992,7.58894,-0.282923,5.25128,9.78512,7.58825,-0.717437,9.59465,213,10.5114,18.4382,0.38625,12453
2.80216e-10,-7.08841e-07,-2.51356e-06,-1.05789e-05,-0.000606943,-0.003252,9.44545,7.66526,-0.230442,5.35699,9.96449,7.66527,-0.749494,9.76945,213,10.05,18.4382,0.380625,12454
-1.66971e-10,9.90552e-07,-2.49188e-06,-1.46632e-05,-0.000675117,-0.00322856,9.27844,7.30694,-0.315274,5.26552,9.7471,7.30694,-0.783939,9.54776,213,10.05,1.06179,0.380625,12455
6.46534e-09,9.88271e-07,-2.5084e-06,-2.72206e-05,-0.000682944,-0.00322018,9.20289,7.24551,-0.328315,5.1709,9.60829,7.2453,-0.733506,9.3861,213,9.58864,1.06179,0.38625,12456
-6.72019e-09,9.84901e-07,-2.5137e-06,-2.6854e-05,-0.000688949,-0.00321293,9.2091,7.2327,-0.301559,5.16539,9.61928,7.23245,-0.711488,9.36824,213,10.5114,1.06179,0.38625,12457
-2.19336e-10,1.01375e-06,-2.52759e-06,-1.30397e-05,-0.000689801,-0.00320295,9.32309,7.30291,-0.199031,5.27442,9.83645,7.3029,-0.712387,9.53787,213,10.05,1.06179,0.391875,12458
4.33253e-10,6.03158e-07,-2.53896e-06,-1.68152e-05,-0.000129479,-0.003453,10.2839,9.94761,0.0266504,5.1622,10.3175,9.94761,-0.00691973,10.1445,213,10.05,2.12359,0.38625,12459
4.85993e-09,-7.01596e-07,-2.536e-06,-2.1091e-05,-0.000617663,-0.00324814,9.35899,7.57818,-0.273984,5.24856,9.79131,7.57769,-0.705806,9.58399,213,9.58864,18.4382,0.38625,12460
3.13939e-10,-7.31742e-07,-2.54961e-06,-8.88229e-06,-0.000622189,-0.00322816,9.48315,7.65239,-0.126645,5.36416,10.0424,7.65239,-0.685904,9.75541,213,10.05,18.4382,0.391875,12461
-2.33706e-10,-4.02677e-07,-2.53397e-06,-1.53926e-05,-5.31567e-05,-0.00349939,10.3876,10.2749,-0.0123947,5.21456,10.4022,10.2749,-0.0269525,10.3661,213,10.05,17.3764,0.38625,12462
1.04115e-06,2.39485e-07,-2.46004e-06,-0.00071686,-7.13367e-05,-0.00318914,6.99521,8.92215,-0.384727,5.22902,9.49878,6.99312,-0.959268,9.45753,213,0.841592,4.50158,0.38625,12463
1.07474e-06,2.09028e-07,-2.47963e-06,-0.00074842,-6.01795e-05,-0.00314381,6.98007,9.03452,-0.170344,5.30791,9.73971,6.98066,-0.876119,9.54036,213,0.841592,4.98908,0.391875,12464
-1.0369e-06,2.37822e-07,-2.45841e-06,-0.000714959,-7.37256e-05,-0.00317619,7.04041,8.95454,-0.306549,5.1987,9.52365,7.0385,-0.873748,9.4044,213,19.2584,4.50158,0.38625,12465
-1.07506e-06,2.07695e-07,-2.47593e-06,-0.000752004,-5.96074e-05,-0.00313848,6.97671,9.04356,-0.147113,5.28709,9.73515,6.97704,-0.839034,9.5003,213,19.2584,4.98908,0.391875,12466
6.57203e-07,1.93932e-07,-2.53961e-06,-0.000176184,-5.68566e-05,-0.00339427,9.71932,10.0755,0.113094,5.02403,10.118,9.71994,0.0699612,9.85505,213,1.78318,5.10316,0.38625,12467
1.04881e-06,2.08295e-07,-2.44455e-06,-0.000729288,-6.11568e-05,-0.00317106,7.00832,9.00274,-0.280558,5.31747,9.67793,7.00957,-0.957005,9.58354,213,0.841592,4.98908,0.380625,12468
-6.53929e-07,1.92879e-07,-2.53918e-06,-0.00017728,-5.75261e-05,-0.00343316,9.5871,9.94457,-0.131961,5.07509,9.98134,9.58721,-0.168842,9.95897,213,18.3168,5.10316,0.38625,12469
-1.04925e-06,2.07027e-07,-2.44087e-06,-0.000732672,-6.05384e-05,-0.003158,7.03088,9.03725,-0.208904,5.29815,9.71191,7.03171,-0.88439,9.54279,213,19.2584,4.98908,0.380625,12470
1.21272e-06,4.52382e-08,-2.44473e-06,-0.000837176,-2.39176e-05,-0.00306378,6.80244,9.23008,0.155855,5.55472,10.248,6.80191,-0.861489,9.84943,213,0.716167,8.57715,0.391875,12471
7.49886e-07,4.76164e-08,-2.55574e-06,-0.000270773,-2.4199e-05,-0.00337984,9.28633,10.0224,0.00554448,5.0549,10.0689,9.28622,-0.0408711,9.74205,213,1.53233,8.37929,0.38625,12472
1.19819e-06,3.51761e-08,-2.42324e-06,-0.000809193,-2.39084e-05,-0.00308936,6.89364,9.23777,0.087177,5.41176,10.0741,6.89384,-0.749386,9.63539,213,0.716167,9.06465,0.38625,12473
1.18272e-06,4.51884e-08,-2.4102e-06,-0.000809991,-2.44615e-05,-0.00309415,6.87177,9.21663,0.0533688,5.57153,10.2068,6.87123,-0.936261,9.90583,213,0.716167,8.57715,0.380625,12474
1.25021e-07,-1.3435e-07,-2.51542e-06,-5.03403e-05,-5.18179e-05,-0.00347253,10.2619,10.2575,0.0464145,5.11066,10.2673,10.2525,0.0460216,10.2139,213,6.41097,14.4695,0.38625,12475
9.59898e-08,-1.77953e-07,-2.51318e-06,-4.24028e-05,-6.45574e-05,-0.00347588,10.2597,10.1936,0.010532,5.12538,10.261,10.1926,0.0102288,10.2167,213,6.97297,15.2137,0.38625,12476
7.07482e-08,-1.47412e-07,-2.51477e-06,-3.62839e-05,-5.47913e-05,-0.0034771,10.3245,10.2693,0.0534074,5.13615,10.3255,10.2684,0.0532296,10.2439,213,7.64883,14.6717,0.38625,12477
9.49736e-08,-1.09936e-07,-2.5177e-06,-4.32225e-05,-4.35931e-05,-0.00348159,10.3031,10.3019,0.0392682,5.13497,10.309,10.2963,0.0390402,10.2636,213,7.08684,13.9275,0.38625,12478
1.02804e-06,3.698e-09,-2.48524e-06,-0.000698526,-2.51984e-05,-0.00315358,7.3672,9.37713,0.0386633,5.08258,9.79069,7.36678,-0.374468,9.19599,213,0.967271,10.1293,0.38625,12479
-1.03995e-06,4.95737e-09,-2.46442e-06,-0.000672437,-2.44693e-05,-0.003105,7.68421,9.61844,0.422818,5.11735,10.138,7.6841,-0.0966615,9.25502,213,19.1327,10.1293,0.38625,12480
-4.02427e-08,-8.35328e-07,-2.49711e-06,-2.05843e-05,-0.000737359,-0.00315721,9.27087,7.13124,-0.0921997,5.7079,10.2972,7.13123,-1.11855,10.2079,213,11.8902,18.6819,0.380625,12481
-5.17191e-08,-8.30526e-07,-2.51896e-06,-2.95982e-05,-0.00076741,-0.00314551,9.15716,6.95474,-0.144081,5.60398,10.1116,6.95262,-1.09638,10.0096,213,12.3516,18.6819,0.38625,12482
-4.3561e-08,-5.01358e-07,-2.54094e-06,-2.16937e-05,-0.000143598,-0.00345839,10.192,9.82809,-0.0668195,5.18691,10.2497,9.82771,-0.124134,10.1694,213,11.885,17.8638,0.38625,12483
-4.04305e-08,-8.64482e-07,-2.53219e-06,-1.99755e-05,-0.000762605,-0.00313091,9.27797,7.06117,-0.00839753,5.69517,10.3299,7.06119,-1.06039,10.1584,213,11.8902,18.6819,0.391875,12484
-6.92157e-08,1.08131e-07,-2.52033e-06,-3.69261e-05,-4.27955e-05,-0.00349619,10.298,10.2805,-0.0281188,5.16368,10.299,10.2797,-0.0283499,10.3177,213,12.3247,6.90907,0.38625,12485
-3.98051e-08,1.03233e-07,-2.52108e-06,-3.00975e-05,-4.18707e-05,-0.00349991,10.3312,10.2961,-0.0264524,5.17903,10.3314,10.296,-0.0266169,10.3404,213,11.4485,7.04177,0.38625,12486
-5.04749e-08,1.18731e-07,-2.50091e-06,-3.23857e-05,-4.67351e-05,-0.00349744,10.3095,10.2667,-0.0339356,5.17203,10.3099,10.2665,-0.034173,10.3225,213,11.7941,6.68023,0.380625,12487
-5.05998e-08,1.19092e-07,-2.54025e-06,-3.25063e-05,-4.68971e-05,-0.00349898,10.3034,10.2604,-0.0442836,5.17414,10.3038,10.2602,-0.0445101,10.3266,213,11.7941,6.68023,0.391875,12488
-4.98489e-08,1.1343e-06,-2.44861e-06,-2.8388e-05,-0.000801737,-0.00315204,9.03503,6.72652,-0.289318,5.53201,9.90486,6.72654,-1.15917,9.86658,213,11.8489,0.811382,0.380625,12489
-6.45924e-08,1.13793e-06,-2.46808e-06,-3.4913e-05,-0.000837424,-0.00310972,9.01589,6.62034,-0.162651,5.48524,9.91218,6.61969,-1.05829,9.75047,213,12.3103,0.811382,0.38625,12490
4.88854e-08,1.13981e-06,-2.44505e-06,-2.69241e-05,-0.000802128,-0.00313289,9.10355,6.78951,-0.16799,5.581,10.0488,6.78952,-1.11323,9.94149,213,8.25108,0.811382,0.380625,12491
6.36234e-08,1.13747e-06,-2.46776e-06,-3.77612e-05,-0.000830349,-0.0031107,9.01769,6.65176,-0.155267,5.47184,9.90381,6.65026,-1.03988,9.73366,213,7.78971,0.811382,0.38625,12492
-2.33022e-07,1.75704e-07,-2.50908e-06,-8.46579e-05,-6.02203e-05,-0.00346405,10.0508,10.1238,-0.0369067,5.08199,10.126,10.0496,-0.0379628,10.126,213,15.3851,5.48319,0.38625,12493
-2.68765e-07,1.3024e-07,-2.50834e-06,-9.19134e-05,-4.95928e-05,-0.00347256,10.0129,10.1392,-0.0786031,5.10956,10.1399,10.0128,-0.0792187,10.1562,213,15.7851,6.2884,0.38625,12494
-1.70976e-07,1.66197e-07,-2.51382e-06,-6.15838e-05,-5.85964e-05,-0.003472,10.1728,10.1818,-0.00751336,5.0981,10.188,10.1673,-0.00822693,10.1859,213,14.5361,5.68958,0.38625,12495
-2.00864e-07,1.22453e-07,-2.51304e-06,-6.94874e-05,-4.83708e-05,-0.00347411,10.1499,10.213,-0.0131094,5.1142,10.2148,10.1487,-0.0136487,10.1955,213,14.9361,6.49479,0.38625,12496
-6.10922e-08,-1.99473e-08,-2.52166e-06,-3.56398e-05,-2.51866e-05,-0.00350275,10.341,10.3722,-0.00855853,5.19047,10.3723,10.3409,-0.0086107,10.3653,213,12.035,11.1764,0.38625,12497
-4.68766e-08,3.05905e-09,-2.52175e-06,-3.15637e-05,-2.61289e-05,-0.00350392,10.3594,10.3756,-0.0058416,5.19078,10.3757,10.3594,-0.00589138,10.3734,213,11.5915,10.2659,0.38625,12498
-8.08e-08,1.18412e-08,-2.52042e-06,-3.91082e-05,-2.57074e-05,-0.00349827,10.3322,10.3722,0.00635298,5.18299,10.3723,10.3322,0.00628468,10.346,213,12.5633,9.92326,0.38625,12499
-9.94264e-08,-1.07524e-08,-2.51956e-06,-4.42233e-05,-2.43489e-05,-0.00349482,10.316,10.3753,0.0156528,5.17996,10.3755,10.3159,0.015543,10.3303,213,13.0067,10.8337,0.38625,12500
4.17443e-08,-8.29974e-07,-2.50057e-06,-2.33402e-05,-0.000736101,-0.00318045,9.18419,7.05654,-0.240018,5.66239,10.1345,7.05655,-1.19031,10.1424,213,8.18005,18.6863,0.380625,12501
5.37565e-08,-8.3127e-07,-2.51958e-06,-2.7177e-05,-0.000772485,-0.00315132,9.13756,6.91276,-0.18824,5.65087,10.1259,6.912,-1.17583,10.0864,213,7.71869,18.6863,0.38625,12502
1.05154e-06,1.80242e-07,-2.46978e-06,-0.000747026,-6.35854e-05,-0.00316619,6.90686,8.94697,-0.314542,5.19504,9.51047,6.90844,-0.879622,9.36425,213,0.841592,5.47658,0.38625,12503
1.07278e-06,-1.24906e-07,-2.47039e-06,-0.00075101,-4.62299e-05,-0.00314962,6.98994,9.09376,-0.170078,5.17259,9.63387,6.99107,-0.711317,9.30951,213,0.841592,14.0234,0.38625,12504
1.06958e-06,-1.43954e-07,-2.44706e-06,-0.00073795,-4.15608e-05,-0.00315629,7.06401,9.14279,-0.154897,5.33951,9.83325,7.06443,-0.845772,9.59893,213,0.841592,14.5109,0.380625,12505
-1.05636e-06,1.79119e-07,-2.46299e-06,-0.000748555,-6.03752e-05,-0.00313559,7.00468,9.05895,-0.120806,5.19452,9.66285,7.00617,-0.726196,9.34825,213,19.2584,5.47658,0.38625,12506
-3.20215e-07,-1.17533e-07,-2.50457e-06,-0.00010794,-4.28791e-05,-0.0034426,10.0305,10.2247,0.0763294,5.07652,10.2272,10.0302,0.0741578,10.056,213,16.234,14.2232,0.38625,12507
-4.587e-07,-1.20862e-07,-2.51075e-06,-0.000167172,-4.58458e-05,-0.00341572,9.7417,10.1039,0.0445376,5.04009,10.1148,9.74071,0.0346274,9.89843,213,17.2754,14.31,0.38625,12508
-3.42643e-07,-1.65598e-07,-2.50046e-06,-0.000114668,-5.98584e-05,-0.00343638,9.95499,10.1186,0.0394429,5.04225,10.1224,9.95278,0.0378791,10.0008,213,16.5198,15.1536,0.38625,12509
6.74323e-07,2.11553e-08,-2.55971e-06,-0.000216954,-2.45153e-05,-0.00341265,9.51262,10.0871,-0.0267621,5.07896,10.1094,9.51199,-0.048475,9.87276,213,1.78344,9.44393,0.38625,12510
2.05389e-07,1.19684e-07,-2.512e-06,-7.23431e-05,-4.76598e-05,-0.00346743,10.1558,10.2295,0.0212189,5.10532,10.2312,10.1548,0.0205213,10.1727,213,5.12928,6.54949,0.38625,12511
2.75265e-07,1.27112e-07,-2.50583e-06,-9.38408e-05,-4.92008e-05,-0.00346452,10.0278,10.161,-0.0339818,5.09866,10.1625,10.0272,-0.0348587,10.1304,213,4.2808,6.34262,0.38625,12512
1.72435e-07,1.66169e-07,-2.5134e-06,-6.30055e-05,-5.93897e-05,-0.00346715,10.177,10.1878,0.0153371,5.09018,10.1948,10.1709,0.0144324,10.1684,213,5.56294,5.69055,0.38625,12513
2.33459e-07,1.75851e-07,-2.50823e-06,-8.37082e-05,-6.09967e-05,-0.00345684,10.0771,10.1449,0.00806732,5.07061,10.1481,10.075,0.00692083,10.1049,213,4.71445,5.48368,0.38625,12514
-5.00089e-08,1.16317e-06,-2.48352e-06,-2.85597e-05,-0.000826068,-0.00311757,9.06614,6.68552,-0.154779,5.53103,9.98669,6.68555,-1.07536,9.83612,213,11.8489,0.811382,0.391875,12515
-4.76097e-08,7.34852e-07,-2.54767e-06,-2.78827e-05,-0.000231882,-0.00341153,10.0225,9.41357,-0.0779214,5.12097,10.0934,9.41336,-0.14857,9.91943,213,11.8024,1.62276,0.38625,12516
4.90027e-08,1.16938e-06,-2.47976e-06,-2.67408e-05,-0.000827106,-0.00310522,9.11323,6.72408,-0.0762455,5.56772,10.0862,6.72412,-1.04925,9.89259,213,8.25108,0.811382,0.391875,12517
4.76032e-08,7.41458e-07,-2.55491e-06,-2.62171e-05,-0.000239476,-0.00335554,10.1863,9.54967,0.247991,5.04594,10.2631,9.54966,0.171214,9.75475,213,8.29761,1.62276,0.38625,12518
7.02441e-08,1.07064e-07,-2.52022e-06,-3.69905e-05,-4.29054e-05,-0.00349529,10.3001,10.2825,-0.023154,5.16216,10.301,10.2818,-0.0233601,10.3148,213,7.75713,6.92511,0.38625,12519
8.48988e-08,7.00135e-08,-2.521e-06,-3.91638e-05,-3.49918e-05,-0.00349977,10.2976,10.3101,-0.0325331,5.17179,10.3109,10.297,-0.0326889,10.3366,213,7.40427,7.8703,0.38625,12520
4.0606e-08,1.01785e-07,-2.52048e-06,-3.02043e-05,-4.21075e-05,-0.00349695,10.3392,10.3037,-0.00929909,5.17447,10.3395,10.3035,-0.00942957,10.331,213,8.64136,7.06189,0.38625,12521
5.28468e-08,6.60846e-08,-2.52167e-06,-3.24158e-05,-3.37008e-05,-0.00350318,10.3325,10.3287,-0.0279817,5.18095,10.3338,10.3274,-0.0280614,10.3587,213,8.2885,8.00709,0.38625,12522
-1.54588e-08,-3.3263e-07,-2.5218e-06,-2.57351e-05,-0.000119875,-0.00345824,10.2428,9.96181,-0.00346475,5.12903,10.2488,9.96165,-0.0092787,10.1175,213,10.6919,16.8638,0.38625,12523
4.86789e-10,-2.72144e-07,-2.5142e-06,-2.41933e-05,-0.000101337,-0.00347508,10.2577,10.0274,-0.0434318,5.15331,10.2604,10.0274,-0.0461738,10.1921,213,10.0506,16.2899,0.38625,12524
-3.29793e-08,-2.73581e-07,-2.51562e-06,-2.71494e-05,-9.43757e-05,-0.00346945,10.2795,10.0788,0.00393314,5.13989,10.2817,10.0786,0.00190316,10.1798,213,11.3338,16.3512,0.38625,12525
-1.60191e-08,-2.24549e-07,-2.51274e-06,-2.68081e-05,-7.98654e-05,-0.00347418,10.3126,10.1542,0.0219254,5.14618,10.3135,10.1542,0.0210993,10.2136,213,10.6925,15.7773,0.38625,12526
-4.43596e-08,1.49691e-07,-2.51907e-06,-2.99908e-05,-5.65343e-05,-0.00349133,10.3126,10.2333,-0.019799,5.16657,10.313,10.2332,-0.0201022,10.2934,213,11.6092,6.08985,0.38625,12527
4.20053e-08,-8.58485e-07,-2.53582e-06,-2.34103e-05,-0.000761457,-0.00314749,9.20789,7.00476,-0.11771,5.66519,10.2103,7.0048,-1.12012,10.116,213,8.18005,18.6863,0.391875,12528
4.44637e-08,-4.95338e-07,-2.54409e-06,-2.51152e-05,-0.000139507,-0.00346069,10.1766,9.83514,-0.0788454,5.17335,10.2229,9.8337,-0.123751,10.1577,213,8.15556,17.8726,0.38625,12529
-1.58059e-08,4.8843e-07,-2.51694e-06,-2.69286e-05,-0.000172572,-0.00342979,10.1586,9.72384,0.00080578,5.0885,10.1682,9.72382,-0.00879088,9.96225,213,10.6791,2.71232,0.38625,12530
-3.31375e-08,3.97658e-07,-2.5071e-06,-2.75125e-05,-0.000131485,-0.00345408,10.2083,9.8979,-0.0203051,5.1178,10.2118,9.89795,-0.0238242,10.0823,213,11.3082,3.30105,0.38625,12531
-1.60688e-08,3.27604e-07,-2.50359e-06,-2.6931e-05,-0.000109998,-0.00345551,10.2755,10.0275,0.0408821,5.11857,10.2768,10.0275,0.0396173,10.1148,213,10.6791,3.87002,0.38625,12532
1.6479e-08,3.27551e-07,-2.50007e-06,-2.58755e-05,-0.000108261,-0.00349547,10.1607,9.9148,-0.196278,5.17925,10.1615,9.91478,-0.197027,10.2374,213,9.42062,3.8703,0.38625,12533
3.27723e-08,3.95274e-07,-2.50506e-06,-2.66371e-05,-0.000125786,-0.00353429,9.97732,9.68136,-0.493298,5.23721,9.97915,9.6815,-0.495275,10.3288,213,8.79125,3.30162,0.38625,12534
1.60849e-08,4.87016e-07,-2.51346e-06,-2.55553e-05,-0.000169007,-0.00347228,10.0436,9.61538,-0.24514,5.15272,10.0521,9.61514,-0.253364,10.0941,213,9.42062,2.7126,0.38625,12535
1.21471e-07,7.86695e-08,-2.51926e-06,-4.91768e-05,-3.68416e-05,-0.00349151,10.2563,10.2932,-0.019283,5.15683,10.2941,10.2556,-0.0195433,10.2945,213,6.56448,7.5958,0.38625,12536
1.85927e-07,6.63464e-08,-2.51422e-06,-6.76873e-05,-3.27165e-05,-0.00347567,10.2057,10.3101,0.0326351,5.13935,10.3108,10.2055,0.0321461,10.2264,213,5.47584,7.90586,0.38625,12537
1.39234e-07,5.1539e-08,-2.51811e-06,-5.46101e-05,-2.94952e-05,-0.00348779,10.258,10.333,0.00970958,5.16202,10.3335,10.2578,0.00942482,10.2864,213,6.25605,8.40327,0.38625,12538
2.58468e-07,3.15935e-07,-2.49617e-06,-9.12311e-05,-0.000107541,-0.00342777,9.97536,9.92667,0.015548,4.98655,9.98684,9.91699,0.0137438,9.93836,213,4.29089,3.77046,0.38625,12539
1.83383e-07,2.86464e-07,-2.50325e-06,-6.46669e-05,-9.69111e-05,-0.00343541,10.1484,10.0521,0.0864934,5.03333,10.1522,10.0493,0.0855095,10.0156,213,5.2873,4.12494,0.38625,12540
2.53163e-07,4.34351e-07,-2.49599e-06,-8.92881e-05,-0.00014889,-0.00340497,9.9285,9.75059,0.0309552,4.95861,9.93951,9.74824,0.0222955,9.82298,213,4.27286,2.84999,0.38625,12541
1.80648e-07,3.92833e-07,-2.49217e-06,-6.17025e-05,-0.000135699,-0.00343894,10.0324,9.81153,-0.0488837,5.04662,10.0391,9.8101,-0.0541434,9.98071,213,5.26927,3.20447,0.38625,12542
-3.80579e-07,-8.46606e-08,-2.51141e-06,-0.000133986,-3.51855e-05,-0.00346076,9.83699,10.1319,-0.0936705,5.11451,10.1336,9.837,-0.0954022,10.084,213,16.7365,13.3896,0.38625,12543
-4.95183e-07,-1.70774e-07,-2.5182e-06,-0.000178227,-5.8873e-05,-0.00341972,9.61965,9.97593,-0.0564469,5.02772,9.9882,9.61818,-0.0672411,9.87563,213,17.5612,15.2404,0.38625,12544
-6.64812e-07,-1.29696e-07,-2.54219e-06,-0.000190912,-3.70054e-05,-0.00345163,9.50969,9.96911,-0.223803,5.13533,10.0081,9.50941,-0.262537,10.0306,213,18.3168,14.3968,0.38625,12545
-3.64849e-07,-2.27442e-07,-2.49722e-06,-0.00012123,-7.48107e-05,-0.00343438,9.87351,10.0121,-0.0164753,5.02036,10.0207,9.86849,-0.0200388,9.9655,213,16.8055,16.084,0.38625,12546
4.95648e-07,-1.70722e-07,-2.51871e-06,-0.000179778,-5.95681e-05,-0.00341484,9.62335,9.98218,-0.0335658,5.0194,9.99448,9.62181,-0.0443224,9.85775,213,2.53883,15.2404,0.38625,12547
3.42555e-07,-1.64795e-07,-2.49997e-06,-0.000114431,-5.96501e-05,-0.00344197,9.93939,10.1029,0.00644188,5.05142,10.1072,9.93713,0.00437826,10.0189,213,3.58023,15.1536,0.38625,12548
3.6481e-07,-2.26845e-07,-2.49872e-06,-0.000121253,-7.61222e-05,-0.00343625,9.86328,9.99799,-0.032236,5.0208,10.0057,9.85918,-0.0358704,9.96913,213,3.29449,16.084,0.38625,12549
-7.32804e-07,7.08285e-07,-2.58063e-06,-0.000328659,-0.000332278,-0.00321393,8.47901,8.46821,-0.133755,4.49692,8.63162,8.54408,-0.362231,8.9504,213,18.7848,1.44693,0.38625,12550
-9.39002e-07,9.08003e-07,-2.48203e-06,-0.000438786,-0.000427136,-0.00311924,7.80048,7.83525,-0.200875,5.00586,8.8536,7.73937,-1.15811,9.50371,213,19.2648,0.968771,0.38625,12551
-9.69743e-07,5.71261e-07,-2.51044e-06,-0.000694999,-0.000222224,-0.00312306,6.86081,8.27209,-0.387137,4.88395,8.82125,6.87115,-0.946641,8.95356,213,19.2524,1.93754,0.38625,12552
-1.28806e-06,7.23818e-07,-2.38644e-06,-0.000958064,-0.000284294,-0.00294877,5.59714,7.60839,-0.34526,6.35469,9.9753,5.61906,-2.73409,11.1866,213,19.7324,1.45939,0.38625,12553
7.25685e-07,7.01902e-07,-2.57395e-06,-0.000341854,-0.000338079,-0.00321139,8.38745,8.39872,-0.178313,4.53144,8.59732,8.4761,-0.465563,9.00289,213,1.31519,1.44693,0.38625,12554
9.77113e-07,5.71798e-07,-2.50124e-06,-0.000712152,-0.000214318,-0.00311848,6.79483,8.2809,-0.388234,4.89864,8.8383,6.80817,-0.958974,8.95646,213,0.847604,1.93754,0.38625,12555
1.29941e-06,7.25743e-07,-2.40294e-06,-0.000970365,-0.000290423,-0.00292877,5.56539,7.59507,-0.280597,6.30059,9.94241,5.59623,-2.65877,11.0866,213,0.367583,1.45939,0.38625,12556
9.42233e-07,9.10558e-07,-2.50709e-06,-0.00045848,-0.000441719,-0.0030853,7.7406,7.79064,-0.100652,5.00113,8.86144,7.70997,-1.14082,9.47913,213,0.835166,0.968771,0.38625,12557
-7.16597e-07,-5.01799e-07,-2.56325e-06,-0.000360575,-0.00025796,-0.00324496,8.4198,8.72612,-0.19031,4.63129,8.85217,8.51386,-0.410416,9.09815,213,18.7848,18.0531,0.38625,12558
-9.99935e-07,-4.16185e-07,-2.48679e-06,-0.000709115,-0.000166708,-0.00309647,7.03434,8.65347,-0.0920792,5.04565,9.32396,7.03911,-0.767336,9.16502,213,19.2524,17.5625,0.38625,12559
-1.2905e-06,-5.56938e-07,-2.3848e-06,-0.00095779,-0.000229027,-0.0029901,5.64302,7.81843,-0.423586,6.34156,10.0308,5.65937,-2.65231,11.1592,213,19.7324,18.0406,0.38625,12560
-9.07089e-07,-6.90691e-07,-2.50259e-06,-0.000453795,-0.000350674,-0.00315698,7.83088,8.13871,-0.238315,5.13654,9.07671,7.85093,-1.19637,9.71834,213,19.2648,18.5312,0.38625,12561
-2.52539e-07,-2.85192e-07,-2.50102e-06,-9.09766e-05,-0.00010283,-0.00342898,9.98804,9.95266,0.0238682,4.9928,10.0047,9.94069,0.0191346,9.95374,213,15.822,16.6562,0.38625,12562
-2.61269e-07,-2.04159e-07,-2.49747e-06,-9.34669e-05,-7.0852e-05,-0.00345139,10.003,10.0705,-0.0206306,5.05012,10.0783,9.99653,-0.0219486,10.0596,213,15.793,15.721,0.38625,12563
-2.77255e-07,1.04487e-06,-2.4474e-06,-8.79663e-05,-0.000711515,-0.00314571,8.97447,7.11313,-0.15312,5.49254,9.90537,7.10883,-1.07971,9.88799,213,16.0581,0.849583,0.380625,12564
-3.18702e-07,1.02927e-06,-2.46263e-06,-8.86889e-05,-0.000809663,-0.0030914,8.83098,6.67881,-0.132338,5.20746,9.55511,6.68216,-0.859808,9.3168,213,16.5194,0.849583,0.38625,12565
2.77168e-07,-7.49563e-07,-2.51329e-06,-8.24131e-05,-0.000750723,-0.00310521,9.01275,7.01779,-0.01053,5.37884,9.88128,7.01512,-0.876392,9.64931,213,3.58056,18.6504,0.38625,12566
3.17524e-07,1.03368e-06,-2.45721e-06,-8.80132e-05,-0.000800334,-0.00311881,8.77779,6.65146,-0.269355,5.16173,9.41543,6.65248,-0.908017,9.25658,213,3.58056,0.849583,0.38625,12567
2.75293e-07,1.0478e-06,-2.44264e-06,-8.79077e-05,-0.000719385,-0.00312108,9.02797,7.14296,-0.0262875,5.46881,9.97093,7.14041,-0.966697,9.83282,213,4.04193,0.849583,0.380625,12568
-2.79232e-07,-7.45904e-07,-2.51369e-06,-8.24982e-05,-0.00074507,-0.00316121,8.85255,6.87473,-0.337618,5.28759,9.54474,6.87535,-1.03043,9.52527,213,16.5194,18.6504,0.38625,12569
1.3602e-07,1.37209e-07,-2.51662e-06,-5.33683e-05,-5.19246e-05,-0.00348008,10.219,10.2233,-0.0100262,5.12001,10.2295,10.2133,-0.0105379,10.232,213,6.21792,6.23944,0.38625,12570
2.03788e-08,8.36176e-08,-2.52124e-06,-2.89512e-05,-3.75158e-05,-0.00350205,10.3453,10.3197,-0.0221452,5.18382,10.3454,10.3196,-0.0222081,10.3548,213,9.34518,7.52203,0.38625,12571
3.13139e-08,5.22435e-08,-2.52187e-06,-3.05192e-05,-2.96325e-05,-0.00350417,10.3539,10.3566,-0.0151528,5.1863,10.3574,10.3532,-0.0152299,10.3705,213,8.99232,8.46722,0.38625,12572
2.41899e-07,-1.51206e-07,-2.50432e-06,-8.66083e-05,-5.69414e-05,-0.00345197,10.0876,10.1761,0.0417116,5.0693,10.1795,10.085,0.0409203,10.0917,213,4.60968,14.8635,0.38625,12573
3.19404e-07,-1.17506e-07,-2.50604e-06,-0.000106264,-4.29462e-05,-0.00345707,9.99475,10.1838,-0.00765701,5.09791,10.1863,9.99413,-0.00952841,10.1011,213,3.86597,14.2232,0.38625,12574
-5.5918e-07,-8.60141e-08,-2.518e-06,-0.0002013,-3.67053e-05,-0.00339913,9.61319,10.1045,0.0674325,5.04164,10.1277,9.61304,0.0444002,9.83606,213,17.7779,13.4764,0.38625,12575
-4.45491e-07,-5.63879e-08,-2.52767e-06,-0.000160907,-2.83814e-05,-0.0035077,9.54394,9.93954,-0.446483,5.19405,9.94089,9.54331,-0.447205,10.1951,213,17.2389,12.556,0.38625,12576
1.02587e-07,-9.046e-07,-2.50829e-06,-3.4924e-05,-0.000779194,-0.00314595,9.0856,6.8639,-0.20105,6.05375,10.4959,6.86408,-1.61157,10.7615,213,6.02434,18.8284,0.38625,12577
9.13809e-08,-5.71665e-07,-2.54186e-06,-3.33109e-05,-0.000238924,-0.00342422,9.92651,9.31274,-0.195613,5.188,10.0545,9.31067,-0.321523,10.0248,213,6.61232,18.1567,0.38625,12578
1.48977e-07,-6.68299e-07,-2.53403e-06,-6.27611e-05,-0.000568193,-0.00323888,9.28872,7.77996,-0.192228,5.13054,9.67873,7.78007,-0.582345,9.45581,213,5.34626,18.3773,0.38625,12579
1.27606e-07,-4.37801e-07,-2.53954e-06,-4.86682e-05,-0.000153978,-0.00346024,9.98713,9.67278,-0.196667,5.12771,10.0396,9.63954,-0.215856,10.0614,213,5.93424,17.7057,0.38625,12580
-5.93418e-07,9.5477e-07,-2.52718e-06,-0.000242823,-0.000652479,-0.00308516,8.40034,7.17748,-0.0842468,4.90774,9.06525,7.17856,-0.750232,9.02133,213,18.3297,0.962542,0.38625,12581
-4.26591e-07,6.16362e-07,-2.53318e-06,-0.00016114,-0.000215117,-0.00338645,9.33481,9.17368,-0.292978,4.83411,9.36591,9.1519,-0.302303,9.56301,213,17.4173,1.81212,0.38625,12582
-6.04956e-07,5.7515e-07,-2.56262e-06,-0.000178452,-0.000191238,-0.00333088,9.4802,9.44204,0.0699695,4.82698,9.60421,9.43775,-0.0497549,9.57182,213,18.3048,1.92508,0.38625,12583
1.0958e-06,-1.44453e-07,-2.48207e-06,-0.000757228,-4.00164e-05,-0.0031304,7.03232,9.17325,-0.0517838,5.33866,9.89924,7.03264,-0.778091,9.57158,213,0.841592,14.5109,0.391875,12584
6.69626e-07,-1.29676e-07,-2.5453e-06,-0.000179267,-3.78045e-05,-0.00341857,9.68372,10.106,0.0141658,5.09255,10.1527,9.68361,-0.0324151,9.95885,213,1.78318,14.3968,0.38625,12585
3.23327e-08,-8.37496e-07,-2.5192e-06,-2.29071e-05,-0.000717947,-0.00320409,9.16944,7.0947,-0.326633,5.64326,10.0646,7.09479,-1.2219,10.1334,213,8.64142,18.6863,0.38625,12586
5.34965e-07,4.81194e-08,-2.53573e-06,-0.000202504,-2.76015e-05,-0.00345333,9.46274,9.98483,-0.241235,5.12463,9.99645,9.46271,-0.252821,9.9931,213,2.40417,8.41377,0.38625,12587
4.94701e-07,1.98766e-08,-2.52554e-06,-0.000160751,-2.54872e-05,-0.00347989,9.64228,10.0461,-0.265605,5.16189,10.0523,9.64202,-0.271515,10.1249,213,2.65527,9.47841,0.38625,12588
3.59066e-07,3.47383e-07,-2.49451e-06,-0.000116395,-0.000112579,-0.00341581,9.84237,9.85376,-0.00664247,4.9452,9.88058,9.81873,-0.00982377,9.85962,213,3.29449,3.41598,0.38625,12589
-4.56313e-07,-1.34605e-08,-2.53102e-06,-0.000150954,-2.25896e-05,-0.00351527,9.59958,9.98276,-0.443148,5.21559,9.98571,9.59895,-0.445468,10.2433,213,17.259,10.8949,0.38625,12590
-3.51108e-07,-2.29919e-08,-2.515e-06,-0.000104083,-2.32576e-05,-0.00348383,9.98576,10.227,-0.103025,5.16779,10.2307,9.98394,-0.104893,10.2144,213,16.4526,11.2813,0.38625,12591
-4.27024e-07,3.25436e-09,-2.52313e-06,-0.000139386,-2.37371e-05,-0.00351485,9.66849,10.0137,-0.407529,5.21535,10.0185,9.66834,-0.412195,10.2601,213,17.0148,10.1708,0.38625,12592
-3.31943e-07,-5.86692e-09,-2.50682e-06,-9.93762e-05,-2.39823e-05,-0.00345599,10.1007,10.3258,0.0809588,5.12692,10.3305,10.1004,0.076629,10.1407,213,16.2083,10.5572,0.38625,12593
-1.22047e-07,-3.13327e-07,-2.51599e-06,-5.00456e-05,-0.000110133,-0.00346388,10.1062,9.92683,-0.0843466,5.10162,10.1139,9.92415,-0.0893552,10.1097,213,13.8977,16.8051,0.38625,12594
-1.2729e-07,-2.24223e-07,-2.50908e-06,-5.14214e-05,-7.95759e-05,-0.00347438,10.1613,10.0773,-0.0564934,5.11102,10.1645,10.0751,-0.0574956,10.1776,213,13.8687,15.8699,0.38625,12595
-8.43229e-08,-2.71848e-07,-2.51386e-06,-3.72154e-05,-9.36643e-05,-0.00347121,10.2141,10.0456,-0.0365834,5.1275,10.2167,10.0447,-0.0382894,10.1701,213,12.9569,16.3818,0.38625,12596
-3.30842e-08,-8.34691e-07,-2.51748e-06,-1.99768e-05,-0.000715141,-0.00320932,9.1798,7.10468,-0.340633,5.63363,10.053,7.10509,-1.21424,10.1206,213,11.4289,18.6819,0.38625,12597
2.59081e-07,-2.10587e-07,-2.49663e-06,-9.22572e-05,-7.44285e-05,-0.00344841,10.0086,10.0618,-0.00977335,5.04188,10.0723,9.9997,-0.0114183,10.0476,213,4.32394,15.7939,0.38625,12598
1.80798e-07,-1.94812e-07,-2.50416e-06,-6.50281e-05,-7.09918e-05,-0.0034562,10.1624,10.1446,0.039507,5.06767,10.1738,10.1343,0.038434,10.1157,213,5.35339,15.5038,0.38625,12599
3.75071e-07,1.35413e-07,-2.50504e-06,-0.000126382,-5.00678e-05,-0.00346655,9.81824,10.046,-0.152399,5.10231,10.0494,9.81772,-0.155249,10.0908,213,3.36352,6.11038,0.38625,12600
4.48883e-07,1.86647e-07,-2.50833e-06,-0.000166714,-6.44744e-05,-0.00342283,9.66288,9.96807,-0.0568756,5.02238,9.97822,9.66239,-0.0665444,9.89064,213,2.82458,5.18998,0.38625,12601
4.46044e-07,9.65763e-08,-2.51955e-06,-0.000151203,-3.77658e-05,-0.00345709,9.73445,10.0731,-0.133859,5.10722,10.0769,9.7344,-0.137573,10.0476,213,2.86107,6.94395,0.38625,12602
5.43059e-07,1.37616e-07,-2.52524e-06,-0.00020149,-5.19486e-05,-0.00338941,9.59452,10.0409,0.0783562,4.99283,10.0524,9.59472,0.0666998,9.76488,213,2.32212,6.02355,0.38625,12603
-5.19817e-07,-2.83472e-08,-2.53829e-06,-0.000187715,-2.54821e-05,-0.00350967,9.38184,9.86611,-0.534451,5.20326,9.8691,9.38184,-0.537432,10.1717,213,17.6522,11.5323,0.38625,12604
-3.89594e-07,-3.8678e-08,-2.52499e-06,-0.000128095,-2.67305e-05,-0.00350338,9.7649,10.0675,-0.310566,5.18934,10.0679,9.76474,-0.310797,10.2305,213,16.8458,11.9187,0.38625,12605
1.71821e-07,-3.60169e-07,-2.52373e-06,-6.18889e-05,-7.05925e-05,-0.00348726,10.0845,10.0585,-0.140452,5.13596,10.1212,10.0321,-0.150709,10.2276,213,5.25615,17.2547,0.38625,12606
2.2709e-07,-3.96061e-07,-2.52758e-06,-7.96808e-05,-0.000114787,-0.00346293,9.91196,9.80717,-0.187301,5.0637,9.92701,9.80521,-0.200387,10.067,213,4.41318,17.5278,0.38625,12607
1.78974e-07,5.37864e-07,-2.51703e-06,-6.21511e-05,-0.000157309,-0.00339306,10.1066,9.82257,0.163609,5.02201,10.1582,9.82046,0.114155,9.87949,213,5.25123,2.284,0.38625,12608
3.21436e-07,-7.42692e-07,-2.49833e-06,-0.000116863,-0.000665398,-0.00313978,8.96162,7.3242,-0.0620252,5.49624,9.94501,7.32627,-1.04748,9.94515,213,3.1192,18.6504,0.380625,12609
-3.2255e-07,-7.42714e-07,-2.49795e-06,-0.000111851,-0.000663458,-0.00314354,8.98671,7.34012,-0.0631208,5.60486,10.0655,7.34241,-1.14421,10.1266,213,16.9808,18.6504,0.380625,12610
-3.19487e-07,9.24184e-08,-2.51317e-06,-0.000108456,-3.8447e-05,-0.00348893,9.89446,10.1034,-0.19652,5.15037,10.1038,9.89449,-0.196946,10.1977,213,16.2875,7.12198,0.38625,12611
-2.33918e-07,8.69035e-08,-2.51045e-06,-7.53132e-05,-3.7609e-05,-0.00347254,10.1532,10.2657,0.0122055,5.12753,10.2669,10.1524,0.0118103,10.1983,213,15.3361,7.3,0.38625,12612
-1.39137e-07,-1.59171e-07,-2.51262e-06,-5.4907e-05,-5.76128e-05,-0.00346821,10.2291,10.221,0.0401512,5.09877,10.2372,10.2133,0.0396828,10.1856,213,14.0073,14.9217,0.38625,12613
-1.02944e-07,-1.37268e-07,-2.5161e-06,-4.33022e-05,-5.06778e-05,-0.00347923,10.2876,10.2656,0.0310704,5.12998,10.2906,10.263,0.0306556,10.2462,213,13.2342,14.4853,0.38625,12614
-9.37653e-08,-1.94727e-07,-2.51306e-06,-4.04727e-05,-7.05751e-05,-0.00348053,10.2378,10.1479,-0.0310502,5.13571,10.2397,10.1467,-0.0317569,10.2253,213,13.0955,15.4336,0.38625,12615
4.44763e-08,-3.46186e-07,-2.52246e-06,-2.69528e-05,-0.000136671,-0.00343417,10.2584,9.93089,0.087608,5.09713,10.2702,9.9307,0.075972,10.0288,213,8.2808,16.9628,0.38625,12616
4.30314e-08,-2.48012e-07,-2.51236e-06,-2.78561e-05,-8.48267e-05,-0.00350273,10.1998,10.0298,-0.172951,5.18804,10.2016,10.0295,-0.174475,10.2911,213,8.40604,16.053,0.38625,12617
2.02673e-08,-3.15841e-07,-2.51729e-06,-2.53262e-05,-0.000115363,-0.00347757,10.1984,9.92961,-0.106817,5.15776,10.2036,9.92956,-0.111945,10.1813,213,9.22802,16.7147,0.38625,12618
-3.13283e-07,1.84548e-07,-2.50152e-06,-0.000104004,-6.25537e-05,-0.00344807,9.97502,10.0988,-0.00726871,5.05632,10.103,9.97313,-0.0096049,10.0483,213,16.234,5.2768,0.38625,12619
-7.57662e-07,1.4535e-07,-2.52416e-06,-0.000257677,-5.41059e-05,-0.00333693,9.40819,10.0159,0.216384,4.97073,10.0887,9.40459,0.14721,9.61769,213,18.6108,5.95922,0.38625,12620
-1.27605e-06,1.2932e-07,-2.39926e-06,-0.000892588,-4.78243e-05,-0.00298985,6.61996,9.14164,0.359476,5.71328,10.4638,6.62008,-0.962786,10.0708,213,19.5523,6.33264,0.38625,12621
-8.78053e-07,1.06222e-07,-2.50599e-06,-0.000369946,-4.22146e-05,-0.00329496,8.88781,9.86612,0.156434,5.03198,10.0433,8.88773,-0.0206582,9.53881,213,18.9047,6.81528,0.38625,12622
7.5984e-07,1.44395e-07,-2.53097e-06,-0.000258494,-5.57599e-05,-0.00334456,9.3737,9.97887,0.161543,4.98334,10.0558,9.36921,0.0891113,9.64174,213,1.48925,5.95922,0.38625,12623
8.86733e-07,1.03743e-07,-2.51384e-06,-0.000347939,-3.79902e-05,-0.00333285,8.91654,9.84176,0.00637086,5.11963,10.0438,8.9164,-0.195496,9.72471,213,1.19532,6.81528,0.38625,12624
1.27015e-06,1.2523e-07,-2.40966e-06,-0.000895769,-4.86289e-05,-0.00306085,6.37264,8.90142,-0.0902826,5.72065,10.1263,6.37239,-1.31496,10.1018,213,0.547658,6.33264,0.38625,12625
4.85308e-07,2.57493e-07,-2.51614e-06,-0.000174106,-8.82504e-05,-0.00340253,9.60636,9.86265,-0.0307133,4.96118,9.87936,9.60194,-0.0430054,9.78661,213,2.53883,4.25957,0.38625,12626
3.35463e-07,2.54741e-07,-2.49987e-06,-0.000110681,-8.96954e-05,-0.00343042,9.9038,9.96644,-0.00588198,4.99199,9.97607,9.89621,-0.00791263,9.94429,213,3.58023,4.34639,0.38625,12627
2.53159e-07,-2.86506e-07,-2.50225e-06,-9.12946e-05,-9.99458e-05,-0.00342986,9.99241,9.96659,0.0265335,4.99749,10.0169,9.9467,0.0219244,9.96007,213,4.27532,16.6693,0.38625,12628
-1.42789e-08,-5.7352e-09,-2.52229e-06,-2.90303e-05,-2.60399e-05,-0.00350571,10.3696,10.3785,-0.00852143,5.19352,10.3785,10.3696,-0.00852905,10.3826,213,10.5339,10.5968,0.38625,12629
-2.98756e-08,-2.91902e-08,-2.52228e-06,-2.88284e-05,-2.5677e-05,-0.00350676,10.3687,10.3781,-0.0131967,5.19577,10.3783,10.3685,-0.013225,10.3866,213,11.0632,11.519,0.38625,12630
3.12711e-07,1.84485e-07,-2.5006e-06,-0.000102639,-6.32718e-05,-0.00344678,9.98524,10.1028,0.00273757,5.05317,10.1072,9.98278,0.000827289,10.0447,213,3.86597,5.2768,0.38625,12631
3.50469e-07,2.91747e-08,-2.50288e-06,-0.000114281,-2.6217e-05,-0.00345541,10.0037,10.2666,0.0302,5.12168,10.2702,10.0036,0.0267891,10.1127,213,3.70591,9.14074,0.38625,12632
3.05527e-07,1.20396e-08,-2.49893e-06,-0.000101662,-2.34388e-05,-0.00342937,10.1728,10.4063,0.239321,5.08593,10.4088,10.1728,0.236896,10.0559,213,4.13582,9.83322,0.38625,12633
4.32516e-07,3.283e-09,-2.51166e-06,-0.000146529,-2.30508e-05,-0.0034671,9.77812,10.1467,-0.134048,5.14696,10.1533,9.77812,-0.140628,10.1115,213,3.08518,10.1709,0.38625,12634
-2.44677e-07,-1.47272e-07,-2.5063e-06,-8.91051e-05,-5.38067e-05,-0.00345699,10.0662,10.1716,0.0128031,5.08132,10.1744,10.0645,0.0117541,10.1081,213,15.5073,14.7906,0.38625,12635
2.42112e-07,8.24786e-08,-2.50896e-06,-8.11543e-05,-3.62843e-05,-0.00346302,10.1516,10.2855,0.0564969,5.11532,10.2865,10.1512,0.055881,10.1637,213,4.69563,7.40844,0.38625,12636
4.95721e-08,-1.2145e-07,-2.51704e-06,-3.02069e-05,-4.61371e-05,-0.00348613,10.3607,10.3132,0.0445374,5.15857,10.3615,10.3126,0.0443289,10.2928,213,8.3247,14.1296,0.38625,12637
1.57549e-07,-9.9421e-08,-2.51673e-06,-5.79489e-05,-3.98329e-05,-0.00348045,10.2279,10.282,0.0114801,5.13606,10.2832,10.2271,0.01108,10.2442,213,5.84897,13.7254,0.38625,12638
-1.13281e-07,1.2269e-06,-2.46369e-06,-3.36793e-05,-0.000892353,-0.00305853,9.01164,6.44844,-0.0177634,5.73925,10.2362,6.44851,-1.24235,10.1304,213,13.588,0.712826,0.391875,12639
-1.13038e-07,1.19458e-06,-2.42934e-06,-3.42736e-05,-0.000862858,-0.00309627,8.98184,6.50845,-0.158441,5.76509,10.1767,6.50858,-1.35346,10.2032,213,13.588,0.712826,0.380625,12640
-1.27039e-07,1.18912e-06,-2.44885e-06,-4.25732e-05,-0.000816444,-0.0031313,8.96685,6.65678,-0.253228,5.7276,10.0843,6.65693,-1.37086,10.1837,213,14.0494,0.712826,0.38625,12641
-1.02404e-07,8.05756e-07,-2.53576e-06,-3.56706e-05,-0.000291765,-0.00330834,10.1119,9.34745,0.342736,5.03512,10.2626,9.34707,0.192392,9.6451,213,13.4351,1.42565,0.38625,12642
-4.02994e-08,2.90143e-07,-2.50839e-06,-2.8736e-05,-0.000101555,-0.0034603,10.2759,10.0586,0.032479,5.12286,10.2771,10.0586,0.031343,10.1382,213,11.5391,4.21949,0.38625,12643
-6.76685e-08,2.91974e-07,-2.50917e-06,-3.4618e-05,-0.000102612,-0.00345921,10.2398,10.0369,0.0171777,5.11256,10.2412,10.0367,0.0160525,10.1244,213,12.4064,4.17974,0.38625,12644
5.86535e-08,3.98489e-07,-2.51103e-06,-3.31412e-05,-0.000126525,-0.00347052,10.1372,9.85843,-0.123652,5.13357,10.1404,9.85839,-0.126775,10.1291,213,7.92411,3.26179,0.38625,12645
6.764e-08,2.92728e-07,-2.50884e-06,-3.53399e-05,-0.000100488,-0.00345333,10.2608,10.0663,0.057791,5.10313,10.2626,10.066,0.05629,10.1094,213,7.69172,4.18172,0.38625,12646
9.02078e-08,3.99951e-07,-2.51009e-06,-3.93209e-05,-0.00012858,-0.00345274,10.149,9.8826,-0.0402538,5.09734,10.1518,9.88242,-0.042876,10.0627,213,7.05697,3.22197,0.38625,12647
1.21967e-07,-7.66127e-08,-2.51906e-06,-4.94217e-05,-3.53401e-05,-0.0034896,10.2657,10.3077,-0.00353238,5.15617,10.3085,10.2651,-0.00380138,10.2907,213,6.54565,13.1056,0.38625,12648
9.16163e-08,-5.70699e-08,-2.52093e-06,-4.08504e-05,-3.0663e-05,-0.00349833,10.3056,10.336,-0.0152495,5.17594,10.3365,10.3053,-0.0154279,10.3364,213,7.24233,12.4858,0.38625,12649
6.89717e-08,-8.54298e-08,-2.51997e-06,-3.57221e-05,-3.83333e-05,-0.00349551,10.3218,10.314,-0.00593322,5.16523,10.3244,10.3116,-0.00606877,10.324,213,7.78351,13.3077,0.38625,12650
1.01139e-09,4.19588e-08,-2.52196e-06,-2.82941e-05,-2.92333e-05,-0.00350379,10.3701,10.3673,-0.00451146,5.18735,10.3701,10.3673,-0.00455929,10.3733,213,10.0268,8.82834,0.38625,12651
1.36909e-09,1.82999e-08,-2.52219e-06,-2.85896e-05,-2.67352e-05,-0.00350452,10.3739,10.3794,-0.00200471,5.19071,10.3794,10.3739,-0.00201158,10.3787,213,10.0046,9.67452,0.38625,12652
3.22364e-08,2.7764e-08,-2.52209e-06,-3.09574e-05,-2.75601e-05,-0.00350415,10.3579,10.368,-0.00989345,5.189,10.3681,10.3579,-0.0099308,10.3729,213,8.97013,9.3134,0.38625,12653
6.54165e-08,3.75391e-08,-2.52181e-06,-3.39546e-05,-2.73046e-05,-0.00350358,10.342,10.3619,-0.0150888,5.18865,10.3621,10.3418,-0.0151675,10.3672,213,7.93564,8.95228,0.38625,12654
1.05664e-07,1.1193e-07,-2.51914e-06,-4.35419e-05,-4.4266e-05,-0.00349254,10.2642,10.2621,-0.0312663,5.15031,10.269,10.2576,-0.0315784,10.2949,213,6.8729,6.78832,0.38625,12655
-6.42824e-08,3.60904e-08,-2.52107e-06,-3.39403e-05,-2.63886e-05,-0.00350153,10.3515,10.3741,0.000514706,5.18698,10.3744,10.3513,0.000416632,10.3625,213,12.1199,9.01285,0.38625,12656
-1.83846e-07,-1.83399e-07,-2.50612e-06,-6.66474e-05,-6.34365e-05,-0.00346178,10.1587,10.1683,0.0239869,5.0789,10.1811,10.1465,0.0233244,10.1406,213,14.7805,15.358,0.38625,12657
-8.82264e-08,-3.81557e-07,-2.52578e-06,-3.83927e-05,-0.000167448,-0.00341837,10.1405,9.75523,0.0509694,5.06501,10.1614,9.75395,0.0313652,9.93257,213,13.1947,17.2383,0.38625,12658
-1.27158e-07,-4.40565e-07,-2.53524e-06,-4.74341e-05,-0.000153962,-0.00341609,10.1348,9.81682,0.0791231,5.08157,10.2002,9.79339,0.0371114,9.96594,213,14.1355,17.6616,0.38625,12659
-9.29236e-08,-5.56763e-07,-2.54427e-06,-3.15831e-05,-0.000199781,-0.00343228,10.0357,9.53365,-0.115599,5.19188,10.1517,9.53412,-0.232062,10.0892,213,13.4325,18.0948,0.38625,12660
7.29727e-08,7.69436e-07,-2.54924e-06,-3.73941e-05,-0.000263748,-0.00338385,9.95069,9.27501,-0.0387192,5.0739,10.03,9.27486,-0.117841,9.79211,213,7.4812,1.52425,0.38625,12661
1.07893e-07,8.01318e-07,-2.5453e-06,-3.23609e-05,-0.000284464,-0.00340928,9.83532,9.08277,-0.245031,5.1676,9.96219,9.08388,-0.373017,9.92524,213,6.6648,1.42575,0.38625,12662
9.74642e-08,5.5628e-07,-2.52368e-06,-4.12738e-05,-0.000227137,-0.00339104,10.0201,9.46528,0.0207835,5.02308,10.0436,9.46504,-0.00252152,9.76972,213,6.86088,2.32386,0.38625,12663
-7.28056e-08,7.62405e-07,-2.54255e-06,-3.37125e-05,-0.000254501,-0.00342057,9.88623,9.22715,-0.223786,5.13289,9.96425,9.22686,-0.30152,9.91766,213,12.6188,1.52421,0.38625,12664
-6.6746e-08,5.408e-07,-2.51955e-06,-3.37778e-05,-0.000202818,-0.00342781,10.0268,9.52216,-0.104699,5.08078,10.042,9.52185,-0.119576,9.91174,213,12.4226,2.42216,0.38625,12665
-9.64392e-08,5.6049e-07,-2.51747e-06,-4.08609e-05,-0.000229154,-0.00336544,10.0975,9.53539,0.173358,4.9908,10.1267,9.53441,0.145118,9.69902,213,13.239,2.3236,0.38625,12666
-1.47905e-07,-6.59723e-07,-2.53925e-06,-6.36163e-05,-0.000531841,-0.00328456,9.25385,7.85617,-0.360908,5.15989,9.60634,7.85621,-0.713436,9.56555,213,14.7511,18.3642,0.38625,12667
3.98522e-07,4.77162e-08,-2.51184e-06,-0.000122065,-2.7817e-05,-0.00348798,9.84741,10.1287,-0.200108,5.16784,10.1325,9.8467,-0.203187,10.1958,213,3.276,8.44825,0.38625,12668
-5.25297e-07,4.74025e-08,-2.54029e-06,-0.000190201,-2.76972e-05,-0.00346363,9.50552,9.99061,-0.265915,5.13394,9.99632,9.50546,-0.271562,10.0315,213,17.6958,8.41377,0.38625,12669
-4.91142e-07,2.00894e-08,-2.53166e-06,-0.000155199,-2.47051e-05,-0.00351639,9.56318,9.95271,-0.470228,5.21504,9.95647,9.56281,-0.473612,10.2389,213,17.4447,9.4784,0.38625,12670
-3.93834e-07,4.73576e-08,-2.52251e-06,-0.000118577,-2.7635e-05,-0.00352313,9.75798,10.0295,-0.404864,5.22048,10.0339,9.75581,-0.407081,10.3047,213,16.824,8.44825,0.38625,12671
1.44419e-07,-2.0399e-08,-2.5183e-06,-5.75338e-05,-2.46343e-05,-0.00348858,10.2529,10.3511,0.010993,5.17039,10.3515,10.2528,0.0106861,10.2918,213,6.18251,11.2171,0.38625,12672
9.89197e-08,-1.11622e-08,-2.52105e-06,-4.35269e-05,-2.37738e-05,-0.00350001,10.3056,10.3646,-0.012254,5.18853,10.3647,10.3056,-0.0123472,10.3476,213,7.09327,10.8337,0.38625,12673
9.51867e-08,-3.25487e-08,-2.52144e-06,-4.17948e-05,-2.76924e-05,-0.00350052,10.3022,10.3443,-0.0222982,5.18347,10.3445,10.3021,-0.0224183,10.3458,213,7.1678,11.6597,0.38625,12674
1.38922e-07,-4.25041e-08,-2.51909e-06,-5.57033e-05,-2.83644e-05,-0.00349099,10.2447,10.3263,-0.00987769,5.16843,10.3267,10.2446,-0.0101564,10.296,213,6.25704,12.0431,0.38625,12675
1.54757e-07,3.01145e-08,-2.51578e-06,-5.85288e-05,-2.65738e-05,-0.00348214,10.261,10.3564,0.0413079,5.15792,10.3568,10.2609,0.0409592,10.2683,213,6.00343,9.16216,0.38625,12676
1.70606e-07,1.09764e-08,-2.5139e-06,-6.27256e-05,-2.37904e-05,-0.00347781,10.2578,10.374,0.0634775,5.15568,10.3744,10.2578,0.0630626,10.2535,213,5.75081,9.92104,0.38625,12677
1.10383e-07,2.34688e-08,-2.51987e-06,-4.79424e-05,-2.58972e-05,-0.00349392,10.291,10.3568,0.00450743,5.17633,10.357,10.291,0.00433913,10.3198,213,6.84322,9.43666,0.38625,12678
7.4441e-08,1.55763e-07,-2.51755e-06,-3.74306e-05,-5.87927e-05,-0.00348263,10.2872,10.2235,0.00305542,5.14275,10.2881,10.223,0.00261598,10.2531,213,7.59969,5.9649,0.38625,12679
4.45934e-08,1.49294e-07,-2.51745e-06,-3.04629e-05,-5.74619e-05,-0.00348314,10.3327,10.2521,0.0261842,5.15364,10.3332,10.2519,0.0258849,10.2669,213,8.48392,6.10168,0.38625,12680
-5.62707e-08,-2.7349e-07,-2.51574e-06,-3.16936e-05,-9.4155e-05,-0.00345996,10.2823,10.0958,0.0486505,5.11813,10.2838,10.0955,0.0475227,10.1434,213,12.1453,16.3665,0.38625,12681
-3.90352e-08,-3.66375e-07,-2.52453e-06,-2.55375e-05,-0.000150541,-0.00343208,10.2298,9.85664,0.0610125,5.0971,10.2425,9.85669,0.0482843,10.0069,213,11.6094,17.1075,0.38625,12682
3.99375e-08,5.31834e-07,-2.5246e-06,-2.82531e-05,-0.000205751,-0.00338032,10.2021,9.67226,0.195938,5.02324,10.2222,9.67238,0.175717,9.78317,213,8.54443,2.46219,0.38625,12683
6.69367e-08,5.38768e-07,-2.52665e-06,-3.32367e-05,-0.000209113,-0.00338271,10.1532,9.62817,0.154732,5.01783,10.1719,9.62805,0.136193,9.77511,213,7.67729,2.42237,0.38625,12684
1.79895e-07,-6.07172e-08,-2.51645e-06,-6.48853e-05,-3.25118e-05,-0.00348162,10.2047,10.3014,0.00550514,5.14863,10.3022,10.2044,0.00499251,10.2487,213,5.56036,12.6629,0.38625,12685
2.02429e-07,-2.99986e-08,-2.51397e-06,-7.09363e-05,-2.52177e-05,-0.00347424,10.214,10.3505,0.0549318,5.14852,10.3513,10.2139,0.0542371,10.2291,213,5.27175,11.6005,0.38625,12686
-6.47622e-08,-2.13226e-07,-2.51452e-06,-3.40585e-05,-7.62439e-05,-0.00348272,10.2523,10.1264,-0.0421973,5.14839,10.2537,10.1259,-0.0430626,10.2334,213,12.3414,15.6561,0.38625,12687
-3.96244e-08,-2.13504e-07,-2.51485e-06,-2.87569e-05,-7.65367e-05,-0.00348476,10.2776,10.1349,-0.0388805,5.15919,10.2786,10.1348,-0.039796,10.2473,213,11.5298,15.6408,0.38625,12688
-7.50188e-07,1.23788e-06,-2.41408e-06,-0.000310278,-0.000899912,-0.00298329,7.52336,5.76325,-0.455787,6.18942,9.70644,5.79678,-2.6724,10.9601,213,18.8097,0.484385,0.38625,12689
7.52717e-07,1.25122e-06,-2.43254e-06,-0.000316674,-0.00092001,-0.00296109,7.49065,5.68964,-0.403138,6.12803,9.65031,5.73259,-2.60575,10.8418,213,1.29031,0.484385,0.38625,12690
5.92742e-07,9.59539e-07,-2.5244e-06,-0.00023277,-0.000674429,-0.00308082,8.40637,7.08799,-0.0952841,4.93862,9.09022,7.09588,-0.787025,9.04648,213,1.77033,0.962542,0.38625,12691
-5.58898e-07,-7.14374e-07,-2.54702e-06,-0.000236417,-0.00061298,-0.00310853,8.49094,7.36687,-0.0825357,5.02064,9.23025,7.35604,-0.811019,9.24772,213,18.3297,18.5375,0.38625,12692
-6.90689e-07,-9.83212e-07,-2.49691e-06,-0.000303545,-0.000863287,-0.00300929,7.59851,5.92764,-0.478346,6.36223,9.9191,5.93407,-2.80536,11.2732,213,18.8097,19.0156,0.38625,12693
5.1151e-10,6.76869e-08,-2.52161e-06,-2.82544e-05,-3.20562e-05,-0.00350326,10.3631,10.3517,-0.010106,5.18666,10.3632,10.3517,-0.0101572,10.3676,213,10.049,7.98216,0.38625,12694
-7.13918e-07,-1.75192e-07,-2.53763e-06,-0.000235588,-6.48809e-05,-0.00337414,9.39199,9.90156,0.023176,4.99313,9.95597,9.39104,-0.0302831,9.71611,213,18.5027,15.226,0.38625,12695
-5.22758e-07,-2.27635e-07,-2.52159e-06,-0.000220443,-7.5671e-05,-0.00338506,9.41638,9.84853,-0.0302401,4.95826,9.86738,9.41642,-0.0491324,9.6989,213,17.7471,16.0696,0.38625,12696
-3.84488e-08,1.14289e-06,-2.46604e-06,-2.77278e-05,-0.000790377,-0.00315666,9.06048,6.78391,-0.279622,5.51188,9.90225,6.78402,-1.12151,9.84236,213,11.3876,0.811382,0.38625,12697
3.9066e-08,1.14168e-06,-2.46148e-06,-2.57456e-05,-0.000785359,-0.00318224,9.00748,6.73998,-0.414883,5.54039,9.83648,6.74041,-1.24431,9.90265,213,8.71244,0.811382,0.38625,12698
3.96042e-10,-1.82913e-07,-2.51246e-06,-2.54599e-05,-6.41517e-05,-0.00347484,10.3686,10.2531,0.0719634,5.14855,10.3688,10.2531,0.0717328,10.2397,213,10.0512,15.2034,0.38625,12699
1.25508e-06,-5.44409e-08,-2.4228e-06,-0.000845539,-2.91521e-05,-0.00308749,6.65918,9.09616,-0.0331949,5.72357,10.2545,6.66029,-1.19264,10.1396,213,0.597879,12.1311,0.38625,12700
-7.03995e-07,-2.84084e-08,-2.53901e-06,-0.000267649,-2.62114e-05,-0.00338032,9.29765,10.0184,0.00609337,5.03269,10.046,9.29558,-0.0194122,9.71196,213,18.4348,11.5354,0.38625,12701
1.31913e-07,-8.47121e-11,-2.51826e-06,-5.33785e-05,-2.3914e-05,-0.00348886,10.2799,10.3678,0.0247236,5.17179,10.3681,10.2799,0.0244734,10.2998,213,6.42204,10.3774,0.38625,12702
-7.22413e-08,-1.5047e-07,-2.51603e-06,-3.66506e-05,-5.5014e-05,-0.00348591,10.2936,10.2388,-0.00273179,5.14887,10.2946,10.2381,-0.00309727,10.2696,213,12.48,14.7079,0.38625,12703
-4.66332e-08,-1.64569e-07,-2.51582e-06,-3.035e-05,-5.97381e-05,-0.00348969,10.3054,10.2177,-0.0210059,5.16366,10.306,10.2175,-0.0213635,10.2834,213,11.7258,14.9304,0.38625,12704
1.96541e-08,1.23928e-07,-2.51922e-06,-2.84899e-05,-4.9124e-05,-0.00349287,10.3404,10.2788,-0.00102225,5.17096,10.3407,10.2787,-0.00123759,10.3111,213,9.34445,6.59796,0.38625,12705
-5.19089e-11,1.4835e-07,-2.51837e-06,-2.68e-05,-5.5289e-05,-0.00348885,10.3441,10.259,0.00958015,5.16761,10.3445,10.259,0.0092296,10.2928,213,10.0475,6.13403,0.38625,12706
2.34679e-08,1.78137e-07,-2.51485e-06,-2.84815e-05,-6.44748e-05,-0.00347432,10.3507,10.2432,0.064579,5.14355,10.3512,10.2432,0.0641009,10.2335,213,9.18701,5.63775,0.38625,12707
-7.54467e-08,2.18874e-07,-2.51276e-06,-3.75513e-05,-7.46606e-05,-0.00346419,10.2946,10.1838,0.0658451,5.11503,10.2954,10.1835,0.0653339,10.1746,213,12.5886,4.99913,0.38625,12708
-1.06626e-07,1.61937e-07,-2.51611e-06,-4.5004e-05,-6.01026e-05,-0.00347787,10.2515,10.2064,0.0041491,5.1246,10.2529,10.2055,0.00367872,10.2256,213,13.3041,5.81835,0.38625,12709
-1.09225e-07,2.27372e-07,-2.51167e-06,-4.56455e-05,-7.81777e-05,-0.00345907,10.2499,10.1528,0.0605622,5.0955,10.2509,10.1525,0.0598872,10.1422,213,13.4072,4.86033,0.38625,12710
1.63569e-07,9.65611e-08,-2.51585e-06,-6.18402e-05,-4.07253e-05,-0.00347843,10.2075,10.2706,0.00876893,5.13174,10.2718,10.2068,0.0083152,10.2311,213,5.78426,7.09838,0.38625,12711
3.30981e-08,-3.37135e-08,-2.52234e-06,-2.94429e-05,-2.79855e-05,-0.00350523,10.3624,10.3668,-0.0130561,5.19018,10.3673,10.362,-0.0130893,10.3777,213,8.92019,11.6713,0.38625,12712
3.57052e-09,-2.06115e-08,-2.5224e-06,-2.97872e-05,-2.50916e-05,-0.0035064,10.3658,10.3798,-0.0121818,5.196,10.3798,10.3658,-0.0121938,10.385,213,9.91635,11.1754,0.38625,12713
2.79717e-08,-5.87202e-08,-2.52176e-06,-2.87334e-05,-3.17455e-05,-0.00350309,10.3617,10.3527,-0.00954911,5.18568,10.3618,10.3527,-0.00960314,10.3668,213,9.07089,12.5109,0.38625,12714
-6.77044e-10,-4.31708e-08,-2.52225e-06,-2.88873e-05,-2.90234e-05,-0.00350492,10.3635,10.3631,-0.0126785,5.18852,10.3643,10.3623,-0.0126962,10.376,213,10.0671,12.015,0.38625,12715
-2.75347e-07,-2.73025e-08,-2.50795e-06,-9.09846e-05,-2.42644e-05,-0.00346168,10.1335,10.3326,0.0716868,5.13253,10.3353,10.1322,0.0702586,10.165,213,15.7151,11.4585,0.38625,12716
9.89713e-08,3.03912e-07,-2.50724e-06,-4.20557e-05,-0.000103854,-0.00344939,10.2212,10.0368,0.050111,5.08723,10.2231,10.0364,0.0486469,10.0824,213,6.87459,4.04116,0.38625,12717
-6.12508e-07,-5.72666e-08,-2.52949e-06,-0.000259724,-3.12296e-05,-0.00341698,9.21424,9.89631,-0.210413,5.08423,9.92752,9.21354,-0.24093,9.83093,213,18.0216,12.5592,0.38625,12718
-8.5446e-07,-5.90104e-08,-2.5146e-06,-0.000340279,-3.4663e-05,-0.00325665,9.2159,10.1282,0.510301,4.99195,10.3112,9.2159,0.327302,9.4838,213,18.8042,12.5623,0.38625,12719
-5.48175e-07,1.36825e-07,-2.5251e-06,-0.000204756,-5.10652e-05,-0.00339722,9.55242,10.0112,0.0226687,5.00982,10.0267,9.5525,0.00707709,9.79115,213,17.7779,6.02355,0.38625,12720
-4.02256e-08,5.36283e-07,-2.52212e-06,-2.80196e-05,-0.00020207,-0.00340108,10.1494,9.62981,0.0805153,5.05405,10.169,9.62981,0.0609042,9.84958,213,11.5553,2.46191,0.38625,12721
2.40888e-07,2.30505e-07,-2.50498e-06,-8.55963e-05,-8.05717e-05,-0.00343967,10.0578,10.0728,0.0456681,5.02158,10.0875,10.0444,0.0443297,10.0217,213,4.57664,4.70087,0.38625,12722
-6.81825e-07,-2.98981e-07,-2.53961e-06,-0.000252951,-9.86114e-05,-0.00339654,9.10707,9.56778,-0.276777,4.93933,9.5922,9.09233,-0.28646,9.63845,213,18.4967,16.815,0.38625,12723
-5.90111e-07,-3.88519e-07,-2.56136e-06,-0.000206207,-0.00011636,-0.00337069,9.42056,9.68876,-0.0256492,4.94968,9.7714,9.44021,-0.127948,9.73798,213,18.3048,17.5749,0.38625,12724
5.0877e-07,3.40619e-07,-2.51111e-06,-0.000210164,-0.000109982,-0.00337628,9.3987,9.69775,-0.0523828,4.89426,9.71798,9.39663,-0.0705453,9.63187,213,2.35292,3.43043,0.38625,12725
-9.58032e-08,1.20632e-06,-2.44571e-06,-4.05014e-05,-0.000881228,-0.00306021,8.99959,6.48996,-0.014467,5.64997,10.1424,6.4902,-1.15753,9.98787,213,13.1267,0.712826,0.38625,12726
9.96827e-08,1.18841e-06,-2.45074e-06,-4.06394e-05,-0.000876726,-0.00311748,8.83138,6.3356,-0.353221,5.66439,9.90302,6.33651,-1.42577,10.0328,213,6.97331,0.712873,0.38625,12727
-1.19475e-07,7.89799e-08,-2.51806e-06,-4.91303e-05,-3.69799e-05,-0.00348695,10.2707,10.3069,0.00850619,5.14998,10.3082,10.2696,0.00825016,10.2807,213,13.4949,7.58427,0.38625,12728
-8.32211e-08,6.92418e-08,-2.52039e-06,-3.90623e-05,-3.50235e-05,-0.00349763,10.305,10.317,-0.0191069,5.16873,10.3182,10.3039,-0.0192399,10.3303,213,12.6604,7.89461,0.38625,12729
-1.93994e-08,1.24358e-07,-2.52037e-06,-2.82972e-05,-4.895e-05,-0.00349699,10.3291,10.2675,-0.0252108,5.17738,10.3293,10.2675,-0.0254305,10.324,213,10.748,6.5879,0.38625,12730
-2.35567e-08,1.77835e-07,-2.51728e-06,-2.84215e-05,-6.39092e-05,-0.00348504,10.3188,10.2129,0.000567696,5.15962,10.3193,10.2128,9.02451e-05,10.2664,213,10.9088,5.63598,0.38625,12731
-1.33421e-07,5.5873e-10,-2.5155e-06,-5.51275e-05,-2.42285e-05,-0.00348109,10.2928,10.385,0.066035,5.15987,10.3854,10.2928,0.0656514,10.2738,213,13.6773,10.3755,0.38625,12732
-1.10276e-07,2.33486e-08,-2.51785e-06,-4.8745e-05,-2.54754e-05,-0.00348805,10.306,10.3755,0.0394315,5.16827,10.3757,10.306,0.0392117,10.3018,213,13.2338,9.46505,0.38625,12733
6.8188e-07,-3.01478e-07,-2.5391e-06,-0.000259515,-0.000102444,-0.00334544,9.21658,9.68545,0.00488103,4.92118,9.77213,9.20502,-0.0702386,9.57142,213,1.60328,16.815,0.38625,12734
1.24934e-06,-7.90246e-08,-2.42057e-06,-0.000870534,-3.77463e-05,-0.00307032,6.53249,9.01842,-0.0340312,5.57793,10.0701,6.53244,-1.08571,9.87433,213,0.597879,13.1061,0.38625,12735
-7.86543e-08,-8.88713e-07,-2.51619e-06,-3.36e-05,-0.000825538,-0.00315576,8.91566,6.55166,-0.404236,5.8688,10.1242,6.55221,-1.61336,10.4213,213,13.1253,18.7974,0.38625,12736
-3.35049e-07,2.54359e-07,-2.50058e-06,-0.000110934,-8.97757e-05,-0.00343126,9.89931,9.96247,-0.012116,4.99395,9.97328,9.89102,-0.0146303,9.94703,213,16.5198,4.34639,0.38625,12737
-2.40111e-07,2.30712e-07,-2.50309e-06,-8.54508e-05,-8.20286e-05,-0.00342895,10.0881,10.0983,0.10753,5.00443,10.1152,10.0724,0.106319,9.98756,213,15.5232,4.70075,0.38625,12738
9.19279e-08,-9.50953e-07,-2.51944e-06,-2.77544e-05,-0.000876979,-0.00306498,9.07642,6.54142,0.0100674,6.00237,10.5458,6.54096,-1.4589,10.5866,213,6.48571,18.8284,0.391875,12739
9.15659e-08,-9.17505e-07,-2.48497e-06,-2.82239e-05,-0.000842725,-0.0030974,9.07936,6.64801,-0.082351,6.00691,10.5056,6.6476,-1.5082,10.6239,213,6.48571,18.8284,0.380625,12740
-1.6013e-07,9.893e-08,-2.51541e-06,-6.00697e-05,-4.16096e-05,-0.00347993,10.2109,10.266,0.00232811,5.1328,10.2675,10.2099,0.00187459,10.2369,213,14.2685,7.03819,0.38625,12741
1.38273e-07,6.51375e-07,-2.53859e-06,-4.7951e-05,-0.000232689,-0.00337886,10,9.44857,0.0570245,5.03107,10.064,9.43969,0.00188145,9.76496,213,5.95801,1.85487,0.38625,12742
1.72384e-07,9.32439e-07,-2.51969e-06,-7.11889e-05,-0.000595459,-0.00322646,9.18972,7.62474,-0.229009,5.08083,9.5611,7.62491,-0.600561,9.34523,213,5.3438,1.142,0.38625,12743
7.69081e-08,-9.30363e-07,-2.50369e-06,-3.45954e-05,-0.000858166,-0.00307918,9.04892,6.5905,-0.0393999,6.0705,10.5752,6.59058,-1.56578,10.7193,213,6.94707,18.8284,0.38625,12744
5.23217e-07,-2.27886e-07,-2.52206e-06,-0.000220442,-7.60061e-05,-0.00338497,9.41559,9.84674,-0.0307757,4.95753,9.86533,9.41595,-0.0497233,9.69817,213,2.35292,16.0696,0.38625,12745
-1.71835e-07,-3.54452e-07,-2.51739e-06,-6.18934e-05,-9.03663e-05,-0.00342802,10.2097,10.1247,0.16153,5.07408,10.2662,10.1118,0.118005,10.0718,213,14.8385,17.2283,0.38625,12746
-6.18946e-08,-3.66228e-07,-2.52361e-06,-3.05057e-05,-0.000149702,-0.00343876,10.1807,9.82485,0.00677838,5.0977,10.1918,9.82411,-0.00359282,10.0166,213,12.421,17.1228,0.38625,12747
1.29553e-07,4.67005e-07,-2.5086e-06,-5.04523e-05,-0.000157513,-0.00343616,10.0413,9.72174,-0.0652739,5.05794,10.0461,9.72154,-0.0698285,9.95759,213,6.1541,2.75298,0.38625,12748
-3.12157e-07,1.19461e-08,-2.49982e-06,-9.47499e-05,-2.44471e-05,-0.00342535,10.2249,10.4348,0.282807,5.08248,10.4413,10.2249,0.276339,10.0585,213,15.964,9.83306,0.38625,12749
1.31255e-07,3.4071e-07,-2.50255e-06,-5.11598e-05,-0.000115537,-0.00345939,10.0964,9.90426,-0.0773838,5.08784,10.0976,9.90378,-0.0780973,10.0802,213,6.17213,3.67346,0.38625,12750
3.83475e-08,-1.16756e-08,-2.52231e-06,-3.03495e-05,-2.45401e-05,-0.0035058,10.366,10.3833,-0.00850904,5.19599,10.3834,10.3659,-0.00855117,10.3832,213,8.76949,10.8317,0.38625,12751
-1.15485e-06,-2.28723e-07,-2.42364e-06,-0.00077397,-7.49423e-05,-0.00315338,6.74557,8.83222,-0.357162,5.41571,9.65306,6.74591,-1.17835,9.70992,213,19.4443,15.8276,0.38625,12752
4.81314e-08,2.1166e-07,-2.51257e-06,-3.06531e-05,-7.29346e-05,-0.00347232,10.3168,10.1906,0.0431386,5.13756,10.3176,10.1904,0.0425227,10.2121,213,8.32648,5.14147,0.38625,12753
2.2609e-07,-1.08315e-07,-2.51247e-06,-8.2622e-05,-4.10346e-05,-0.0034715,10.1006,10.2248,-0.0154278,5.12106,10.226,10.1001,-0.0161283,10.1798,213,4.85747,13.9743,0.38625,12754
-1.86519e-08,-5.96958e-08,-2.52176e-06,-2.85153e-05,-3.32598e-05,-0.00350238,10.3604,10.3463,-0.00932377,5.18498,10.3606,10.3461,-0.00936543,10.3627,213,10.7071,12.5491,0.38625,12755
-7.86531e-09,-9.77763e-08,-2.52001e-06,-2.72396e-05,-4.10291e-05,-0.0034957,10.3648,10.3237,0.0112017,5.17693,10.3649,10.3237,0.0110758,10.3333,213,10.3511,13.5792,0.38625,12756
9.72333e-09,-7.71278e-08,-2.52107e-06,-2.80917e-05,-3.65467e-05,-0.00349969,10.3612,10.3359,-0.00180453,5.18158,10.3613,10.3359,-0.00188328,10.3505,213,9.71098,13.045,0.38625,12757
-3.52089e-07,-6.14809e-08,-2.51577e-06,-0.000119781,-3.12246e-05,-0.0034761,9.88834,10.1527,-0.130533,5.14228,10.1534,9.88826,-0.131161,10.1546,213,16.5241,12.6934,0.38625,12758
-2.75559e-07,-6.60665e-08,-2.51302e-06,-9.32843e-05,-3.24685e-05,-0.00347295,10.0575,10.2391,-0.0310052,5.13543,10.2394,10.0576,-0.0314257,10.1812,213,15.8093,12.8307,0.38625,12759
-2.96239e-07,-9.02755e-08,-2.51046e-06,-0.000103834,-3.72842e-05,-0.00346234,10.0109,10.2096,-0.0144481,5.11271,10.2102,10.011,-0.0152027,10.1273,213,16.0216,13.527,0.38625,12760
2.38229e-07,-4.66757e-08,-2.51205e-06,-8.20739e-05,-2.88551e-05,-0.0034626,10.1708,10.3297,0.079687,5.12568,10.3304,10.1707,0.0790648,10.1724,213,4.78124,12.2156,0.38625,12761
9.41504e-08,-2.32099e-07,-2.51378e-06,-4.08562e-05,-8.58536e-05,-0.00348119,10.1849,10.0505,-0.0847771,5.13638,10.1867,10.05,-0.0860752,10.2051,213,6.95235,15.9351,0.38625,12762
1.30876e-07,-2.43761e-07,-2.50933e-06,-5.1971e-05,-8.94433e-05,-0.00346078,10.1698,10.0579,-0.00577667,5.09096,10.1736,10.0567,-0.00833649,10.124,213,6.14256,16.0802,0.38625,12763
1.33827e-07,-1.87146e-07,-2.51132e-06,-5.33941e-05,-6.75259e-05,-0.00347236,10.1938,10.1516,-0.0120808,5.10484,10.197,10.1491,-0.0127074,10.1858,213,6.16318,15.3587,0.38625,12764
-1.55129e-07,3.06943e-08,-2.51237e-06,-5.97566e-05,-2.62566e-05,-0.00347417,10.2798,10.3798,0.0875004,5.14679,10.3805,10.2797,0.0869281,10.2435,213,14.0683,9.15471,0.38625,12765
-1.73429e-07,1.1499e-08,-2.50956e-06,-6.5956e-05,-2.38012e-05,-0.0034644,10.2804,10.4062,0.135795,5.13607,10.4071,10.2804,0.134934,10.2094,213,14.3478,9.91725,0.38625,12766
-3.04261e-08,5.13391e-08,-2.52166e-06,-3.10376e-05,-2.93805e-05,-0.00350297,10.3553,10.3603,-0.00863706,5.18477,10.3608,10.3549,-0.00871486,10.3666,213,11.0844,8.49751,0.38625,12767
1.27233e-07,-3.32248e-07,-2.51994e-06,-5.05438e-05,-0.00011364,-0.00344958,10.1374,9.94901,-0.00901049,5.07772,10.143,9.94676,-0.0124012,10.0587,213,6.09394,16.9556,0.38625,12768
9.19525e-08,-3.0152e-07,-2.51806e-06,-3.97134e-05,-0.000113559,-0.00345068,10.2008,9.98035,0.0187839,5.09575,10.2058,9.97984,0.0142983,10.0804,213,6.93173,16.6565,0.38625,12769
1.69896e-07,-1.40331e-07,-2.51241e-06,-6.15318e-05,-5.43647e-05,-0.00346858,10.1974,10.2188,0.0271203,5.0986,10.2238,10.193,0.0265744,10.1818,213,5.60118,14.6146,0.38625,12770
7.5489e-07,-9.23288e-08,-2.53737e-06,-0.00025164,-4.07483e-05,-0.00335432,9.43257,10.0621,0.170835,5.02893,10.1464,9.43058,0.08853,9.71975,213,1.53947,13.4796,0.38625,12771
8.58735e-07,-6.02331e-08,-2.52929e-06,-0.000323506,-3.08595e-05,-0.00326051,9.319,10.1926,0.551816,5.00611,10.3783,9.319,0.366094,9.52684,213,1.29576,12.5623,0.38625,12772
-4.63667e-07,-2.9577e-07,-2.52078e-06,-0.000176258,-0.000108011,-0.00338917,9.5728,9.77652,-0.0179848,4.91527,9.79808,9.56571,-0.0324507,9.71643,213,17.5552,16.8295,0.38625,12773
4.64746e-07,-2.97292e-07,-2.52278e-06,-0.00017641,-0.000112221,-0.00338428,9.57404,9.76565,-0.00167476,4.90279,9.78816,9.56729,-0.0174309,9.69704,213,2.54485,16.8295,0.38625,12774
5.91462e-07,-3.95029e-07,-2.55905e-06,-0.00022064,-0.00011782,-0.00332868,9.4603,9.76723,0.182576,4.89785,9.85296,9.49988,0.0572684,9.62401,213,1.79521,17.5749,0.38625,12775
1.13978e-06,3.18321e-07,-2.41338e-06,-0.000775952,-9.68048e-05,-0.00313507,6.72211,8.74942,-0.320034,5.37948,9.59382,6.72282,-1.16514,9.6493,213,0.655674,3.67244,0.38625,12776
-1.06928e-07,-9.07958e-08,-2.51884e-06,-4.43826e-05,-4.01708e-05,-0.0034868,10.2902,10.3028,0.0143739,5.14571,10.3055,10.2878,0.0140847,10.2826,213,13.2615,13.4648,0.38625,12777
-7.73065e-08,-1.09585e-07,-2.51878e-06,-3.83239e-05,-4.45968e-05,-0.00348903,10.3064,10.2877,0.00584337,5.15107,10.3077,10.2867,0.0055714,10.2916,213,12.5667,13.8841,0.38625,12778
-1.186e-06,6.22602e-08,-2.42879e-06,-0.000804331,-3.13179e-05,-0.00305895,6.99651,9.30401,0.266285,5.5689,10.355,6.99453,-0.782763,9.8952,213,19.3838,8.08965,0.38625,12779
-1.19556e-06,4.70145e-08,-2.39855e-06,-0.000793758,-3.00798e-05,-0.00307713,7.00789,9.28753,0.191867,5.62082,10.361,7.00692,-0.880636,9.99595,213,19.3838,8.57715,0.380625,12780
1.16695e-06,5.88213e-08,-2.44047e-06,-0.000822183,-3.59291e-05,-0.00308035,6.80412,9.15115,0.0633294,5.41128,10.0195,6.8021,-0.803029,9.62594,213,0.716167,8.08965,0.38625,12781
6.26705e-08,-3.31257e-08,-2.52217e-06,-3.549e-05,-2.79294e-05,-0.00350407,10.3291,10.3516,-0.024906,5.18838,10.3518,10.329,-0.0249679,10.3654,213,8.00591,11.6587,0.38625,12782
-2.69485e-08,-1.28397e-07,-2.51809e-06,-2.90854e-05,-4.99847e-05,-0.00349129,10.3391,10.2767,0.00412103,5.16774,10.3394,10.2766,0.00390183,10.3043,213,11.0384,14.2548,0.38625,12783
-5.05383e-08,-1.20629e-07,-2.51847e-06,-3.14951e-05,-4.81773e-05,-0.00349131,10.3299,10.2801,0.00210853,5.16423,10.3303,10.2799,0.00189267,10.3033,213,11.8126,14.1066,0.38625,12784
-1.77493e-07,2.19055e-07,-2.50953e-06,-6.2968e-05,-7.88652e-05,-0.00345008,10.1695,10.1221,0.0587631,5.05791,10.1737,10.1188,0.0578678,10.0885,213,14.6742,4.90714,0.38625,12785
5.67897e-08,-5.80028e-08,-2.52162e-06,-3.47536e-05,-3.08436e-05,-0.003502,10.3309,10.3426,-0.0191188,5.18103,10.3429,10.3307,-0.0192068,10.356,213,8.15661,12.4983,0.38625,12786
-1.72337e-07,9.39963e-07,-2.51808e-06,-6.79581e-05,-0.000639978,-0.00316485,9.26383,7.55631,0.0193829,4.97435,9.61604,7.55613,-0.332649,9.0954,213,14.7562,1.14198,0.38625,12787
-9.01796e-08,4.02225e-07,-2.50943e-06,-3.89952e-05,-0.000132884,-0.00346649,10.0938,9.81351,-0.13754,5.11873,10.0969,9.8134,-0.14054,10.0987,213,13.0428,3.22155,0.38625,12788
2.68636e-07,-2.60448e-08,-2.50737e-06,-9.25242e-05,-2.44361e-05,-0.00345897,10.132,10.3353,0.0829569,5.12724,10.3364,10.1319,0.0819623,10.1537,213,4.46345,11.44,0.38625,12789
2.49493e-07,-8.3129e-09,-2.50579e-06,-8.7296e-05,-2.41417e-05,-0.00344707,10.2029,10.3914,0.173698,5.11006,10.3926,10.2029,0.172507,10.1266,213,4.70378,10.7169,0.38625,12790
-1.29554e-07,4.68191e-07,-2.50854e-06,-4.97634e-05,-0.000150287,-0.0034584,9.99794,9.69787,-0.177085,5.09709,10.0076,9.69762,-0.18654,10.0428,213,13.9457,2.75275,0.38625,12791
-1.80146e-07,3.94276e-07,-2.49415e-06,-6.22068e-05,-0.00013294,-0.00344972,10.0039,9.79273,-0.108113,5.0627,10.0115,9.79102,-0.113955,10.017,213,14.8306,3.20432,0.38625,12792
-1.79134e-07,5.30904e-07,-2.52973e-06,-6.04503e-05,-0.000139933,-0.00352773,9.74509,9.50783,-0.604998,5.21438,9.78485,9.50696,-0.643896,10.2926,213,14.8487,2.28395,0.38625,12793
-1.55493e-07,-4.23863e-08,-2.51692e-06,-5.93215e-05,-2.84197e-05,-0.00348698,10.235,10.3272,0.00317093,5.16258,10.3279,10.2346,0.00279333,10.2788,213,14.1332,12.0401,0.38625,12794
-1.49513e-07,-2.06223e-08,-2.5158e-06,-5.90852e-05,-2.51776e-05,-0.00348672,10.2475,10.3488,0.0157992,5.167,10.3494,10.2473,0.0154179,10.2833,213,13.9922,11.2347,0.38625,12795
-2.13121e-07,-3.12526e-08,-2.51202e-06,-7.31189e-05,-2.54007e-05,-0.00347789,10.1884,10.3309,0.0249403,5.15408,10.3323,10.1878,0.0241366,10.2367,213,14.9777,11.6358,0.38625,12796
-2.41417e-07,-4.76954e-08,-2.51329e-06,-8.1307e-05,-2.89369e-05,-0.00347483,10.1365,10.2928,0.00660759,5.14378,10.2936,10.1363,0.00601887,10.2098,213,15.3935,12.2333,0.38625,12797
-1.94575e-07,-5.92761e-08,-2.51619e-06,-6.73113e-05,-3.21567e-05,-0.00348373,10.1842,10.2892,-0.0140345,5.1523,10.2901,10.1838,-0.0145231,10.2519,213,14.7812,12.6097,0.38625,12798
4.65105e-07,-1.34815e-08,-2.51824e-06,-0.000157283,-2.30276e-05,-0.00347948,9.67272,10.0735,-0.244292,5.16467,10.0794,9.67254,-0.249976,10.1321,213,2.84484,10.894,0.38625,12799
-2.59937e-07,-9.3786e-09,-2.50277e-06,-8.82516e-05,-2.472e-05,-0.00343712,10.2267,10.4164,0.230081,5.09627,10.4197,10.2264,0.227133,10.0973,213,15.4709,10.7344,0.38625,12800
6.592e-08,-3.87221e-07,-2.52772e-06,-3.36421e-05,-0.000154038,-0.00343354,10.1642,9.80476,0.0152112,5.08884,10.1788,9.80419,0.00115296,9.99562,213,7.54364,17.2645,0.38625,12801
6.54927e-08,-2.72933e-07,-2.5153e-06,-3.45816e-05,-9.75625e-05,-0.0034635,10.2425,10.0545,0.00689572,5.12035,10.2453,10.054,0.0045969,10.1464,213,7.66888,16.3547,0.38625,12802
5.28303e-07,-2.88069e-08,-2.52948e-06,-0.000178668,-2.51284e-05,-0.00347981,9.53338,9.99171,-0.320761,5.16442,9.99998,9.53321,-0.328859,10.1035,213,2.4478,11.5323,0.38625,12803
-1.946e-07,-9.61048e-09,-2.50888e-06,-7.04375e-05,-2.4623e-05,-0.00346524,10.2475,10.3843,0.113813,5.13641,10.3855,10.2474,0.112684,10.2045,213,14.6627,10.7765,0.38625,12804
-3.73091e-09,-1.3577e-07,-2.51701e-06,-2.61301e-05,-5.2368e-05,-0.00348802,10.3601,10.2818,0.0260822,5.16722,10.3603,10.2818,0.0258676,10.2954,213,10.2011,14.3913,0.38625,12805
1.99287e-08,-1.09681e-07,-2.51857e-06,-2.85848e-05,-4.41604e-05,-0.00349282,10.3558,10.3093,0.0147554,5.17072,10.356,10.3092,0.0145897,10.3181,213,9.33788,13.8544,0.38625,12806
2.34964e-08,-1.5015e-07,-2.51461e-06,-2.8077e-05,-5.50886e-05,-0.0034775,10.3728,10.2922,0.0760133,5.1486,10.3731,10.2921,0.0758569,10.257,213,9.18794,14.6665,0.38625,12807
4.59099e-07,4.42586e-07,-2.50053e-06,-0.000169426,-0.000156462,-0.00337697,9.4999,9.53859,-0.0748611,4.83878,9.58335,9.47448,-0.0942,9.62358,213,2.54485,2.67053,0.38625,12808
-5.05155e-07,3.39965e-07,-2.51085e-06,-0.000203935,-0.000107651,-0.00337165,9.45912,9.74653,0.00325408,4.8928,9.76938,9.45574,-0.0162151,9.63261,213,17.7471,3.43043,0.38625,12809
-4.59613e-07,4.44131e-07,-2.50171e-06,-0.000172222,-0.000163228,-0.00336688,9.49322,9.52007,-0.0430699,4.81228,9.56085,9.47308,-0.063708,9.58097,213,17.5552,2.67053,0.38625,12810
-3.58903e-07,3.47459e-07,-2.49435e-06,-0.000114914,-0.000113796,-0.00342271,9.82577,9.82911,-0.0482343,4.95692,9.86233,9.79583,-0.0515098,9.88076,213,16.8055,3.41598,0.38625,12811
-2.20238e-08,-1.73904e-07,-2.51478e-06,-2.79076e-05,-6.21757e-05,-0.00348515,10.3271,10.2248,0.00699862,5.16043,10.3275,10.2247,0.00665227,10.2699,213,10.8885,15.0669,0.38625,12812
-7.51106e-07,-9.49848e-08,-2.53233e-06,-0.000270483,-4.1656e-05,-0.00337605,9.24476,9.92783,-0.025583,5.04867,10.0002,9.24402,-0.0971779,9.74131,213,18.5605,13.4796,0.38625,12813
-1.37236e-07,-1.13894e-07,-2.51667e-06,-5.37379e-05,-4.50944e-05,-0.00347738,10.2469,10.2727,0.0271088,5.1241,10.2749,10.2451,0.02671,10.2333,213,13.9095,14.0344,0.38625,12814
1.80239e-07,4.5871e-08,-2.51359e-06,-6.66526e-05,-2.85897e-05,-0.00347461,10.2285,10.3421,0.0554978,5.14386,10.3427,10.2284,0.0550049,10.231,213,5.58342,8.58258,0.38625,12815
2.35929e-07,6.00302e-08,-2.50773e-06,-8.06088e-05,-3.14753e-05,-0.00346158,10.1748,10.3214,0.0823005,5.12037,10.3224,10.1745,0.0816158,10.1676,213,4.80321,8.08516,0.38625,12816
2.29603e-07,4.01668e-08,-2.50683e-06,-8.01676e-05,-2.77619e-05,-0.00345918,10.1969,10.3533,0.110253,5.12235,10.3542,10.1967,0.109523,10.1669,213,4.91079,8.76188,0.38625,12817
-2.78392e-07,1.07321e-06,-2.48235e-06,-8.88163e-05,-0.000738441,-0.00310067,9.02667,7.08749,0.0360578,5.46422,9.99752,7.08362,-0.930922,9.8019,213,16.0581,0.849583,0.391875,12818
2.76298e-07,1.07661e-06,-2.47734e-06,-8.82764e-05,-0.000749008,-0.00307642,9.0734,7.10107,0.153569,5.52598,10.1405,7.09906,-0.911493,9.88851,213,4.04193,0.849583,0.391875,12819
-1.28779e-06,9.06763e-08,-2.40546e-06,-0.000863459,-3.82008e-05,-0.00304916,6.6417,9.10516,0.117223,5.95708,10.5682,6.64176,-1.34591,10.5159,213,19.5523,7.30764,0.38625,12820
-1.27453e-06,1.09468e-07,-2.38564e-06,-0.000887049,-3.9503e-05,-0.00312674,6.24627,8.77626,-0.439383,5.96034,10.1287,6.2465,-1.79202,10.5307,213,19.5523,6.82014,0.380625,12821
-1.30813e-06,1.09958e-07,-2.42041e-06,-0.000919803,-3.99682e-05,-0.00306674,6.23345,8.85983,-0.175314,5.92754,10.2697,6.23355,-1.58533,10.4396,213,19.5523,6.82014,0.391875,12822
1.31207e-06,1.08747e-07,-2.42052e-06,-0.000950674,-3.21589e-05,-0.00303817,6.15877,8.90061,-0.0725569,5.90668,10.3207,6.15877,-1.49265,10.3784,213,0.547658,6.82014,0.391875,12823
1.28537e-06,9.40343e-08,-2.40768e-06,-0.000901277,-3.72908e-05,-0.00304599,6.4218,9.00086,0.0196554,5.79771,10.3077,6.42235,-1.28772,10.2224,213,0.547658,7.30764,0.38625,12824
1.27741e-06,1.0844e-07,-2.38627e-06,-0.000917536,-3.23857e-05,-0.00307987,6.22983,8.87207,-0.224888,5.94926,10.2728,6.22987,-1.62569,10.4793,213,0.547658,6.82014,0.380625,12825
1.42745e-07,2.55961e-07,-2.50804e-06,-5.45389e-05,-8.86759e-05,-0.00345094,10.1876,10.0857,0.0491002,5.07077,10.1897,10.0845,0.0481732,10.0894,213,5.98976,4.49265,0.38625,12826
1.09001e-07,2.28256e-07,-2.51095e-06,-4.43678e-05,-7.82892e-05,-0.00346362,10.243,10.1417,0.0362287,5.10464,10.2447,10.1407,0.0354556,10.1577,213,6.69222,4.86036,0.38625,12827
-1.8183e-07,-1.3313e-07,-2.51326e-06,-6.52882e-05,-5.06958e-05,-0.00346963,10.1826,10.2262,0.0204201,5.10435,10.2286,10.1808,0.0198592,10.1849,213,14.6827,14.4707,0.38625,12828
-3.08655e-07,-4.28546e-08,-2.51432e-06,-9.90554e-05,-2.78051e-05,-0.00347674,10.0248,10.2375,-0.05786,5.14838,10.2385,10.0242,-0.0582841,10.1913,213,16.1309,12.056,0.38625,12829
5.54582e-07,-8.73219e-08,-2.52143e-06,-0.000202289,-3.72816e-05,-0.00343106,9.504,9.99656,-0.134134,5.07832,10.0095,9.50406,-0.147139,9.91359,213,2.32212,13.4764,0.38625,12830
-5.43268e-08,-8.50321e-08,-2.52051e-06,-3.28509e-05,-3.81889e-05,-0.00349654,10.3366,10.3207,-0.00273407,5.17,10.3372,10.3203,-0.0028475,10.3316,213,11.8993,13.2829,0.38625,12831
6.68689e-08,-2.10908e-07,-2.51301e-06,-3.54463e-05,-7.61131e-05,-0.00349068,10.219,10.0976,-0.0951567,5.15819,10.2205,10.0967,-0.0958462,10.2551,213,7.6895,15.6333,0.38625,12832
4.64314e-08,-1.74205e-07,-2.51271e-06,-2.89976e-05,-6.5506e-05,-0.00348043,10.3248,10.2158,0.0220078,5.15187,10.3254,10.2155,0.0216993,10.2492,213,8.36537,15.0913,0.38625,12833
-3.33285e-07,-3.13823e-07,-2.50565e-06,-0.000110874,-0.000130178,-0.00341304,9.82934,9.77171,-0.0278863,4.94924,9.86223,9.74719,-0.036258,9.84147,213,16.6676,16.9424,0.38625,12834
-7.96611e-07,7.4689e-08,-2.52788e-06,-0.000340985,-3.59173e-05,-0.00331617,9.0188,9.92945,0.137647,4.9518,9.98627,9.01696,0.0826701,9.45628,213,18.7362,7.59729,0.38625,12835
1.25499e-06,-6.61681e-08,-2.40228e-06,-0.000877142,-2.57728e-05,-0.00311237,6.39639,8.93779,-0.275949,5.85217,10.183,6.39651,-1.52131,10.3446,213,0.597879,12.6186,0.380625,12836
3.22618e-07,-7.70887e-07,-2.53325e-06,-0.000117675,-0.000695458,-0.00310869,8.95991,7.23519,0.0315191,5.56201,10.0572,7.23618,-1.06679,10.016,213,3.1192,18.6504,0.391875,12837
-3.2395e-07,-7.71079e-07,-2.53287e-06,-0.000111102,-0.000693589,-0.00311325,8.99184,7.25307,0.0302158,5.54588,10.0556,7.25559,-1.03611,9.99048,213,16.9808,18.6504,0.391875,12838
5.18706e-08,1.20889e-08,-2.52207e-06,-3.20918e-05,-2.62628e-05,-0.00350453,10.3538,10.3712,-0.0117139,5.19151,10.3713,10.3538,-0.0117705,10.3743,213,8.35256,9.89197,0.38625,12839
5.92812e-07,5.65552e-07,-2.55861e-06,-0.000179264,-0.000185715,-0.00333214,9.48873,9.46947,0.0771641,4.87104,9.66356,9.45033,-0.078527,9.63724,213,1.79521,1.92508,0.38625,12840
3.35324e-07,4.73187e-07,-2.50068e-06,-0.000107556,-0.000187147,-0.00338483,9.75856,9.52097,-0.0243597,4.90559,9.7752,9.51595,-0.0359851,9.68417,213,3.43235,2.55757,0.38625,12841
-5.69339e-07,7.07083e-08,-2.5391e-06,-0.000222466,-3.37597e-05,-0.00343418,9.38106,9.94437,-0.206139,5.08396,9.95313,9.38095,-0.214788,9.89424,213,17.9033,7.66162,0.38625,12842
-7.25834e-07,4.87233e-08,-2.5423e-06,-0.000322767,-2.77027e-05,-0.0033371,9.09065,9.97144,0.0926428,4.95219,9.98425,9.09062,0.0798681,9.48918,213,18.5677,8.37929,0.38625,12843
9.33097e-08,-4.13921e-07,-2.52784e-06,-3.93146e-05,-0.000181503,-0.0033921,10.1735,9.74909,0.165202,5.04141,10.2117,9.74724,0.128865,9.85881,213,6.77203,17.4066,0.38625,12844
-1.78104e-07,-9.38918e-08,-2.51676e-06,-6.30242e-05,-3.87333e-05,-0.00348092,10.1987,10.2712,-0.00399248,5.13815,10.2719,10.1985,-0.00444456,10.2398,213,14.5848,13.5835,0.38625,12845
-1.22555e-06,4.7207e-08,-2.43311e-06,-0.000824071,-3.02344e-05,-0.00304726,6.91549,9.28515,0.279096,5.60723,10.3898,6.91457,-0.824643,9.94326,213,19.3838,8.57715,0.391875,12846
1.37914e-07,1.9523e-07,-2.51334e-06,-5.37706e-05,-6.90965e-05,-0.00346938,10.196,10.1502,0.000123721,5.09989,10.1992,10.1478,-0.000615503,10.1742,213,6.12758,5.27546,0.38625,12847
-2.35213e-07,1.19427e-08,-2.50172e-06,-8.57785e-05,-2.37762e-05,-0.003431,10.2644,10.4494,0.278626,5.08837,10.4524,10.2644,0.275658,10.084,213,15.1559,9.87516,0.38625,12848
-1.83233e-07,2.88011e-07,-2.49887e-06,-6.41647e-05,-9.9296e-05,-0.00340822,10.2302,10.1253,0.247921,4.99382,10.2343,10.1224,0.246676,9.93217,213,14.8124,4.1247,0.38625,12849
1.78018e-07,2.19441e-07,-2.50993e-06,-6.43536e-05,-7.76389e-05,-0.00345431,10.1515,10.1119,0.0322471,5.06263,10.1565,10.108,0.0312118,10.1011,213,5.42512,4.90775,0.38625,12850
2.19746e-10,1.02615e-07,-2.52081e-06,-2.7739e-05,-4.37069e-05,-0.00350026,10.3388,10.2911,-0.0269483,5.18299,10.3389,10.2911,-0.0270588,10.3421,213,10.0483,7.0581,0.38625,12851
1.2882e-06,-6.64198e-08,-2.43679e-06,-0.000906363,-2.50472e-05,-0.00307001,6.35314,8.98393,-0.105519,5.79345,10.2326,6.35323,-1.35429,10.2155,213,0.597879,12.6186,0.391875,12852
-2.2912e-08,2.3934e-07,-2.51086e-06,-2.78869e-05,-8.08568e-05,-0.00346345,10.3368,10.1787,0.0814338,5.12829,10.3375,10.1786,0.0808901,10.1781,213,10.91,4.78846,0.38625,12853
2.29314e-08,2.40476e-07,-2.5088e-06,-2.75126e-05,-8.16781e-05,-0.00346241,10.3398,10.1781,0.0863776,5.12732,10.3404,10.1781,0.0857839,10.1744,213,9.18824,4.79022,0.38625,12854
1.14111e-07,1.22694e-06,-2.45835e-06,-2.79742e-05,-0.000902075,-0.00303403,9.09365,6.48439,0.120352,5.78472,10.3917,6.48437,-1.17771,10.1938,213,6.51194,0.712873,0.391875,12855
1.13745e-07,1.19427e-06,-2.42412e-06,-2.96017e-05,-0.000871526,-0.00307966,9.03578,6.52257,-0.0688866,5.76137,10.2447,6.52278,-1.27802,10.1853,213,6.51194,0.712873,0.380625,12856
-9.03718e-08,-8.95016e-07,-2.49151e-06,-2.42225e-05,-0.000821475,-0.00310504,9.14713,6.76728,-0.04935,5.95557,10.5043,6.76752,-1.4068,10.5513,213,13.5867,18.7974,0.380625,12857
-9.07397e-08,-9.28034e-07,-2.52597e-06,-2.29901e-05,-0.00085386,-0.00305527,9.20989,6.72968,0.158322,5.97407,10.6581,6.7298,-1.29003,10.5477,213,13.5867,18.7974,0.391875,12858
1.86732e-07,-9.33992e-09,-2.51305e-06,-6.72829e-05,-2.44202e-05,-0.00347465,10.2377,10.3657,0.0664707,5.15022,10.3663,10.2377,0.0658686,10.2367,213,5.51128,10.7608,0.38625,12859
3.7008e-10,2.70601e-07,-2.50497e-06,-2.53464e-05,-8.74317e-05,-0.00344554,10.3884,10.2031,0.178882,5.10514,10.3888,10.2031,0.17851,10.1187,213,10.05,4.43898,0.38625,12860
5.58397e-07,-6.99679e-07,-2.54962e-06,-0.000237524,-0.000587399,-0.00316021,8.40133,7.35692,-0.32312,4.96848,9.01354,7.34502,-0.923426,9.21668,213,1.77033,18.5375,0.38625,12861
7.22702e-07,-5.07036e-07,-2.55608e-06,-0.000354891,-0.000235805,-0.00327111,8.44214,8.79762,-0.262981,4.71929,8.93318,8.54901,-0.505403,9.25248,213,1.31519,18.0531,0.38625,12862
-4.11156e-07,7.02801e-08,-2.52895e-06,-0.000137582,-3.3615e-05,-0.00351438,9.64977,9.96012,-0.430214,5.19639,9.96161,9.64925,-0.43118,10.2402,213,17.0315,7.6961,0.38625,12863
-4.39446e-07,9.71442e-08,-2.52852e-06,-0.000161542,-3.78712e-05,-0.0034813,9.59367,9.96283,-0.316058,5.14141,9.96482,9.59361,-0.317995,10.1023,213,17.2389,6.94395,0.38625,12864
-4.17871e-08,-5.45215e-08,-2.52179e-06,-3.08096e-05,-3.18984e-05,-0.00350204,10.3517,10.3485,-0.010176,5.18138,10.3525,10.3477,-0.0102233,10.3603,213,11.4813,12.4009,0.38625,12865
3.04609e-07,4.40045e-08,-2.50337e-06,-0.000104515,-2.79518e-05,-0.00345722,10.0526,10.2811,0.0445357,5.12024,10.2833,10.0522,0.0427788,10.1269,213,4.0934,8.60507,0.38625,12866
-1.23073e-06,-6.95991e-07,-2.36965e-06,-0.00101392,-0.000411119,-0.00286825,5.10636,6.90577,-0.42896,6.11306,9.28722,5.23484,-2.93889,10.7868,213,19.7324,18.5281,0.380625,12867
-1.26967e-06,-7.11896e-07,-2.40113e-06,-0.00105914,-0.000440243,-0.0027899,4.98412,6.83156,-0.182336,6.0561,9.29471,5.15613,-2.81749,10.6633,213,19.7324,18.5281,0.391875,12868
1.30346e-06,9.14752e-07,-2.3762e-06,-0.00105193,-0.000509058,-0.00275476,4.92166,6.54218,-0.161407,5.82081,8.92664,5.09076,-2.71497,10.2755,213,0.367583,0.971886,0.391875,12869
1.2643e-06,8.97815e-07,-2.34513e-06,-0.00100728,-0.000479793,-0.00283683,5.02907,6.60367,-0.43227,5.86735,8.88841,5.15836,-2.8463,10.3849,213,0.367583,0.971886,0.380625,12870
-1.29396e-06,9.0856e-07,-2.35882e-06,-0.00104601,-0.000501367,-0.00279305,4.86109,6.48689,-0.353962,5.84712,8.84471,4.99884,-2.84953,10.3233,213,19.7324,0.971886,0.391875,12871
-1.25525e-06,8.92037e-07,-2.32763e-06,-0.00100263,-0.000472309,-0.00282791,5.10976,6.6928,-0.338842,5.84532,8.95955,5.23525,-2.73108,10.3442,213,19.7324,0.971886,0.380625,12872
-1.79601e-07,4.63855e-08,-2.51048e-06,-6.70639e-05,-2.81936e-05,-0.00346827,10.2474,10.3634,0.0944954,5.13559,10.3648,10.2468,0.0936422,10.2127,213,14.4822,8.57073,0.38625,12873
-2.02005e-07,2.55319e-08,-2.50535e-06,-7.4532e-05,-2.56193e-05,-0.0034468,10.2776,10.4236,0.211147,5.10782,10.4253,10.2774,0.209657,10.1425,213,14.7617,9.33327,0.38625,12874
-2.31837e-07,4.07165e-08,-2.5039e-06,-8.14472e-05,-2.77255e-05,-0.00344028,10.2491,10.4094,0.222695,5.09552,10.412,10.2482,0.220974,10.1101,213,15.1756,8.74929,0.38625,12875
-1.43149e-07,2.57011e-07,-2.50815e-06,-5.46005e-05,-8.97196e-05,-0.00344956,10.1883,10.0835,0.0540641,5.06881,10.1905,10.0825,0.0528724,10.0841,213,14.1098,4.49252,0.38625,12876
-1.3709e-07,5.19166e-08,-2.51614e-06,-5.42097e-05,-2.89427e-05,-0.00348203,10.2805,10.3559,0.0481718,5.15443,10.3567,10.2801,0.0478253,10.2708,213,13.7888,8.39217,0.38625,12877
-9.15115e-07,1.22889e-06,-2.33843e-06,-0.000488061,-0.000979319,-0.00283226,6.65596,5.18952,-0.341659,5.84674,8.9299,5.33751,-2.76358,10.3747,213,19.2711,0.484385,0.380625,12878
-9.33351e-07,1.26643e-06,-2.36973e-06,-0.000518139,-0.00102185,-0.00279869,6.44235,4.93874,-0.365278,5.84759,8.80558,5.09983,-2.8896,10.3523,213,19.2711,0.484385,0.391875,12879
-8.72596e-07,-1.02077e-06,-2.46284e-06,-0.000514443,-0.000982548,-0.0027919,6.61129,5.21396,-0.1871,6.11553,9.26183,5.34554,-2.96922,10.8183,213,19.2711,19.0156,0.391875,12880
-8.5409e-07,-9.83072e-07,-2.43133e-06,-0.000483661,-0.000936984,-0.00286911,6.70047,5.34726,-0.420264,6.18608,9.2759,5.44782,-3.09625,10.971,213,19.2711,19.0156,0.380625,12881
9.40718e-07,1.2743e-06,-2.3903e-06,-0.000528314,-0.00102682,-0.00275926,6.48902,5.00095,-0.17052,5.82443,8.88968,5.18894,-2.75917,10.3093,213,0.828946,0.484385,0.391875,12882
9.22048e-07,1.23627e-06,-2.35914e-06,-0.000497601,-0.000983183,-0.00283845,6.56535,5.11585,-0.422257,5.89157,8.88851,5.26506,-2.89463,10.4535,213,0.828946,0.484385,0.380625,12883
3.11443e-07,6.38965e-08,-2.50641e-06,-0.000104877,-3.16945e-05,-0.00346958,9.99931,10.2178,-0.0445658,5.13284,10.2198,9.99866,-0.0458922,10.1569,213,3.98581,7.92834,0.38625,12884
-2.70198e-07,2.5787e-08,-2.50028e-06,-9.16429e-05,-2.60893e-05,-0.00342425,10.2423,10.438,0.294263,5.07605,10.4425,10.2416,0.290443,10.0531,213,15.5698,9.29117,0.38625,12885
8.74038e-07,-1.02275e-06,-2.46415e-06,-0.000519645,-0.000985793,-0.00280756,6.51932,5.12783,-0.310273,6.01347,9.06722,5.22937,-2.95971,10.6404,213,0.828946,19.0156,0.391875,12886
1.27426e-06,-7.1509e-07,-2.39874e-06,-0.001062,-0.000441385,-0.00280291,4.92163,6.7742,-0.275115,5.99775,9.18013,5.05596,-2.81537,10.556,213,0.367583,18.5281,0.391875,12887
8.55574e-07,-9.85161e-07,-2.43264e-06,-0.000488502,-0.000942395,-0.00286734,6.65909,5.30419,-0.441924,6.14232,9.18476,5.43649,-3.09989,10.9049,213,0.828946,19.0156,0.380625,12888
-1.24572e-06,-6.6089e-08,-2.40431e-06,-0.000842603,-2.95919e-05,-0.00312171,6.5673,8.9942,-0.236018,5.80822,10.1873,6.56736,-1.42916,10.2954,213,19.5021,12.6186,0.380625,12889
1.23529e-06,-6.9902e-07,-2.36725e-06,-0.00101711,-0.000412138,-0.00286182,5.10391,6.90979,-0.402686,6.11671,9.27993,5.28457,-2.95349,10.8048,213,0.367583,18.5281,0.380625,12890
-1.09803e-06,-1.44461e-07,-2.47818e-06,-0.000761283,-3.98477e-05,-0.00311629,7.05265,9.20619,0.0227925,5.3079,9.92229,7.05285,-0.69351,9.51144,213,19.2584,14.5109,0.391875,12891
-1.27772e-06,-6.63623e-08,-2.43935e-06,-0.000869923,-2.95765e-05,-0.00311768,6.41195,8.92045,-0.297764,5.79361,10.1049,6.41205,-1.48232,10.2524,213,19.5021,12.6186,0.391875,12892
-1.07171e-06,-1.43965e-07,-2.44317e-06,-0.000741274,-4.13717e-05,-0.00314059,7.09394,9.1832,-0.0681862,5.34626,9.9037,7.09409,-0.788832,9.60116,213,19.2584,14.5109,0.380625,12893
-2.37072e-07,1.09813e-06,-2.45929e-06,-8.54919e-05,-0.000692997,-0.00310848,9.1665,7.35305,0.142651,5.21412,9.8711,7.34824,-0.557142,9.42359,213,15.5967,0.849583,0.38625,12894
2.36498e-07,1.08577e-06,-2.46007e-06,-8.17062e-05,-0.000672532,-0.00317299,9.05013,7.28648,-0.177565,5.22175,9.65916,7.28422,-0.784334,9.48178,213,4.50329,0.849583,0.38625,12895
3.85117e-07,-7.667e-07,-2.51959e-06,-0.000156065,-0.000626406,-0.00316715,8.75714,7.35313,-0.231176,5.24619,9.50719,7.3571,-0.985197,9.59966,213,2.65784,18.6504,0.38625,12896
-3.82498e-07,-7.63722e-07,-2.52074e-06,-0.000155884,-0.000636078,-0.00318621,8.66713,7.23371,-0.378617,5.17005,9.31335,7.23563,-1.02675,9.47369,213,17.4422,18.6504,0.38625,12897
-1.05633e-06,-1.64493e-07,-2.46731e-06,-0.000729809,-5.28616e-05,-0.0031919,6.96532,8.98606,-0.384219,5.25363,9.55564,6.96313,-0.951613,9.48068,213,19.2584,14.9984,0.38625,12898
-1.21143e-06,1.19513e-06,-2.25721e-06,-0.000872841,-0.000857795,-0.00268711,5.13278,5.1777,-0.282936,6.69175,9.20552,4.99999,-4.17797,11.8541,213,19.7324,0.484385,0.38625,12899
-1.1511e-06,-9.72041e-07,-2.37303e-06,-0.000882581,-0.000813028,-0.00274427,5.0335,5.24112,-0.523795,6.82237,9.2199,4.95577,-4.42484,12.0904,213,19.7324,19.0156,0.38625,12900
-1.21841e-06,3.28629e-08,-2.40962e-06,-0.000803805,-2.75028e-05,-0.00301924,7.1378,9.45512,0.524562,5.54092,10.5308,7.13782,-0.551087,9.83459,213,19.3838,9.06465,0.38625,12901
-2.22601e-08,-4.44525e-07,-2.53888e-06,-2.51907e-05,-0.000106784,-0.00346125,10.2782,10.0346,0.0212726,5.15265,10.304,10.0314,-0.00133501,10.1718,213,10.9675,17.6201,0.38625,12902
9.81304e-08,4.43001e-08,-2.52078e-06,-4.42376e-05,-2.81907e-05,-0.00349765,10.2947,10.3426,-0.0139749,5.1785,10.3429,10.2946,-0.0141167,10.3329,213,7.09584,8.67778,0.38625,12903
-2.99844e-08,2.74647e-08,-2.52189e-06,-3.11347e-05,-2.68384e-05,-0.00350382,10.3601,10.3729,-0.00613739,5.18957,10.373,10.3601,-0.0061877,10.3727,213,11.0622,9.34368,0.38625,12904
2.17908e-08,-4.4771e-07,-2.53926e-06,-2.51555e-05,-0.000103053,-0.00345789,10.3009,10.0683,0.0538917,5.15065,10.329,10.0664,0.0277071,10.1725,213,9.10278,17.6245,0.38625,12905
-1.08027e-06,-1.25282e-07,-2.46354e-06,-0.000721282,-4.33382e-05,-0.00309861,7.34391,9.36763,0.247409,5.21716,10.0242,7.34494,-0.410157,9.38602,213,19.2584,14.0234,0.38625,12906
-5.89264e-08,4.0112e-07,-2.50938e-06,-3.28866e-05,-0.000131973,-0.00345458,10.1721,9.87628,-0.0419438,5.11029,10.1754,9.87619,-0.0451649,10.0743,213,12.1755,3.2613,0.38625,12907
3.98886e-08,2.91092e-07,-2.50635e-06,-2.84544e-05,-9.95789e-05,-0.00348958,10.1911,9.97877,-0.14062,5.1668,10.192,9.97881,-0.141582,10.2287,213,8.55886,4.22154,0.38625,12908
-9.65349e-08,4.37895e-08,-2.51939e-06,-4.43244e-05,-2.74708e-05,-0.00349377,10.3088,10.3591,0.011952,5.17385,10.3595,10.3085,0.011797,10.3223,213,12.9544,8.70251,0.38625,12909
-1.78438e-07,-2.54254e-07,-2.50276e-06,-6.38546e-05,-9.02729e-05,-0.00344647,10.1394,10.0605,0.042028,5.05473,10.1484,10.0546,0.0389537,10.0629,213,14.8095,16.2932,0.38625,12910
3.82005e-07,-8.39077e-08,-2.50905e-06,-0.000129739,-3.58475e-05,-0.00345222,9.88813,10.1684,-0.029716,5.10051,10.1699,9.88812,-0.0311595,10.0631,213,3.36352,13.3896,0.38625,12911
4.52687e-07,-5.61183e-08,-2.51704e-06,-0.000151717,-2.86376e-05,-0.0034719,9.71326,10.0807,-0.197731,5.14172,10.0832,9.71327,-0.200244,10.1036,213,2.86107,12.556,0.38625,12912
-6.21111e-07,9.98855e-08,-2.52851e-06,-0.000264094,-3.95576e-05,-0.00336747,9.31795,9.98821,0.0541372,5.00201,10.0232,9.31799,0.0191387,9.67074,213,18.0718,6.87962,0.38625,12913
6.20158e-07,9.90623e-08,-2.52947e-06,-0.000266992,-3.92216e-05,-0.00336253,9.31685,9.99677,0.0764433,4.99468,10.0313,9.31688,0.0419127,9.65201,213,2.02819,6.87962,0.38625,12914
4.58895e-07,-1.21266e-07,-2.51211e-06,-0.000168068,-4.49265e-05,-0.00343123,9.68992,10.0575,-0.050865,5.06219,10.0656,9.68973,-0.0587839,9.94178,213,2.82458,14.31,0.38625,12915
1.77219e-07,-2.67463e-07,-2.5048e-06,-6.34712e-05,-9.47325e-05,-0.00344988,10.1168,10.0234,0.00807436,5.06187,10.1274,10.0173,0.00362726,10.0691,213,5.30477,16.3792,0.38625,12916
2.1681e-08,-2.13433e-07,-2.51069e-06,-2.63745e-05,-7.61629e-05,-0.0034859,10.2898,10.1412,-0.0371084,5.16407,10.2904,10.1412,-0.0377217,10.2543,213,9.22861,15.6282,0.38625,12917
-3.73555e-07,1.35989e-07,-2.50862e-06,-0.000130697,-4.96425e-05,-0.00345381,9.83341,10.0754,-0.0863378,5.0835,10.078,9.83351,-0.0890226,10.047,213,16.7365,6.11038,0.38625,12918
8.1247e-08,1.19717e-08,-2.52159e-06,-3.87638e-05,-2.58294e-05,-0.003503,10.3189,10.3575,-0.0220922,5.18988,10.3576,10.3189,-0.0221585,10.3604,213,7.51445,9.89298,0.38625,12919
-2.2944e-08,6.67383e-07,-2.54547e-06,-2.85032e-05,-0.000183365,-0.00340538,10.1921,9.72979,0.111823,5.08566,10.2384,9.72817,0.0671142,9.92603,213,10.9262,1.87317,0.38625,12920
2.26504e-08,6.64792e-07,-2.54964e-06,-2.80564e-05,-0.000192323,-0.00337265,10.2702,9.77989,0.286378,5.03042,10.3095,9.77823,0.248701,9.80598,213,9.1738,1.87317,0.38625,12921
-6.54013e-07,2.11121e-08,-2.54638e-06,-0.000248962,-2.43955e-05,-0.00339817,9.36184,10.0322,-0.0387729,5.03783,10.0345,9.36184,-0.0411174,9.75672,213,18.3166,9.44392,0.38625,12922
-2.27296e-07,-4.00304e-07,-2.52452e-06,-8.01036e-05,-0.000129783,-0.0034409,9.93167,9.78338,-0.100557,5.03187,9.94733,9.78357,-0.116405,9.98286,213,15.6841,17.5146,0.38625,12923
-4.13585e-07,-4.18531e-07,-2.53959e-06,-0.000161258,-0.000127939,-0.00339537,9.58228,9.68174,-0.0717914,4.94041,9.76576,9.54154,-0.115072,9.77065,213,17.4173,17.6879,0.38625,12924
4.24639e-07,6.17815e-07,-2.5381e-06,-0.000156483,-0.000206376,-0.00335076,9.50441,9.35547,-0.0307369,4.85166,9.606,9.32046,-0.0973205,9.56375,213,2.68271,1.81212,0.38625,12925
4.12418e-07,-4.17965e-07,-2.54142e-06,-0.000160258,-0.000137185,-0.00339608,9.55686,9.62573,-0.102323,4.91822,9.69721,9.52229,-0.139233,9.75016,213,2.68271,17.6879,0.38625,12926
-4.83758e-07,2.57366e-07,-2.51543e-06,-0.000176778,-8.90104e-05,-0.00340106,9.59217,9.85416,-0.0325486,4.9537,9.86582,9.58954,-0.0415797,9.77219,213,17.5612,4.25957,0.38625,12927
1.264e-07,1.18628e-06,-2.44201e-06,-3.99416e-05,-0.000803609,-0.00313245,9.02011,6.74051,-0.211254,5.75157,10.1553,6.74191,-1.34784,10.2327,213,6.05058,0.712873,0.38625,12928
-1.3851e-07,6.41049e-07,-2.54527e-06,-5.12968e-05,-0.000227781,-0.00341918,9.86711,9.34029,-0.186275,5.07692,9.92564,9.32368,-0.228192,9.86663,213,14.1419,1.8548,0.38625,12929
-2.37588e-07,5.97353e-07,-2.54116e-06,-7.89762e-05,-0.000192193,-0.00346063,9.6781,9.34014,-0.416396,5.07293,9.70363,9.34046,-0.442239,9.96924,213,15.6893,1.99156,0.38625,12930
2.39594e-07,5.99654e-07,-2.54095e-06,-7.97469e-05,-0.000207772,-0.00341413,9.77144,9.38928,-0.181925,5.00997,9.80419,9.39034,-0.215737,9.81955,213,4.41072,1.99158,0.38625,12931
-1.00463e-07,-8.8697e-07,-2.51537e-06,-3.35361e-05,-0.000749917,-0.00317438,9.09683,6.95838,-0.278832,5.96827,10.3769,6.95904,-1.5596,10.6473,213,14.048,18.7974,0.38625,12932
-2.53589e-07,4.3453e-07,-2.49603e-06,-8.89212e-05,-0.000148001,-0.00341402,9.90487,9.72852,-0.0207847,4.97103,9.91406,9.72653,-0.02799,9.84963,213,15.8271,2.84997,0.38625,12933
3.29647e-07,8.98285e-08,-2.50799e-06,-0.000111929,-3.77562e-05,-0.00346968,9.93634,10.1577,-0.0868031,5.1238,10.1594,9.93611,-0.0882411,10.1378,213,3.77835,7.1762,0.38625,12934
-1.25119e-06,-5.23062e-08,-2.4231e-06,-0.000800417,-2.91179e-05,-0.00305713,7.03338,9.33576,0.296928,5.80514,10.6213,7.03382,-0.989018,10.2965,213,19.5021,12.1311,0.38625,12935
3.29455e-07,-5.1842e-09,-2.50229e-06,-0.000107069,-2.36264e-05,-0.00345703,10.0512,10.3003,0.0513126,5.12704,10.3029,10.0512,0.0487773,10.1306,213,3.89548,10.5564,0.38625,12936
3.535e-07,-2.24961e-08,-2.50731e-06,-0.000115003,-2.35647e-05,-0.00348687,9.9079,10.1809,-0.157373,5.17138,10.1832,9.90778,-0.15956,10.2078,213,3.65515,11.2795,0.38625,12937
-1.81501e-07,6.82973e-08,-2.51323e-06,-6.56101e-05,-3.29224e-05,-0.00347714,10.2132,10.3108,0.0295088,5.14137,10.3118,10.2127,0.029025,10.2336,213,14.5625,7.84609,0.38625,12938
-4.48186e-07,1.86548e-07,-2.50926e-06,-0.000164083,-6.42345e-05,-0.00342488,9.67335,9.9714,-0.0603825,5.02476,9.9811,9.6717,-0.0684255,9.89845,213,17.2754,5.18998,0.38625,12939
-2.22236e-07,-7.94555e-08,-2.51556e-06,-7.80833e-05,-3.58645e-05,-0.003484,10.1053,10.2313,-0.0616172,5.14684,10.2317,10.1052,-0.0619613,10.231,213,15.197,13.2071,0.38625,12940
1.07485e-07,1.62164e-07,-2.51639e-06,-4.39852e-05,-6.05859e-05,-0.00347733,10.258,10.2084,0.00916595,5.12555,10.2597,10.2072,0.00862242,10.225,213,6.78256,5.82434,0.38625,12941
6.95489e-07,2.55059e-07,-2.53916e-06,-0.000235198,-8.82713e-05,-0.00335013,9.39637,9.83495,0.0980737,4.9159,9.88202,9.39714,0.0502291,9.59854,213,1.59727,4.27402,0.38625,12942
6.89442e-07,-9.85111e-07,-2.49847e-06,-0.000316527,-0.000884077,-0.00296251,7.60101,5.90684,-0.297445,6.41937,10.065,5.91924,-2.77379,11.3488,213,1.29031,19.0156,0.38625,12943
9.08587e-07,-6.90963e-07,-2.50248e-06,-0.00046027,-0.00034817,-0.00315855,7.79398,8.1286,-0.260585,5.18631,9.10034,7.83393,-1.27227,9.80096,213,0.835166,18.5312,0.38625,12944
7.14098e-07,-1.76093e-07,-2.53516e-06,-0.000217902,-6.51656e-05,-0.00338197,9.47514,9.93107,0.030156,5.00453,9.98578,9.47387,-0.0232849,9.76318,213,1.59727,15.226,0.38625,12945
8.21295e-10,4.02159e-07,-2.5036e-06,-2.49441e-05,-0.000144177,-0.00347122,10.1295,9.77356,-0.157908,5.14752,10.1333,9.77358,-0.161734,10.12,213,10.05,3.28128,0.38625,12946
-2.58281e-07,3.17003e-07,-2.49246e-06,-9.07398e-05,-0.000109104,-0.00340794,10.0363,9.9815,0.134223,4.95768,10.0476,9.97225,0.132206,9.87792,213,15.809,3.77034,0.38625,12947
7.59604e-08,2.20158e-07,-2.51243e-06,-3.76178e-05,-7.53734e-05,-0.00346356,10.294,10.1813,0.0672772,5.11435,10.2952,10.1808,0.066522,10.172,213,7.50935,5.00092,0.38625,12948
6.56191e-08,-5.2416e-07,-2.54492e-06,-3.20697e-05,-0.0001797,-0.00347753,9.95292,9.51223,-0.332027,5.19422,10.0048,9.51189,-0.383609,10.151,213,7.38394,18.0147,0.38625,12949
6.14487e-07,-5.79727e-08,-2.52918e-06,-0.000261109,-3.07034e-05,-0.00339477,9.27782,9.9656,-0.0764054,5.05429,9.99899,9.27762,-0.109597,9.7679,213,2.07841,12.5592,0.38625,12950
-1.96836e-08,8.44224e-08,-2.52139e-06,-2.9084e-05,-3.75543e-05,-0.00350185,10.345,10.3197,-0.0214855,5.18334,10.3451,10.3197,-0.0215775,10.354,213,10.7487,7.51197,0.38625,12951
-6.44217e-08,-5.25194e-07,-2.54216e-06,-3.32736e-05,-0.000162578,-0.00347658,10.0028,9.61683,-0.275727,5.20467,10.0682,9.61679,-0.341117,10.1911,213,12.6587,17.9793,0.38625,12952
-6.69142e-07,4.32307e-07,-2.54075e-06,-0.000226406,-0.000153729,-0.00336097,9.20848,9.42543,-0.148432,4.87468,9.52432,9.18619,-0.225038,9.58477,213,18.4967,2.68498,0.38625,12953
9.95799e-07,-4.17737e-07,-2.48367e-06,-0.000680038,-0.000170238,-0.00311063,7.15725,8.67904,-0.0982443,5.09249,9.38159,7.15983,-0.803378,9.27584,213,0.847604,17.5625,0.38625,12954
6.70987e-07,4.31878e-07,-2.53708e-06,-0.000229356,-0.000148547,-0.00334223,9.26619,9.50741,-0.0259848,4.85561,9.61085,9.23713,-0.100364,9.52985,213,1.60328,2.68498,0.38625,12955
6.57923e-08,-1.1407e-08,-2.52217e-06,-3.61498e-05,-2.40964e-05,-0.00350395,10.3375,10.3735,-0.0141406,5.19392,10.3736,10.3375,-0.0142149,10.3698,213,7.93138,10.8327,0.38625,12956
1.93636e-08,2.88509e-09,-2.5223e-06,-3.00812e-05,-2.57097e-05,-0.00350531,10.3655,10.3785,-0.00834103,5.19343,10.3785,10.3655,-0.00835033,10.3804,213,9.38706,10.2531,0.38625,12957
-2.32569e-07,6.2136e-08,-2.50748e-06,-7.86637e-05,-3.19749e-05,-0.00345621,10.2022,10.3416,0.119954,5.11213,10.3434,10.2012,0.119146,10.1539,213,15.2559,8.02464,0.38625,12958
-1.30698e-07,3.42467e-07,-2.50127e-06,-5.09591e-05,-0.000118201,-0.00344905,10.122,9.92128,-0.0215463,5.07395,10.1244,9.92078,-0.0234715,10.0476,213,13.9276,3.67312,0.38625,12959
-1.13686e-06,3.19476e-07,-2.41471e-06,-0.000783701,-9.68224e-05,-0.00313727,6.66739,8.71777,-0.358176,5.42589,9.6049,6.66896,-1.24688,9.72218,213,19.4443,3.67244,0.38625,12960
-3.02416e-08,-9.15306e-08,-2.5203e-06,-2.98829e-05,-3.94774e-05,-0.00349643,10.3512,10.3225,0.00324991,5.17417,10.3515,10.3224,0.00313267,10.3338,213,11.1252,13.431,0.38625,12961
-6.55825e-08,-4.18791e-08,-2.52153e-06,-3.66081e-05,-2.85622e-05,-0.00350171,10.3276,10.3516,-0.0159737,5.18394,10.3518,10.3275,-0.016052,10.3557,213,12.176,11.9817,0.38625,12962
-1.24821e-06,-8.1333e-08,-2.41022e-06,-0.000841483,-3.9783e-05,-0.002985,6.9755,9.36863,0.576948,5.68717,10.66,6.97552,-0.714393,10.052,213,19.5021,13.1061,0.38625,12963
-1.41367e-07,-7.31836e-08,-2.51839e-06,-5.43826e-05,-3.47128e-05,-0.00348696,10.2455,10.3042,-0.000990681,5.15304,10.3048,10.2452,-0.00129135,10.2764,213,13.9368,13.0139,0.38625,12964
-1.10259e-07,-5.5145e-08,-2.51962e-06,-4.51588e-05,-3.04766e-05,-0.00349316,10.296,10.3399,0.00347296,5.16861,10.3405,10.2957,0.00324677,10.3149,213,13.2888,12.4443,0.38625,12965
7.11653e-07,-2.85805e-08,-2.55165e-06,-0.000245997,-2.74808e-05,-0.00337037,9.45848,10.1108,0.131983,5.03385,10.157,9.45489,0.089339,9.73563,213,1.66515,11.5354,0.38625,12966
-2.38928e-07,-1.05795e-07,-2.51261e-06,-8.67279e-05,-4.05548e-05,-0.00347023,10.0809,10.2187,-0.0191171,5.11962,10.2194,10.081,-0.0198717,10.1708,213,15.4094,13.9034,0.38625,12967
1.05756e-06,-1.65011e-07,-2.4668e-06,-0.000757722,-5.63438e-05,-0.00316828,6.85734,8.95101,-0.338362,5.229,9.53623,6.85554,-0.921773,9.40857,213,0.841592,14.9984,0.38625,12968
-5.17173e-08,6.56533e-08,-2.52142e-06,-3.22802e-05,-3.38391e-05,-0.00350188,10.337,10.3324,-0.0199861,5.17942,10.3388,10.3307,-0.0200679,10.3548,213,11.7842,8.02731,0.38625,12969
-6.97447e-07,2.55529e-07,-2.53972e-06,-0.000234738,-8.85214e-05,-0.0033721,9.32872,9.76519,-0.0365323,4.95264,9.81649,9.32968,-0.0887935,9.67107,213,18.5027,4.27402,0.38625,12970
-1.05077e-07,-3.16278e-08,-2.51974e-06,-4.43128e-05,-2.76991e-05,-0.00349507,10.304,10.3536,0.00320501,5.17542,10.3539,10.3039,0.00304847,10.3259,213,13.1477,11.639,0.38625,12971
8.21364e-11,2.02164e-07,-2.51392e-06,-2.59477e-05,-7.22254e-05,-0.00347065,10.3533,10.2152,0.070627,5.14188,10.3538,10.2152,0.0700904,10.2151,213,10.0488,5.28651,0.38625,12972
-9.90531e-08,3.02961e-07,-2.50798e-06,-4.22988e-05,-0.000105968,-0.00346784,10.1545,9.96447,-0.0709681,5.11391,10.1557,9.96432,-0.0720672,10.1335,213,13.225,4.04094,0.38625,12973
-1.38059e-07,1.94949e-07,-2.51333e-06,-5.30048e-05,-6.91853e-05,-0.00346587,10.2115,10.1632,0.0238392,5.09522,10.2136,10.1619,0.0231111,10.1647,213,13.9717,5.27495,0.38625,12974
3.57546e-07,-6.06442e-08,-2.51045e-06,-0.000120526,-3.09723e-05,-0.00346339,9.92488,10.1922,-0.0538134,5.12463,10.1938,9.92487,-0.0554347,10.1175,213,3.5759,12.6934,0.38625,12975
2.98992e-07,-8.97341e-08,-2.5086e-06,-0.00010167,-3.7836e-05,-0.00345949,10.0316,10.2221,0.00819563,5.10813,10.2233,10.0316,0.00703293,10.1218,213,4.07836,13.527,0.38625,12976
2.79722e-07,-6.53137e-08,-2.50997e-06,-9.50988e-05,-3.24764e-05,-0.00346237,10.0799,10.2668,0.0283591,5.12014,10.2678,10.0798,0.0274635,10.1476,213,4.29074,12.8307,0.38625,12977
2.11979e-07,-8.15474e-08,-2.51431e-06,-7.62245e-05,-3.63434e-05,-0.00347528,10.1429,10.2619,-0.00355505,5.13351,10.2629,10.1426,-0.00417558,10.2074,213,5.06986,13.2781,0.38625,12978
3.34366e-07,-3.11539e-07,-2.50785e-06,-0.000110991,-0.000122254,-0.00341172,9.85793,9.82431,0.00499797,4.94578,9.88838,9.80205,-0.00318991,9.84869,213,3.43235,16.9424,0.38625,12979
5.7778e-07,7.10806e-08,-2.53587e-06,-0.000227935,-3.34188e-05,-0.00341917,9.39607,9.97672,-0.130007,5.06662,9.98997,9.39607,-0.143261,9.84972,213,2.1967,7.66162,0.38625,12980
-8.01912e-08,-6.92798e-08,-2.52059e-06,-3.92877e-05,-3.42602e-05,-0.00349545,10.3129,10.3279,-0.00398264,5.1665,10.3289,10.3121,-0.00413958,10.3246,213,12.594,12.8636,0.38625,12981
-3.35077e-07,4.72187e-07,-2.49863e-06,-0.000106848,-0.00018004,-0.00338339,9.79002,9.57154,0.00929228,4.90605,9.8084,9.56616,-0.00370344,9.69325,213,16.6676,2.55757,0.38625,12982
3.90946e-08,-8.70574e-08,-2.5202e-06,-2.9739e-05,-3.9224e-05,-0.00349759,10.3492,10.3209,-0.00259096,5.17609,10.3495,10.3208,-0.00271472,10.3379,213,8.6978,13.3203,0.38625,12983
3.99758e-07,-3.8456e-08,-2.51306e-06,-0.000131863,-2.62194e-05,-0.00348729,9.79435,10.1097,-0.221839,5.16771,10.1117,9.79425,-0.223729,10.1804,213,3.25811,11.9178,0.38625,12984
8.14213e-07,7.34897e-08,-2.53757e-06,-0.000307451,-3.55285e-05,-0.00336578,9.06917,9.88087,-0.0601731,5.06265,9.97367,9.06785,-0.151644,9.70416,213,1.36383,7.59729,0.38625,12985
-3.03751e-07,6.5865e-08,-2.5112e-06,-9.7596e-05,-3.24151e-05,-0.00348371,9.99701,10.1916,-0.110804,5.1534,10.195,9.99469,-0.111843,10.2081,213,16.0801,7.87413,0.38625,12986
1.2907e-06,-5.60052e-07,-2.38579e-06,-0.000963967,-0.00024172,-0.00295882,5.66394,7.8199,-0.290851,6.331,10.0843,5.6864,-2.5777,11.1347,213,0.367583,18.0406,0.38625,12987
-1.34921e-07,1.3749e-07,-2.51627e-06,-5.23824e-05,-5.18177e-05,-0.00348069,10.2234,10.2251,-0.0103318,5.12148,10.2321,10.2169,-0.0108218,10.2353,213,13.8685,6.23298,0.38625,12988
-3.05099e-07,4.44636e-08,-2.50629e-06,-9.97592e-05,-2.77507e-05,-0.00346195,10.0675,10.2825,0.0311095,5.1292,10.2866,10.0663,0.0281894,10.1501,213,15.9998,8.59877,0.38625,12989
2.65171e-07,2.54832e-08,-2.50221e-06,-9.29853e-05,-2.57171e-05,-0.00344284,10.1763,10.3771,0.17673,5.10163,10.3787,10.1761,0.175388,10.1035,213,4.5233,9.29755,0.38625,12990
4.20186e-07,6.99758e-08,-2.51805e-06,-0.000135292,-3.26782e-05,-0.0034818,9.77016,10.0765,-0.219414,5.15093,10.0796,9.7699,-0.222258,10.1506,213,3.06853,7.6961,0.38625,12991
1.15602e-06,-2.29222e-07,-2.42184e-06,-0.00080729,-7.291e-05,-0.00314777,6.56468,8.75686,-0.421839,5.44625,9.61342,6.56535,-1.27907,9.73325,213,0.655674,15.8276,0.38625,12992
-3.50007e-07,2.93715e-08,-2.51046e-06,-0.000105891,-2.61721e-05,-0.00348398,9.96489,10.2029,-0.118962,5.16523,10.2075,9.96433,-0.122979,10.2111,213,16.394,9.14066,0.38625,12993
2.29738e-07,1.17642e-08,-2.50635e-06,-8.35792e-05,-2.33214e-05,-0.00345512,10.2029,10.3827,0.138565,5.12315,10.3838,10.2029,0.137506,10.157,213,4.94331,9.87713,0.38625,12994
3.14474e-07,-4.21423e-08,-2.50939e-06,-0.000105776,-2.76353e-05,-0.00347035,10.0042,10.2375,-0.0393057,5.1396,10.2388,10.0041,-0.0404362,10.1639,213,3.97294,12.0551,0.38625,12995
1.98691e-07,2.50343e-08,-2.5101e-06,-7.17221e-05,-2.56256e-05,-0.00346824,10.2269,10.3645,0.0880519,5.13883,10.3651,10.2269,0.0874684,10.2092,213,5.3308,9.34146,0.38625,12996
1.22623e-06,1.20771e-06,-2.25623e-06,-0.000884117,-0.0008669,-0.00267981,5.05765,5.10904,-0.302619,6.46107,8.91862,4.94896,-4.00351,11.4649,213,0.367583,0.484385,0.38625,12997
1.15492e-06,-9.76177e-07,-2.36842e-06,-0.000885313,-0.000811295,-0.00270095,5.15957,5.38052,-0.260247,6.85681,9.44033,5.11281,-4.2733,12.1427,213,0.367583,19.0156,0.38625,12998
-7.22462e-08,1.53075e-07,-2.09572e-06,-3.61083e-05,-5.71316e-05,-0.0153089,21.4938,21.4642,-0.00115337,10.7478,21.4942,21.464,-0.00131395,21.4804,213,12.4855,5.95715,0.35,12999
-4.76628e-08,2.07256e-07,-2.09258e-06,-2.95129e-05,-7.07622e-05,-0.0152807,21.5377,21.4797,0.0730355,10.7326,21.538,21.4796,0.0728247,21.436,213,11.77,5.13793,0.35,13000
-8.08984e-08,1.2279e-07,-2.28847e-06,-3.86408e-05,-4.75269e-05,-0.0153236,21.4776,21.4651,-0.0345587,10.7565,21.4783,21.4646,-0.0346946,21.5061,213,12.6704,6.54753,0.3625,13001
-5.42508e-08,1.68804e-07,-2.28665e-06,-3.18005e-05,-6.15677e-05,-0.0153081,21.5009,21.459,0.000874138,10.7503,21.5012,21.4589,0.000695377,21.4794,213,11.9549,5.72831,0.3625,13002
-5.36524e-08,1.66605e-07,-1.90406e-06,-3.14154e-05,-6.10884e-05,-0.0153077,21.5035,21.4618,0.00356384,10.7502,21.5038,21.4617,0.00338958,21.4794,213,11.9549,5.72831,0.3375,13003
-1.02523e-07,1.10842e-07,-2.09636e-06,-4.28543e-05,-4.34144e-05,-0.0153186,21.4798,21.479,-0.0193621,10.7509,21.4824,21.4766,-0.0195069,21.499,213,13.2009,6.77638,0.35,13004
-7.98642e-08,1.21073e-07,-1.90546e-06,-3.81422e-05,-4.71186e-05,-0.0153223,21.4821,21.4694,-0.0289383,10.7559,21.4827,21.469,-0.0290824,21.5049,213,12.6704,6.54753,0.3375,13005
-1.76254e-07,-6.04388e-07,-2.30715e-06,-6.82611e-05,-0.000388843,-0.015282,20.8952,20.444,-0.516838,10.8689,21.0591,20.442,-0.678731,21.4359,213,15.2124,18.3642,0.3625,13006
-1.68361e-07,-3.4063e-07,-2.09785e-06,-6.15318e-05,-0.000119004,-0.0152501,21.4112,21.3303,0.0346824,10.701,21.4319,21.3142,0.0300043,21.3433,213,14.8385,17.2283,0.35,13007
-1.72551e-07,-5.34539e-07,-1.92506e-06,-6.53773e-05,-0.000334151,-0.01527,21.0135,20.6353,-0.385571,10.8965,21.2115,20.6333,-0.58157,21.5098,213,15.2124,18.3642,0.3375,13008
-2.36174e-07,-6.96613e-07,-2.28904e-06,-8.30334e-05,-0.000446008,-0.0151892,20.9087,20.3978,-0.3519,10.9985,21.2784,20.3947,-0.718553,21.5687,213,16.0581,18.6504,0.3625,13009
-2.23252e-07,-3.80156e-07,-2.10488e-06,-8.04095e-05,-0.000114509,-0.0152417,21.3748,21.3268,0.0367214,10.6844,21.3906,21.3259,0.021789,21.3366,213,15.6841,17.5146,0.35,13010
-2.02998e-07,8.74327e-07,-2.29156e-06,-7.38911e-05,-0.000468128,-0.0151594,20.9493,20.3944,-0.282116,10.7801,21.114,20.3939,-0.446266,21.2094,213,15.2175,1.14198,0.3625,13011
-1.98733e-07,8.02959e-07,-1.91261e-06,-7.08434e-05,-0.000411157,-0.0151741,21.0279,20.5489,-0.228526,10.8239,21.2239,20.5483,-0.423919,21.318,213,15.2175,1.14198,0.3375,13012
-1.76029e-07,5.1831e-07,-2.10501e-06,-6.11176e-05,-0.000183368,-0.0154118,21.0413,20.8693,-0.563312,10.8101,21.0518,20.8638,-0.568398,21.5269,213,14.8487,2.28395,0.35,13013
-2.33702e-07,5.72135e-07,-2.11937e-06,-7.91697e-05,-0.000190004,-0.0153,21.1589,21.003,-0.262943,10.7295,21.1774,21.003,-0.281527,21.3723,213,15.6893,1.99156,0.35,13014
-2.7377e-07,9.86792e-07,-2.23901e-06,-8.6886e-05,-0.000535393,-0.0151612,20.7961,20.1649,-0.419639,10.8908,21.0789,20.1652,-0.702753,21.3395,213,16.0581,0.849583,0.3625,13015
2.35018e-07,5.75927e-07,-2.12083e-06,-8.08978e-05,-0.000181033,-0.0152729,21.2129,21.072,-0.168357,10.713,21.2351,21.0724,-0.190983,21.3452,213,4.41072,1.99158,0.35,13016
2.02623e-07,8.70666e-07,-2.29137e-06,-7.24951e-05,-0.000466831,-0.0151811,20.9199,20.3649,-0.344094,10.8137,21.1019,20.3644,-0.525574,21.2683,213,4.88243,1.142,0.3625,13017
2.67421e-07,8.96617e-07,-1.85703e-06,-8.78861e-05,-0.000453265,-0.0152045,20.8569,20.3427,-0.418323,10.9029,21.1228,20.3415,-0.682963,21.4258,213,4.04193,0.849583,0.3375,13018
1.98616e-07,8.0141e-07,-1.91187e-06,-6.89638e-05,-0.000412664,-0.0152161,20.9622,20.4785,-0.355969,10.8228,21.1261,20.4782,-0.519489,21.329,213,4.88243,1.142,0.3375,13019
1.76015e-07,5.21972e-07,-2.09825e-06,-5.99535e-05,-0.000125946,-0.0152348,21.4297,21.3369,0.0725284,10.6865,21.4376,21.3368,0.0647069,21.3227,213,5.25123,2.284,0.35,13020
1.70463e-07,8.43083e-07,-2.10417e-06,-6.56351e-05,-0.000532246,-0.0151546,20.8769,20.2202,-0.359495,10.7937,21.0524,20.2201,-0.534942,21.1835,213,5.3438,1.142,0.35,13021
-1.69067e-07,8.49484e-07,-2.10738e-06,-6.11134e-05,-0.000339914,-0.0151921,21.145,20.7526,-0.150497,10.8771,21.3743,20.7526,-0.379861,21.4501,213,14.7562,1.14198,0.35,13022
-1.45618e-07,-5.79541e-07,-2.12149e-06,-5.65297e-05,-0.000255745,-0.0153173,21.0916,20.8112,-0.386502,10.9752,21.328,20.8107,-0.622417,21.6964,213,14.7511,18.3642,0.35,13023
-9.2891e-07,-1.8572e-08,-2.06377e-06,-0.000373545,-2.58551e-05,-0.0151304,20.8093,21.2986,0.0404405,10.8713,21.5411,20.8089,-0.201616,21.386,213,19.1327,11.1043,0.35,13024
-9.87972e-07,-6.78301e-09,-2.24408e-06,-0.0005283,-2.48525e-05,-0.014969,20.6041,21.3126,0.280207,10.8205,21.6169,20.604,-0.0240462,21.1527,213,19.1327,10.6168,0.3625,13025
-5.91469e-07,-4.10817e-09,-2.12277e-06,-0.00020831,-2.14378e-05,-0.0152606,21.1066,21.3696,-0.078133,10.7277,21.3735,21.1066,-0.0820086,21.3233,213,18.0655,10.5086,0.35,13026
-8.72789e-07,-6.21209e-09,-1.8684e-06,-0.000452907,-2.32427e-05,-0.0150927,20.6334,21.2381,0.0292612,10.843,21.4767,20.6333,-0.209271,21.2768,213,19.1327,10.6168,0.3375,13027
2.72612e-07,9.88584e-07,-2.23518e-06,-8.71326e-05,-0.000533041,-0.0150937,20.9101,20.2826,-0.210182,10.9216,21.2717,20.2822,-0.571439,21.3656,213,4.04193,0.849583,0.3625,13028
3.091e-07,6.35006e-07,-2.12494e-06,-8.87754e-05,-0.000130978,-0.0152292,21.3428,21.2834,0.0340461,10.7035,21.3942,21.2788,-0.0127759,21.3495,213,3.57022,1.69917,0.35,13029
-3.07644e-07,6.29014e-07,-2.12372e-06,-8.31994e-05,-0.000236823,-0.0152554,21.143,20.9268,-0.2105,10.7106,21.1788,20.923,-0.242495,21.2945,213,16.5298,1.69917,0.35,13030
-2.67603e-07,8.95496e-07,-1.85962e-06,-8.72745e-05,-0.000455387,-0.0151908,20.8777,20.3597,-0.379082,10.9552,21.2045,20.3596,-0.705827,21.5004,213,16.0581,0.849583,0.3375,13031
-2.92649e-07,-4.21211e-07,-2.1121e-06,-9.44884e-05,-3.63915e-05,-0.015268,21.4169,21.4987,0.0615543,10.7449,21.5163,21.4343,0.0265764,21.4488,213,16.5298,17.8008,0.35,13032
-2.30115e-07,-6.034e-07,-1.90773e-06,-8.13931e-05,-0.000360691,-0.0153151,20.847,20.4539,-0.593083,11.0325,21.1622,20.4484,-0.902769,21.7169,213,16.0581,18.6504,0.3375,13033
-4.512e-07,-6.38514e-07,-2.31309e-06,-0.000181254,-0.000446987,-0.0151222,20.7176,20.3437,-0.310305,10.8173,21.0193,20.347,-0.615311,21.3064,213,17.8683,18.5375,0.3625,13034
-4.38122e-07,-5.52775e-07,-1.93279e-06,-0.000163244,-0.000357389,-0.0152531,20.7047,20.4314,-0.532928,10.9108,20.9973,20.4302,-0.824269,21.5436,213,17.8683,18.5375,0.3375,13035
-5.67635e-07,-3.72406e-07,-2.14343e-06,-0.000179596,-0.000142699,-0.0152289,21.0471,21.0991,-0.133341,10.6342,21.116,21.0493,-0.152376,21.2351,213,18.3048,17.5749,0.35,13036
-4.04247e-07,-3.93778e-07,-2.12069e-06,-0.000147279,-0.00012154,-0.015246,21.1523,21.1885,-0.0977788,10.6694,21.2227,21.1365,-0.116168,21.2959,213,17.4173,17.6879,0.35,13037
-3.1856e-07,-6.84105e-07,-2.29071e-06,-0.00010982,-0.00046425,-0.0151955,20.7867,20.2879,-0.444991,10.9906,21.1617,20.2874,-0.81948,21.5573,213,16.9808,18.6504,0.3625,13038
4.5179e-07,-6.37763e-07,-2.31368e-06,-0.00018133,-0.000441626,-0.0151639,20.6577,20.2914,-0.428862,10.8195,20.9328,20.2937,-0.706253,21.3267,213,2.23169,18.5375,0.3625,13039
5.69352e-07,-3.76053e-07,-2.14262e-06,-0.000236352,-0.000140591,-0.015188,20.9447,21.0795,-0.0983422,10.6046,21.0912,20.9527,-0.118061,21.1404,213,1.79521,17.5749,0.35,13040
4.38011e-07,-5.52557e-07,-1.93335e-06,-0.000164303,-0.000358242,-0.0152512,20.7032,20.4303,-0.530183,10.9142,21.0014,20.4289,-0.826995,21.5479,213,2.23169,18.5375,0.3375,13041
3.18119e-07,-6.81919e-07,-2.29121e-06,-0.000112222,-0.000478359,-0.0152167,20.7214,20.2061,-0.536777,10.9576,21.0505,20.205,-0.864739,21.5049,213,3.1192,18.6504,0.3625,13042
4.04096e-07,-3.94258e-07,-2.12245e-06,-0.000147712,-0.000112235,-0.0152428,21.1715,21.2214,-0.073483,10.6704,21.247,21.1664,-0.0939173,21.3007,213,2.68271,17.6879,0.35,13043
4.72992e-07,8.08476e-07,-1.90259e-06,-0.000157666,-0.000429036,-0.0151993,20.6924,20.3105,-0.477256,10.8676,20.9737,20.3134,-0.76149,21.4127,213,2.23169,0.962542,0.3375,13044
3.54369e-07,8.72043e-07,-1.85599e-06,-0.000111103,-0.00045886,-0.0152221,20.748,20.2586,-0.519325,10.902,21.0161,20.2591,-0.787944,21.4356,213,3.1192,0.849583,0.3375,13045
5.67739e-07,5.44676e-07,-2.14127e-06,-0.000147611,-0.000147217,-0.0152229,21.147,21.1476,-0.0700786,10.6582,21.2187,21.1035,-0.0976194,21.2589,213,1.79521,1.92508,0.35,13046
4.14474e-07,5.86107e-07,-2.12015e-06,-0.000147496,-0.000188355,-0.0152285,21.0707,21.0132,-0.154348,10.6495,21.1139,21.0007,-0.185062,21.2426,213,2.68271,1.81212,0.35,13047
4.86345e-07,8.93865e-07,-2.28073e-06,-0.000175621,-0.000514097,-0.015061,20.725,20.2486,-0.224852,10.7577,21.0053,20.2536,-0.51012,21.1496,213,2.23169,0.962542,0.3625,13048
7.33284e-09,-6.09474e-07,-2.11785e-06,-1.81961e-05,-0.000272372,-0.0153886,21.064,20.7063,-0.568453,11.0309,21.2789,20.706,-0.782964,21.781,213,9.58864,18.4382,0.35,13049
1.37411e-10,-6.74609e-07,-2.30388e-06,-1.29038e-05,-0.000447939,-0.0151739,21.1445,20.5323,-0.193159,11.0076,21.4833,20.5323,-0.531955,21.5555,213,10.05,18.4382,0.3625,13050
2.1185e-10,-5.56419e-07,-1.92572e-06,-1.95804e-05,-0.000373877,-0.0152633,21.0989,20.6003,-0.355212,10.988,21.3598,20.6003,-0.616109,21.6062,213,10.05,18.4382,0.3375,13051
-2.18166e-10,-3.87123e-07,-2.11246e-06,-1.89324e-05,-8.35091e-05,-0.0152987,21.5196,21.4287,0.0146906,10.7681,21.543,21.413,0.00694479,21.4714,213,10.05,17.3764,0.35,13052
-9.04136e-09,8.92266e-07,-2.09719e-06,-2.42016e-05,-0.000355561,-0.0153212,21.0199,20.5535,-0.509229,10.9675,21.2229,20.5533,-0.712056,21.608,213,10.5114,1.06179,0.35,13053
2.62375e-10,5.80346e-07,-2.12011e-06,-2.36454e-05,-0.000190436,-0.0152125,21.4711,21.2364,0.0941323,10.7062,21.4888,21.2364,0.0764443,21.2873,213,10.05,2.12359,0.35,13054
3.23453e-10,8.41027e-07,-1.90356e-06,-2.68839e-05,-0.000457265,-0.0152925,20.8918,20.2861,-0.593109,10.9601,21.1094,20.2861,-0.810753,21.5203,213,10.05,1.06179,0.3375,13055
3.94118e-11,9.56314e-07,-2.28198e-06,-1.87099e-05,-0.00052146,-0.0151838,20.9899,20.2823,-0.353483,10.9643,21.2826,20.2823,-0.646131,21.4461,213,10.05,1.06179,0.3625,13056
9.48667e-09,8.95885e-07,-2.09256e-06,-2.25063e-05,-0.000352709,-0.0153329,21.0105,20.5458,-0.53745,10.9749,21.2115,20.5457,-0.738343,21.6246,213,9.58864,1.06179,0.35,13057
9.41671e-07,-3.38696e-07,-2.24898e-06,-0.000540307,-0.000125684,-0.0151124,20.1663,20.7499,-0.342553,10.838,21.0402,20.1692,-0.635779,21.2539,213,0.847604,17.075,0.3625,13058
8.53848e-07,-3.30776e-07,-1.86899e-06,-0.000453286,-0.000111909,-0.0152489,20.2302,20.7107,-0.593262,10.9463,21.0041,20.2322,-0.888646,21.5172,213,0.847604,17.075,0.3375,13059
6.46657e-07,-2.91917e-07,-2.12232e-06,-0.000232056,-9.42272e-05,-0.0151911,21.0287,21.2227,-0.0247581,10.6609,21.2619,21.0246,-0.0598696,21.2041,213,1.60328,16.815,0.35,13060
1.07367e-06,-2.64774e-07,-2.19398e-06,-0.000591816,-8.62719e-05,-0.0151117,20.0752,20.7867,-0.360197,11.0574,21.2706,20.0753,-0.844133,21.5419,213,0.655674,16.3151,0.3625,13061
9.55225e-07,-2.61935e-07,-1.81536e-06,-0.000493761,-8.74504e-05,-0.0151823,20.2563,20.8281,-0.416489,11.1136,21.3194,20.2563,-0.907829,21.7152,213,0.655674,16.3151,0.3375,13062
7.29327e-07,-2.31072e-07,-2.10506e-06,-0.000220061,-7.08556e-05,-0.0151464,21.1772,21.3871,0.169739,10.6879,21.4657,21.1784,0.0899698,21.2335,213,1.41135,16.0551,0.35,13063
8.90635e-07,-3.97309e-07,-2.07139e-06,-0.000377337,-0.000146963,-0.0151552,20.5581,20.8823,-0.240456,10.9501,21.27,20.5602,-0.630212,21.5541,213,0.847604,17.5625,0.35,13064
8.38078e-07,4.57569e-07,-1.87667e-06,-0.000449551,-0.000146711,-0.0152514,20.1804,20.6066,-0.651885,10.8968,20.8725,20.1836,-0.921046,21.4574,213,0.847604,2.42504,0.3375,13065
8.57141e-07,5.4606e-07,-2.08999e-06,-0.000586021,-0.000192541,-0.015103,19.9326,20.4864,-0.49865,10.766,20.7588,19.9348,-0.773218,21.1321,213,0.847604,1.93754,0.35,13066
9.26923e-07,4.69049e-07,-2.25455e-06,-0.000529532,-0.000163485,-0.0150733,20.2013,20.7165,-0.26779,10.7988,21.0217,20.2042,-0.575935,21.2007,213,0.847604,2.42504,0.3625,13067
-9.69669e-07,4.45317e-08,-1.8226e-06,-0.000502411,-2.84128e-05,-0.0150314,20.5746,21.2417,0.126382,11.0905,21.7746,20.5746,-0.406484,21.6061,213,19.3838,8.57715,0.3375,13068
-1.04628e-06,3.18599e-08,-2.00362e-06,-0.000464838,-2.59945e-05,-0.0150047,20.7371,21.3547,0.273672,11.0556,21.8698,20.7371,-0.241401,21.5672,213,19.3838,9.06465,0.35,13069
-1.12167e-06,4.60881e-08,-2.19607e-06,-0.000646578,-2.96072e-05,-0.0148716,20.3954,21.2638,0.375009,11.1544,21.974,20.3951,-0.33487,21.5628,213,19.3838,8.57715,0.3625,13070
-7.08274e-07,4.8174e-08,-2.12591e-06,-0.000254486,-2.75266e-05,-0.0151791,21.0895,21.409,0.0844572,10.6707,21.4186,21.087,0.0773057,21.1775,213,18.5677,8.37929,0.35,13071
-9.36481e-07,4.74551e-09,-2.05479e-06,-0.000373881,-2.32022e-05,-0.015075,20.9036,21.3972,0.213216,10.8465,21.6517,20.9035,-0.0411829,21.3286,213,19.1327,10.1293,0.35,13072
-5.14878e-08,-6.89823e-07,-2.10514e-06,-2.60928e-05,-0.000347854,-0.0153121,21.0416,20.5888,-0.472057,11.2227,21.5079,20.5879,-0.937465,21.9998,213,12.3516,18.6819,0.35,13073
-3.99643e-08,-7.72751e-07,-2.28956e-06,-2.33106e-05,-0.000560391,-0.0150497,21.1321,20.3762,-0.016135,11.2267,21.7847,20.3762,-0.668752,21.7834,213,11.8902,18.6819,0.3625,13074
-3.94732e-08,-6.21689e-07,-1.91361e-06,-2.44408e-05,-0.000435552,-0.0151916,21.1006,20.522,-0.245736,11.207,21.6346,20.5217,-0.779441,21.8788,213,11.8902,18.6819,0.3375,13075
-4.32368e-08,-4.68467e-07,-2.12006e-06,-2.45097e-05,-0.000132628,-0.0153022,21.4162,21.264,-0.0857043,10.784,21.4523,21.2579,-0.115675,21.4714,213,11.885,17.8638,0.35,13076
-6.81546e-08,1.06205e-07,-2.09785e-06,-3.62869e-05,-4.21003e-05,-0.0153262,21.4895,21.4813,-0.0297363,10.7599,21.4899,21.481,-0.0298532,21.5153,213,12.3247,6.90907,0.35,13077
-3.93197e-08,1.01464e-07,-2.09847e-06,-2.97345e-05,-4.11558e-05,-0.0153295,21.5056,21.4896,-0.027355,10.7666,21.5057,21.4895,-0.0274396,21.5251,213,11.4485,7.04177,0.35,13078
-4.95076e-08,1.16002e-07,-1.90645e-06,-3.15792e-05,-4.57842e-05,-0.0153317,21.4888,21.4688,-0.044769,10.7669,21.489,21.4687,-0.044886,21.5238,213,11.7941,6.68023,0.3375,13079
-5.00991e-08,1.17688e-07,-2.28962e-06,-3.21023e-05,-4.64375e-05,-0.0153276,21.4928,21.4727,-0.0341755,10.7636,21.493,21.4726,-0.0342908,21.5171,213,11.7941,6.68023,0.3625,13080
-6.33713e-08,9.96518e-07,-2.0551e-06,-3.30339e-05,-0.000428895,-0.0152637,20.9669,20.4097,-0.468948,11.1518,21.401,20.4092,-0.902593,21.8246,213,12.3103,0.811382,0.35,13081
-4.95116e-08,1.07305e-06,-2.24096e-06,-2.93769e-05,-0.000632052,-0.0150816,20.9435,20.0953,-0.241193,11.1575,21.5086,20.0953,-0.8063,21.6429,213,11.8489,0.811382,0.3625,13082
6.33088e-08,9.95554e-07,-2.05506e-06,-3.45264e-05,-0.000425452,-0.015246,20.997,20.4468,-0.41177,11.1352,21.4281,20.4462,-0.842255,21.796,213,7.78971,0.811382,0.35,13083
4.84717e-08,1.0772e-06,-2.23722e-06,-2.9533e-05,-0.000632096,-0.0150428,21.0067,20.1587,-0.123029,11.1729,21.6147,20.1587,-0.731078,21.6545,213,8.25108,0.811382,0.3625,13084
-7.95432e-08,1.15526e-08,-2.09802e-06,-3.85072e-05,-2.50952e-05,-0.0153224,21.517,21.5358,0.00635647,10.7648,21.5358,21.517,0.00632132,21.5201,213,12.5633,9.92326,0.35,13085
-4.58293e-08,3.05597e-09,-2.09911e-06,-3.13543e-05,-2.54805e-05,-0.0153301,21.5254,21.5337,-0.00621553,10.77,21.5337,21.5254,-0.0062402,21.5358,213,11.5915,10.2659,0.35,13086
-9.78173e-08,-1.07493e-08,-2.0973e-06,-4.28973e-05,-2.40703e-05,-0.0153178,21.5127,21.5392,0.0146933,10.7623,21.5393,21.5127,0.0146371,21.5114,213,13.0067,10.8337,0.35,13087
-6.00241e-08,-1.96676e-08,-2.09903e-06,-3.5028e-05,-2.48881e-05,-0.0153295,21.5162,21.5305,-0.00931421,10.7699,21.5306,21.5162,-0.00934103,21.5327,213,12.035,11.1764,0.35,13088
2.1703e-08,-4.27185e-07,-2.12014e-06,-2.47932e-05,-0.000173364,-0.0152176,21.4873,21.2782,0.104771,10.7083,21.5044,21.2781,0.0877525,21.3044,213,9.10278,17.6245,0.35,13089
4.43565e-08,-4.65735e-07,-2.12385e-06,-2.58837e-05,-0.000162195,-0.0152742,21.4093,21.2175,-0.0513259,10.755,21.4341,21.2173,-0.0759215,21.4024,213,8.15556,17.8726,0.35,13090
2.97867e-08,-6.85129e-07,-2.10397e-06,-2.31975e-05,-0.000348889,-0.0153237,21.0298,20.5714,-0.504277,11.2268,21.4897,20.5712,-0.963975,22.0088,213,8.64142,18.6863,0.35,13091
9.65036e-08,4.3684e-08,-2.09829e-06,-4.3344e-05,-2.78797e-05,-0.0153251,21.4931,21.5149,-0.0145467,10.7648,21.515,21.493,-0.0146188,21.5187,213,7.09584,8.67778,0.35,13092
1.36829e-07,5.08733e-08,-2.0961e-06,-5.35331e-05,-2.90237e-05,-0.0153115,21.4826,21.5171,0.00846226,10.7545,21.5173,21.4825,0.00832134,21.4916,213,6.25605,8.40327,0.35,13093
1.51975e-07,2.97347e-08,-2.09409e-06,-5.73319e-05,-2.61333e-05,-0.0153029,21.4897,21.5337,0.0329655,10.7505,21.5339,21.4897,0.0328022,21.479,213,6.00343,9.16216,0.35,13094
5.27392e-08,-6.91877e-07,-2.1043e-06,-2.61485e-05,-0.000347659,-0.0153181,21.032,20.5795,-0.490086,11.2452,21.5164,20.5789,-0.973944,22.0366,213,7.71869,18.6863,0.35,13095
4.14367e-08,-7.68431e-07,-2.29208e-06,-2.4784e-05,-0.000558456,-0.0151068,21.037,20.2859,-0.18956,11.2327,21.6564,20.2859,-0.808961,21.8124,213,8.18005,18.6863,0.3625,13096
9.43992e-07,1.7496e-07,-2.05412e-06,-0.000376952,-5.92928e-05,-0.0153104,20.4484,20.8955,-0.568977,11.0216,21.1846,20.449,-0.858655,21.6848,213,0.841592,5.47658,0.35,13097
1.00181e-06,2.06144e-07,-2.2361e-06,-0.000566567,-6.28392e-05,-0.0151058,20.2003,20.9093,-0.262319,10.9947,21.318,20.2005,-0.67129,21.4524,213,0.841592,4.98908,0.3625,13098
-9.46425e-07,1.74382e-07,-2.04891e-06,-0.000378643,-5.72259e-05,-0.015249,20.5475,20.9998,-0.381205,10.9975,21.3065,20.548,-0.688454,21.6257,213,19.2584,5.47658,0.35,13099
-1.00191e-06,2.05193e-07,-2.23332e-06,-0.000569441,-6.2309e-05,-0.0150762,20.241,20.9548,-0.175877,10.9792,21.3687,20.241,-0.589802,21.4169,213,19.2584,4.98908,0.3625,13100
-1.02345e-06,-1.42663e-07,-2.23682e-06,-0.000579837,-4.35775e-05,-0.0150062,20.355,21.1097,0.0511288,10.9595,21.5399,20.3549,-0.379038,21.3511,213,19.2584,14.5109,0.3625,13101
-9.65579e-07,-1.20448e-07,-2.05296e-06,-0.000394557,-3.93771e-05,-0.0151193,20.7413,21.2411,0.0175984,10.9234,21.5525,20.7417,-0.294262,21.4529,213,19.2584,14.0234,0.35,13102
3.88451e-08,2.86791e-07,-2.08362e-06,-2.74988e-05,-9.81548e-05,-0.0153389,21.4035,21.304,-0.145833,10.7752,21.4041,21.3039,-0.146354,21.5005,213,8.55886,4.22154,0.35,13103
6.63912e-08,2.87742e-07,-2.08779e-06,-3.52963e-05,-9.85698e-05,-0.0152695,21.4929,21.4039,0.0521716,10.7212,21.4938,21.4038,0.0514053,21.3975,213,7.69172,4.18172,0.35,13104
3.13709e-08,3.89737e-07,-2.07922e-06,-2.53602e-05,-0.000118971,-0.0154453,21.201,21.0692,-0.501216,10.852,21.2019,21.0692,-0.502169,21.6381,213,8.79125,3.30162,0.35,13105
5.7338e-08,3.91258e-07,-2.0896e-06,-3.3431e-05,-0.000118724,-0.0153195,21.3834,21.2634,-0.130242,10.7584,21.3849,21.2634,-0.131805,21.4562,213,7.92411,3.26179,0.35,13106
4.46799e-07,-1.19251e-07,-2.09206e-06,-0.000154027,-4.41074e-05,-0.015271,21.2178,21.3725,-0.0579196,10.7194,21.3767,21.2177,-0.0619998,21.3596,213,2.82458,14.31,0.35,13107
4.81516e-07,-1.67764e-07,-2.09888e-06,-0.000164521,-5.91824e-05,-0.015266,21.1693,21.3175,-0.0846814,10.7053,21.3219,21.1689,-0.0886896,21.3345,213,2.53883,15.2404,0.35,13108
3.13405e-07,-1.15691e-07,-2.08513e-06,-0.000104584,-4.3254e-05,-0.0152816,21.3526,21.439,-0.007537,10.7244,21.4402,21.3523,-0.00846928,21.4049,213,3.86597,14.2232,0.35,13109
3.36356e-07,-1.62616e-07,-2.0796e-06,-0.000113105,-5.91409e-05,-0.0152645,21.3286,21.4045,0.00438366,10.7016,21.4066,21.3275,0.00332542,21.3639,213,3.58023,15.1536,0.35,13110
-3.13691e-07,-5.89818e-07,-1.90942e-06,-0.000109545,-0.000376761,-0.0153179,20.7303,20.3542,-0.674051,11.0004,21.0285,20.3543,-0.972272,21.6715,213,16.9808,18.6504,0.3375,13111
3.58472e-07,9.6508e-07,-2.23487e-06,-0.000110437,-0.00053977,-0.0151239,20.7784,20.1741,-0.351733,10.9236,21.1369,20.1743,-0.710395,21.3822,213,3.1192,0.849583,0.3625,13112
3.1311e-07,-5.90308e-07,-1.90904e-06,-0.000111835,-0.000385191,-0.0152844,20.7645,20.3798,-0.589425,11.0187,21.1068,20.3787,-0.930647,21.6826,213,3.1192,18.6504,0.3375,13113
2.91871e-07,-4.14917e-07,-2.11376e-06,-9.29533e-05,-0.00015077,-0.0153025,21.1772,21.0958,-0.228806,10.7242,21.2008,21.0909,-0.247488,21.3935,213,3.57022,17.8008,0.35,13114
-6.41793e-07,2.07273e-08,-2.12851e-06,-0.000285957,-2.44288e-05,-0.0151924,20.9769,21.3449,-0.00258797,10.6763,21.3475,20.9768,-0.00507164,21.1696,213,18.3166,9.44392,0.35,13115
-4.74034e-08,6.98403e-07,-2.12913e-06,-2.7706e-05,-0.000248934,-0.015227,21.339,21.0276,-0.0526365,10.7333,21.3765,21.0275,-0.0900678,21.2942,213,11.8024,1.62276,0.35,13116
-4.87585e-08,9.27811e-07,-1.86419e-06,-3.00405e-05,-0.000520772,-0.0152434,20.8586,20.1679,-0.552817,11.1155,21.2684,20.1679,-0.96264,21.7017,213,11.8489,0.811382,0.3375,13117
4.7793e-08,9.28774e-07,-1.86136e-06,-3.11255e-05,-0.000517897,-0.0152189,20.9001,20.215,-0.475295,11.1231,21.3355,20.215,-0.910683,21.7076,213,8.25108,0.811382,0.3375,13118
4.72533e-08,7.03002e-07,-2.13972e-06,-2.97102e-05,-0.000253133,-0.0151181,21.5047,21.1903,0.269191,10.6585,21.5455,21.1903,0.228462,21.1416,213,8.29761,1.62276,0.35,13119
-1.53189e-08,-3.23376e-07,-2.10073e-06,-2.49508e-05,-0.000108021,-0.015297,21.4639,21.3469,-0.0300808,10.7499,21.4669,21.3468,-0.0329217,21.44,213,10.6919,16.8638,0.35,13120
4.47441e-10,-2.64834e-07,-2.09222e-06,-2.39484e-05,-9.36857e-05,-0.0153125,21.465,21.3668,-0.0522261,10.7601,21.4665,21.3668,-0.0537536,21.4706,213,10.0506,16.2899,0.35,13121
-1.57956e-08,-2.20792e-07,-2.09118e-06,-2.5954e-05,-7.6888e-05,-0.0152974,21.5112,21.4395,0.0181098,10.747,21.5117,21.4395,0.0176883,21.458,213,10.6925,15.7773,0.35,13122
-3.21318e-08,-2.67557e-07,-2.09422e-06,-2.66485e-05,-8.958e-05,-0.0152965,21.4897,21.4011,-0.00129637,10.7466,21.4908,21.401,-0.00230445,21.4483,213,11.3338,16.3512,0.35,13123
-4.37097e-08,1.47132e-07,-2.09679e-06,-2.97567e-05,-5.57702e-05,-0.0153192,21.4985,21.4619,-0.0199821,10.7594,21.4987,21.4618,-0.0201328,21.5004,213,11.6092,6.08985,0.35,13124
-5.32034e-07,-6.06379e-07,-2.13595e-06,-0.000214865,-0.000281554,-0.0151586,20.8269,20.7331,-0.205013,10.9464,21.2633,20.7212,-0.629555,21.6269,213,18.3297,18.5375,0.35,13125
5.31401e-07,-6.02466e-07,-2.1365e-06,-0.000213635,-0.000276458,-0.015178,20.8072,20.7188,-0.253747,10.9324,21.2147,20.7076,-0.650107,21.6157,213,1.77033,18.5375,0.35,13126
5.6383e-07,8.33357e-07,-2.11507e-06,-0.000208339,-0.00055036,-0.0150609,20.5659,20.0845,-0.33781,10.7589,20.8735,20.0834,-0.644284,21.1338,213,1.77033,0.962542,0.35,13127
4.03473e-08,-6.20575e-07,-1.91454e-06,-2.55679e-05,-0.000437185,-0.0152866,20.9385,20.3592,-0.539986,11.1932,21.3925,20.3592,-0.993975,21.8881,213,8.18005,18.6863,0.3375,13128
2.54217e-07,3.11613e-07,-2.07616e-06,-8.94097e-05,-0.000103722,-0.0152499,21.3516,21.3315,0.014594,10.6717,21.3571,21.3269,0.0136628,21.3284,213,4.29089,3.77046,0.35,13129
2.4892e-07,4.22662e-07,-2.07693e-06,-8.76967e-05,-0.000143505,-0.0152322,21.3205,21.242,0.0060095,10.6606,21.3243,21.2411,0.00315526,21.2796,213,4.27286,2.84999,0.35,13130
1.77289e-07,3.8485e-07,-2.07162e-06,-6.10842e-05,-0.000131142,-0.0152706,21.3589,21.2603,-0.0470718,10.7054,21.3618,21.2594,-0.04905,21.3598,213,5.26927,3.20447,0.35,13131
1.80371e-07,2.82507e-07,-2.08348e-06,-6.38685e-05,-9.48466e-05,-0.0152456,21.4511,21.4075,0.0841518,10.6846,21.4529,21.4062,0.0836533,21.3459,213,5.2873,4.12494,0.35,13132
5.37767e-07,-8.6112e-08,-2.10109e-06,-0.000179275,-3.72661e-05,-0.0152928,21.1163,21.3162,-0.154543,10.7416,21.3224,21.1164,-0.160792,21.3809,213,2.32212,13.4764,0.35,13133
3.74856e-07,-8.25109e-08,-2.08813e-06,-0.00012757,-3.57516e-05,-0.0152878,21.2845,21.4138,-0.0521387,10.734,21.4148,21.2845,-0.0531537,21.4031,213,3.36352,13.3896,0.35,13134
-4.47376e-07,-1.18893e-07,-2.09019e-06,-0.00015355,-4.41038e-05,-0.0152725,21.2168,21.3709,-0.0616562,10.7203,21.3751,21.2165,-0.0655022,21.3617,213,17.2754,14.31,0.35,13135
-5.39529e-07,-8.57445e-08,-2.09897e-06,-0.000182521,-3.65888e-05,-0.0152795,21.1293,21.3347,-0.118309,10.734,21.3422,21.1293,-0.125819,21.3624,213,17.7779,13.4764,0.35,13136
-3.13713e-07,-1.15628e-07,-2.08456e-06,-0.000107159,-4.25308e-05,-0.0152524,21.3939,21.4849,0.0784823,10.7044,21.4861,21.3937,0.0774096,21.3627,213,16.234,14.2232,0.35,13137
-3.73481e-07,-8.32096e-08,-2.0904e-06,-0.000128804,-3.51203e-05,-0.0153035,21.2562,21.388,-0.100737,10.7452,21.3888,21.2562,-0.101593,21.4244,213,16.7365,13.3896,0.35,13138
-4.81385e-07,-1.67626e-07,-2.09803e-06,-0.000164192,-5.89267e-05,-0.0152718,21.1612,21.3094,-0.101261,10.7094,21.3137,21.1608,-0.105119,21.3428,213,17.5612,15.2404,0.35,13139
-6.39165e-07,-1.27315e-07,-2.12102e-06,-0.000199366,-3.98459e-05,-0.0153091,21.0241,21.2486,-0.241419,10.768,21.2749,21.0175,-0.261108,21.4085,213,18.3168,14.3968,0.35,13140
6.41489e-07,-1.27602e-07,-2.12578e-06,-0.000160397,-3.88609e-05,-0.0152574,21.2293,21.4003,-0.0184456,10.7329,21.4238,21.2293,-0.0419525,21.3692,213,1.78318,14.3968,0.35,13141
4.38046e-08,-3.32308e-07,-2.10161e-06,-2.69714e-05,-0.000120182,-0.01528,21.4655,21.3343,-0.00178634,10.7398,21.4717,21.3342,-0.00788811,21.4112,213,8.2808,16.9628,0.35,13142
3.5801e-07,-2.23154e-07,-2.07848e-06,-0.000120514,-7.41973e-05,-0.0152665,21.2781,21.3433,-0.038445,10.6937,21.3471,21.2761,-0.040252,21.3519,213,3.29449,16.084,0.35,13143
1.74279e-07,-2.58544e-07,-2.08411e-06,-6.24818e-05,-9.02098e-05,-0.015272,21.4196,21.3806,0.0135907,10.7067,21.4246,21.3779,0.0112479,21.3901,213,5.30477,16.3792,0.35,13144
2.48875e-07,-2.79492e-07,-2.08201e-06,-8.9391e-05,-9.56001e-05,-0.0152647,21.3407,21.332,-0.017109,10.6864,21.3532,21.322,-0.0196518,21.3573,213,4.27532,16.6693,0.35,13145
2.5514e-07,-2.06304e-07,-2.07598e-06,-9.11035e-05,-7.07536e-05,-0.0152707,21.3664,21.3951,0.00257675,10.6986,21.3991,21.3632,0.0018215,21.3793,213,4.32394,15.7939,0.35,13146
1.77907e-07,-1.9074e-07,-2.08338e-06,-6.41823e-05,-6.64116e-05,-0.015277,21.4452,21.4421,0.0345628,10.709,21.452,21.4358,0.0340364,21.4099,213,5.35339,15.5038,0.35,13147
-2.48255e-07,-2.76529e-07,-2.08095e-06,-8.8805e-05,-9.55141e-05,-0.0152612,21.3483,21.3389,-0.00548368,10.6827,21.3579,21.3314,-0.00757016,21.3522,213,15.822,16.6562,0.35,13148
-2.5693e-07,-2.01217e-07,-2.07669e-06,-9.10669e-05,-6.74288e-05,-0.0152812,21.3548,21.3881,-0.0239063,10.7081,21.3915,21.3521,-0.0245971,21.3964,213,15.793,15.721,0.35,13149
-3.58191e-07,-2.23509e-07,-2.07708e-06,-0.000121162,-7.06092e-05,-0.0152632,21.2873,21.3584,-0.0237599,10.6937,21.3619,21.2856,-0.0255225,21.3494,213,16.8055,16.084,0.35,13150
-3.11487e-07,9.45844e-07,-2.04758e-06,-8.97323e-05,-0.000378857,-0.0151949,20.9892,20.5823,-0.269847,10.9868,21.3462,20.5828,-0.627372,21.602,213,16.5194,0.849583,0.35,13151
2.70913e-07,-6.59886e-07,-2.09673e-06,-8.63131e-05,-0.000310109,-0.0152411,21.0367,20.7217,-0.292267,11.0836,21.4571,20.7191,-0.710076,21.8075,213,3.58056,18.6504,0.35,13152
2.34422e-07,-7.09448e-07,-2.28775e-06,-7.94354e-05,-0.000515414,-0.0151611,20.8519,20.2383,-0.374084,11.0552,21.2945,20.2375,-0.815885,21.6013,213,4.04193,18.6504,0.3625,13153
-5.28752e-07,1.35201e-07,-2.10584e-06,-0.0001873,-5.01705e-05,-0.0152247,21.1824,21.3754,0.0185511,10.6862,21.3832,21.1824,0.0107581,21.2727,213,17.7779,6.02355,0.35,13154
-4.36429e-07,1.83531e-07,-2.08927e-06,-0.000153226,-6.26809e-05,-0.0152484,21.2269,21.3544,-0.0180954,10.6918,21.3602,21.2264,-0.0233388,21.3169,213,17.2754,5.18998,0.35,13155
-4.34101e-07,9.57609e-08,-2.10536e-06,-0.000150915,-3.7913e-05,-0.0153632,21.0862,21.2452,-0.323667,10.7854,21.2461,21.0862,-0.324632,21.4913,213,17.2389,6.94395,0.35,13156
-3.67662e-07,1.33824e-07,-2.08637e-06,-0.000122505,-4.9402e-05,-0.0153248,21.2169,21.3198,-0.178932,10.7508,21.3213,21.2167,-0.180257,21.4495,213,16.7365,6.11038,0.35,13157
1.33775e-07,1.34821e-07,-2.09488e-06,-5.2108e-05,-5.09934e-05,-0.0153078,21.4569,21.4585,-0.0139825,10.738,21.4617,21.454,-0.0142346,21.4721,213,6.21792,6.23944,0.35,13158
1.69353e-07,1.63128e-07,-2.09218e-06,-6.22371e-05,-5.8455e-05,-0.015289,21.4446,21.4499,0.0143831,10.7196,21.4532,21.4417,0.0139326,21.4335,213,5.56294,5.69055,0.35,13159
2.02095e-07,1.17553e-07,-2.09075e-06,-7.18131e-05,-4.65817e-05,-0.0152878,21.4369,21.4725,0.021927,10.7259,21.4733,21.4364,0.0215795,21.4333,213,5.12928,6.54949,0.35,13160
9.75896e-08,2.98483e-07,-2.08685e-06,-4.1377e-05,-0.000102091,-0.0152673,21.4723,21.3868,0.0432593,10.7154,21.4732,21.3866,0.0424927,21.3876,213,6.87459,4.04116,0.35,13161
1.0732e-07,2.24515e-07,-2.08994e-06,-4.37314e-05,-7.69064e-05,-0.0152824,21.4816,21.4349,0.0346043,10.7241,21.4824,21.4345,0.0342205,21.4243,213,6.69222,4.86036,0.35,13162
7.46426e-08,2.16279e-07,-2.09154e-06,-3.71083e-05,-7.42227e-05,-0.0152771,21.515,21.4627,0.0661458,10.7249,21.5156,21.4625,0.0657707,21.4233,213,7.50935,5.00092,0.35,13163
-2.65575e-07,1.27852e-07,-2.08664e-06,-9.16181e-05,-4.86459e-05,-0.0153076,21.3405,21.401,-0.0745939,10.7382,21.4014,21.3404,-0.0749388,21.4459,213,15.7851,6.2884,0.35,13164
-3.17244e-07,9.08606e-08,-2.09005e-06,-0.000108012,-3.77421e-05,-0.0153461,21.2453,21.3442,-0.200865,10.7728,21.3444,21.2453,-0.201115,21.4962,213,16.2875,7.12198,0.35,13165
2.38068e-07,-1.49047e-07,-2.08376e-06,-8.56666e-05,-5.45888e-05,-0.0152699,21.4109,21.4547,0.0405652,10.708,21.4561,21.4099,0.0401504,21.3929,213,4.60968,14.8635,0.35,13166
4.45887e-07,-5.55545e-08,-2.09478e-06,-0.000147884,-2.82111e-05,-0.015331,21.1641,21.3326,-0.204707,10.7701,21.334,21.1641,-0.206109,21.4557,213,2.86107,12.556,0.35,13167
-4.41864e-07,-5.61255e-08,-2.10296e-06,-0.000151038,-2.8278e-05,-0.0154133,21.0192,21.192,-0.461027,10.827,21.1925,21.0192,-0.461464,21.5678,213,17.2389,12.556,0.35,13168
8.73714e-07,2.02514e-07,-1.85993e-06,-0.000478441,-6.68615e-05,-0.0152064,20.2972,20.8765,-0.431094,10.9662,21.1888,20.2975,-0.743681,21.5007,213,0.841592,4.98908,0.3375,13169
6.30164e-07,1.90145e-07,-2.12203e-06,-0.000194287,-5.99621e-05,-0.0151911,21.2002,21.3892,0.0935029,10.6733,21.4184,21.1928,0.0717286,21.2348,213,1.78318,5.10316,0.35,13170
-6.28599e-07,1.89327e-07,-2.11918e-06,-0.000195814,-5.91836e-05,-0.0152705,21.0664,21.2587,-0.149821,10.7277,21.2867,21.0574,-0.16878,21.3417,213,18.3168,5.10316,0.35,13171
-8.73627e-07,2.01677e-07,-1.85731e-06,-0.000478828,-6.6438e-05,-0.0151887,20.3259,20.9063,-0.376817,10.9569,21.2215,20.3262,-0.692301,21.4801,213,19.2584,4.98908,0.3375,13172
-8.93573e-07,-1.39525e-07,-1.86142e-06,-0.00048751,-4.88227e-05,-0.01516,20.3754,20.9928,-0.27474,10.9562,21.3151,20.3756,-0.597217,21.458,213,19.2584,14.5109,0.3375,13173
-4.70813e-07,2.53165e-07,-2.09645e-06,-0.000161317,-8.77034e-05,-0.0152383,21.1778,21.2814,-0.0416215,10.6677,21.2884,21.1761,-0.0469497,21.2794,213,17.5612,4.25957,0.35,13174
-1.35124e-07,6.19921e-07,-2.12712e-06,-5.11511e-05,-0.000251251,-0.0152546,21.2184,20.9368,-0.179024,10.7153,21.2348,20.9371,-0.195751,21.2833,213,14.1419,1.8548,0.35,13175
-1.30989e-07,1.01808e-06,-2.03494e-06,-4.61424e-05,-0.000468507,-0.015223,20.9288,20.3343,-0.431265,11.257,21.5056,20.3346,-1.00837,21.9519,213,14.0494,0.712826,0.35,13176
-1.00778e-07,7.52287e-07,-2.12226e-06,-3.93452e-05,-0.000276739,-0.0150784,21.5017,21.1676,0.335595,10.6589,21.5776,21.1674,0.259894,21.1156,213,13.4351,1.42565,0.35,13177
-4.815e-07,1.99095e-08,-2.10786e-06,-0.000153582,-2.44894e-05,-0.0154087,21.0253,21.207,-0.444788,10.8277,21.2088,21.0252,-0.446507,21.5641,213,17.4447,9.4784,0.35,13178
-5.15022e-07,4.68688e-08,-2.11771e-06,-0.000181661,-2.71266e-05,-0.0153515,21.0293,21.2468,-0.320861,10.7864,21.2494,21.0292,-0.323366,21.4635,213,17.6958,8.41377,0.35,13179
-2.49235e-07,4.22766e-07,-2.0767e-06,-8.7204e-05,-0.000138509,-0.0152453,21.3087,21.2365,-0.0249609,10.6711,21.3134,21.2357,-0.0288237,21.3035,213,15.8271,2.84997,0.35,13180
-2.541e-07,3.12149e-07,-2.07369e-06,-8.91515e-05,-0.000105281,-0.0152121,21.4119,21.3892,0.127665,10.6454,21.4174,21.3847,0.126659,21.2744,213,15.809,3.77034,0.35,13181
-3.52748e-07,3.42193e-07,-2.0744e-06,-0.000109167,-0.000108011,-0.0152611,21.266,21.2676,-0.0589269,10.6722,21.2838,21.2514,-0.0605712,21.3282,213,16.8055,3.41598,0.35,13182
3.53021e-07,3.42151e-07,-2.07497e-06,-0.000109611,-0.000106893,-0.0152481,21.2877,21.2915,-0.0183406,10.662,21.3041,21.2767,-0.0199354,21.3103,213,3.29449,3.41598,0.35,13183
3.24737e-07,8.83525e-08,-2.08634e-06,-0.000109452,-3.74433e-05,-0.015312,21.2973,21.3986,-0.0989522,10.7496,21.3995,21.2972,-0.099672,21.4482,213,3.77835,7.1762,0.35,13184
2.71569e-07,1.24714e-07,-2.08464e-06,-9.12819e-05,-4.80946e-05,-0.0152952,21.3628,21.4236,-0.035311,10.73,21.4243,21.3625,-0.0357721,21.4293,213,4.2808,6.34262,0.35,13185
3.67638e-07,1.33421e-07,-2.08328e-06,-0.00012304,-4.89007e-05,-0.0153158,21.2308,21.3352,-0.15164,10.7447,21.3366,21.2305,-0.152725,21.4365,213,3.36352,6.11038,0.35,13186
4.3847e-07,9.52585e-08,-2.09817e-06,-0.000148962,-3.80564e-05,-0.0153028,21.191,21.3471,-0.13657,10.7437,21.349,21.1909,-0.138419,21.4088,213,2.86107,6.94395,0.35,13187
-3.22986e-07,-5.2615e-09,-2.08611e-06,-0.000100519,-2.30742e-05,-0.0152808,21.3995,21.5085,0.0346915,10.7393,21.5109,21.3994,0.0323637,21.423,213,16.2083,10.5572,0.35,13188
-4.50072e-07,-1.29981e-08,-2.10687e-06,-0.000147572,-2.26629e-05,-0.0154267,21.017,21.1928,-0.487056,10.8413,21.1942,21.0169,-0.488348,21.5944,213,17.259,10.8949,0.35,13189
-3.45515e-07,-2.20584e-08,-2.09278e-06,-0.000107578,-2.35848e-05,-0.0153206,21.3117,21.4299,-0.0991775,10.7658,21.4313,21.3114,-0.100271,21.4719,213,16.4526,11.2813,0.35,13190
-1.24999e-07,-2.20439e-07,-2.08737e-06,-5.04893e-05,-7.57103e-05,-0.0153112,21.4157,21.3802,-0.0623167,10.7402,21.4175,21.3789,-0.0628311,21.4611,213,13.8687,15.8699,0.35,13191
-1.2005e-07,-3.03597e-07,-2.09443e-06,-4.92103e-05,-0.000106558,-0.0152832,21.4148,21.3341,-0.0256901,10.7219,21.4171,21.3329,-0.0267996,21.4019,213,13.8977,16.8051,0.35,13192
-8.30139e-08,-2.66395e-07,-2.0922e-06,-3.65042e-05,-8.63849e-05,-0.0153068,21.4479,21.3777,-0.0436143,10.7469,21.4492,21.3772,-0.0444827,21.4578,213,12.9569,16.3818,0.35,13193
5.2616e-07,1.35565e-07,-2.10634e-06,-0.000181417,-5.09963e-05,-0.0152186,21.209,21.3925,0.0454996,10.6793,21.3983,21.209,0.0396568,21.2646,213,2.32212,6.02355,0.35,13194
-3.07205e-07,1.8134e-07,-2.08091e-06,-0.000101639,-6.1675e-05,-0.015274,21.3437,21.4,-0.0100138,10.7066,21.4021,21.3427,-0.0111522,21.3836,213,16.234,5.2768,0.35,13195
-3.60703e-07,9.75359e-07,-2.23928e-06,-0.000107608,-0.000595049,-0.0150504,20.817,20.131,-0.213515,10.9181,21.2195,20.1315,-0.616579,21.3129,213,16.9808,0.849583,0.3625,13196
-2.31234e-07,8.55503e-08,-2.08905e-06,-7.61176e-05,-3.70397e-05,-0.0152937,21.4298,21.4848,0.012522,10.7365,21.4853,21.4295,0.0122993,21.4452,213,15.3361,7.3,0.35,13197
-9.21841e-08,-1.91254e-07,-2.09114e-06,-3.96968e-05,-6.85749e-05,-0.0153129,21.4574,21.4168,-0.0382009,10.7484,21.4582,21.4163,-0.0385659,21.4759,213,13.0955,15.4336,0.35,13198
-1.01237e-07,-1.34802e-07,-2.0945e-06,-4.29934e-05,-5.00219e-05,-0.0152986,21.5013,21.4914,0.0304045,10.7362,21.5027,21.4902,0.0301947,21.4663,213,13.2342,14.4853,0.35,13199
-1.36887e-07,-1.56638e-07,-2.09142e-06,-5.42603e-05,-5.72366e-05,-0.0152851,21.4773,21.4731,0.0413059,10.7199,21.4809,21.4698,0.0410687,21.4343,213,14.0073,14.9217,0.35,13200
1.99163e-08,-3.07757e-07,-2.09499e-06,-2.45477e-05,-0.000104117,-0.0153376,21.4048,21.2928,-0.146926,10.7783,21.4072,21.2927,-0.149286,21.4995,213,9.22802,16.7147,0.35,13201
4.22697e-08,-2.4282e-07,-2.08907e-06,-2.76221e-05,-8.26459e-05,-0.0153569,21.3989,21.3215,-0.175679,10.7881,21.3998,21.3213,-0.176414,21.5371,213,8.40604,16.053,0.35,13202
-2.29511e-07,1.7273e-07,-2.08773e-06,-8.3036e-05,-5.96657e-05,-0.0152941,21.3707,21.4036,-0.0374971,10.7214,21.4048,21.37,-0.0380196,21.4255,213,15.3851,5.48319,0.35,13203
-7.16449e-07,1.42282e-07,-2.11017e-06,-0.000317654,-5.2206e-05,-0.0150708,21.0342,21.4078,0.270444,10.6082,21.4471,21.0346,0.230773,21.0131,213,18.6108,5.95922,0.35,13204
-8.17882e-07,1.03988e-07,-2.09134e-06,-0.00029177,-3.98003e-05,-0.0151363,21.026,21.3806,0.13368,10.7123,21.4701,21.0245,0.0456243,21.2052,213,18.9047,6.81528,0.35,13205
-1.0847e-06,1.28808e-07,-1.99524e-06,-0.000475002,-4.91852e-05,-0.0150365,20.6158,21.215,0.121799,11.1956,21.8643,20.6153,-0.527006,21.7937,213,19.5523,6.33264,0.35,13206
1.0841e-06,1.26617e-07,-2.00148e-06,-0.000471653,-4.89077e-05,-0.0151736,20.4013,20.9963,-0.290324,11.2482,21.6015,20.4006,-0.894855,21.9206,213,0.547658,6.33264,0.35,13207
7.17931e-07,1.41973e-07,-2.1168e-06,-0.000322147,-5.28571e-05,-0.0150816,21.0018,21.3808,0.229181,10.6178,21.4227,21.002,0.187077,21.0284,213,1.48925,5.95922,0.35,13208
8.22558e-07,1.02796e-07,-2.09792e-06,-0.000313554,-3.72244e-05,-0.0151693,20.9097,21.2986,0.00161693,10.75,21.4001,20.9097,-0.0998854,21.259,213,1.19532,6.81528,0.35,13209
1.68567e-07,-3.47656e-07,-2.10269e-06,-6.14592e-05,-0.00013161,-0.0152798,21.342,21.2432,-0.0764098,10.7158,21.3496,21.2411,-0.0819435,21.3775,213,5.25615,17.2547,0.35,13210
-2.9248e-08,-2.87698e-08,-2.09948e-06,-2.83713e-05,-2.55248e-05,-0.0153341,21.5278,21.5318,-0.013636,10.7728,21.5319,21.5277,-0.0136505,21.5435,213,11.0632,11.519,0.35,13211
-1.39905e-08,-5.45781e-09,-2.09954e-06,-2.82569e-05,-2.52704e-05,-0.0153332,21.5301,21.5343,-0.0102312,10.7723,21.5343,21.5301,-0.0102349,21.5424,213,10.5339,10.5968,0.35,13212
-7.88233e-08,-6.81234e-08,-2.09823e-06,-3.83706e-05,-3.35099e-05,-0.0153216,21.5048,21.5116,-0.00500868,10.7586,21.5121,21.5044,-0.00508757,21.5133,213,12.594,12.8636,0.35,13213
-6.44638e-08,-4.1245e-08,-2.09892e-06,-3.60892e-05,-2.81008e-05,-0.015329,21.5085,21.5198,-0.0148235,10.7674,21.5199,21.5084,-0.0148625,21.529,213,12.176,11.9817,0.35,13214
-4.11174e-08,-5.37378e-08,-2.09918e-06,-3.03423e-05,-3.1448e-05,-0.015329,21.5206,21.519,-0.0107935,10.7659,21.5209,21.5187,-0.010818,21.5306,213,11.4813,12.4009,0.35,13215
-5.35769e-08,-8.36575e-08,-2.09811e-06,-3.21596e-05,-3.73741e-05,-0.0153225,21.5159,21.5085,-0.00392862,10.7601,21.5162,21.5083,-0.00398666,21.5162,213,11.8993,13.2829,0.35,13216
4.21059e-07,3.31028e-09,-2.08988e-06,-0.000139335,-2.27964e-05,-0.0153216,21.2145,21.3785,-0.153129,10.7692,21.3819,21.2145,-0.156538,21.4552,213,3.08518,10.1709,0.35,13217
2.98381e-07,1.20817e-08,-2.07998e-06,-9.84751e-05,-2.31308e-05,-0.0152155,21.5127,21.6187,0.236831,10.6922,21.62,21.5127,0.235559,21.331,213,4.13582,9.83322,0.35,13218
3.42093e-07,2.85989e-08,-2.08252e-06,-0.000111812,-2.51879e-05,-0.0152742,21.3723,21.4942,0.0326354,10.7326,21.4961,21.3722,0.0308045,21.4036,213,3.70591,9.14074,0.35,13219
4.84087e-07,1.98134e-08,-2.10272e-06,-0.000152316,-2.51744e-05,-0.015359,21.1096,21.2885,-0.292459,10.7936,21.2917,21.1096,-0.295603,21.4968,213,2.65527,9.47841,0.35,13220
2.38549e-07,8.11408e-08,-2.08807e-06,-8.07897e-05,-3.57939e-05,-0.0152778,21.4437,21.507,0.055338,10.7262,21.5075,21.4435,0.0550095,21.4206,213,4.69563,7.40844,0.35,13221
9.3531e-08,-1.0824e-07,-2.09594e-06,-4.26096e-05,-4.31155e-05,-0.0152998,21.5119,21.5112,0.0387823,10.738,21.5147,21.5085,0.0386708,21.4729,213,7.08684,13.9275,0.35,13222
1.55248e-07,-9.76325e-08,-2.09499e-06,-5.70516e-05,-3.92501e-05,-0.0153034,21.4682,21.4933,0.0103579,10.7419,21.4939,21.4678,0.010155,21.4707,213,5.84897,13.7254,0.35,13223
1.22858e-07,-1.32438e-07,-2.0941e-06,-4.95149e-05,-5.15375e-05,-0.0152894,21.494,21.4912,0.0452432,10.7259,21.4968,21.4886,0.0450414,21.4477,213,6.41097,14.4695,0.35,13224
-1.11478e-07,9.55073e-07,-1.84813e-06,-4.37885e-05,-0.000553696,-0.015183,20.8617,20.144,-0.445427,11.2132,21.4214,20.144,-1.00509,21.8158,213,13.588,0.712826,0.3375,13225
-1.13089e-07,1.11865e-06,-2.22328e-06,-3.80266e-05,-0.000690527,-0.0149977,20.9589,20.0406,-0.0953859,11.3076,21.7394,20.0406,-0.875857,21.8155,213,13.588,0.712826,0.3625,13226
-6.67057e-08,2.87284e-07,-2.08844e-06,-3.40114e-05,-0.000100679,-0.0152796,21.4768,21.3829,0.0200087,10.729,21.4775,21.3828,0.0194428,21.4108,213,12.4064,4.17974,0.35,13227
-3.96366e-08,2.85384e-07,-2.08739e-06,-2.83724e-05,-9.97977e-05,-0.0152791,21.4963,21.3958,0.0323666,10.7326,21.4969,21.3958,0.0317833,21.4147,213,11.5391,4.21949,0.35,13228
8.92236e-08,3.93123e-07,-2.08919e-06,-3.8478e-05,-0.000125915,-0.0152846,21.4135,21.2904,-0.0441,10.7301,21.4149,21.2904,-0.0454305,21.3983,213,7.05697,3.22197,0.35,13229
4.74705e-08,2.08002e-07,-2.09126e-06,-2.97486e-05,-7.19376e-05,-0.0152903,21.5194,21.46,0.0415881,10.7393,21.5198,21.4599,0.0412772,21.4486,213,8.32648,5.14147,0.35,13230
-1.04068e-07,-7.12937e-07,-2.10003e-06,-3.61998e-05,-0.000391972,-0.0152985,20.9608,20.4601,-0.519417,11.3995,21.6202,20.46,-1.17872,22.2415,213,14.048,18.7974,0.35,13231
-9.02818e-08,-8.16637e-07,-2.28433e-06,-2.96245e-05,-0.000636534,-0.0149558,21.142,20.2878,0.134795,11.4168,22.0552,20.2878,-0.778391,22.0032,213,13.5867,18.7974,0.3625,13232
-8.83892e-08,-6.45981e-07,-1.90917e-06,-3.66801e-05,-0.000482531,-0.0152072,20.9606,20.3331,-0.390525,11.3223,21.6074,20.3329,-1.03715,22.035,213,13.5867,18.7974,0.3375,13233
-8.9657e-08,-5.09062e-07,-2.12417e-06,-3.59776e-05,-0.000178264,-0.0152892,21.3276,21.1273,-0.139981,10.7954,21.3896,21.1266,-0.201202,21.4605,213,13.4325,18.0948,0.35,13234
8.33368e-08,6.90548e-08,-2.09841e-06,-3.8462e-05,-3.43347e-05,-0.0153306,21.4884,21.4943,-0.0337773,10.7643,21.4946,21.4881,-0.0338567,21.5252,213,7.40427,7.8703,0.35,13235
1.03841e-07,1.10142e-07,-2.09679e-06,-4.29908e-05,-4.32321e-05,-0.0153229,21.4726,21.4722,-0.0325422,10.7539,21.4751,21.4699,-0.032699,21.5052,213,6.8729,6.78832,0.35,13236
6.91362e-08,1.05308e-07,-2.09779e-06,-3.62815e-05,-4.20699e-05,-0.0153247,21.4921,21.484,-0.0248735,10.7588,21.4925,21.4837,-0.0249786,21.5131,213,7.75713,6.92511,0.35,13237
-6.31137e-08,3.52783e-08,-2.09851e-06,-3.35297e-05,-2.62212e-05,-0.0153266,21.5234,21.5337,-0.000137303,10.767,21.5338,21.5233,-0.000186988,21.5288,213,12.1199,9.01285,0.35,13238
4.37371e-07,1.83559e-07,-2.08818e-06,-0.000159322,-6.29209e-05,-0.0152591,21.1904,21.326,-0.0611542,10.698,21.3306,21.1901,-0.0654677,21.3262,213,2.82458,5.18998,0.35,13239
-1.8093e-07,-1.80573e-07,-2.08512e-06,-6.59322e-05,-6.18747e-05,-0.0152826,21.4382,21.4439,0.0220604,10.7138,21.4494,21.4331,0.0217254,21.4195,213,14.7805,15.358,0.35,13240
6.439e-08,3.67971e-08,-2.09911e-06,-3.34677e-05,-2.69776e-05,-0.0153313,21.5145,21.5237,-0.0157947,10.7698,21.5238,21.5144,-0.0158352,21.535,213,7.93564,8.95228,0.35,13241
3.07359e-07,1.81166e-07,-2.08006e-06,-9.94707e-05,-6.21794e-05,-0.015272,21.3528,21.4053,-0.00119072,10.7048,21.4074,21.3517,-0.00214634,21.3817,213,3.86597,5.2768,0.35,13242
-2.40203e-07,-1.45036e-07,-2.08555e-06,-8.58112e-05,-5.37312e-05,-0.0152799,21.3955,21.4406,0.0112178,10.7156,21.442,21.3946,0.0107402,21.4076,213,15.5073,14.7906,0.35,13243
1.05777e-07,1.59262e-07,-2.0947e-06,-4.36979e-05,-5.96926e-05,-0.0153008,21.4798,21.4573,0.00683507,10.737,21.4805,21.4568,0.00656264,21.4621,213,6.78256,5.82434,0.35,13244
7.32049e-08,7.26367e-07,-2.13151e-06,-3.26793e-05,-0.000299085,-0.015193,21.2972,20.9223,-0.0395213,10.7139,21.3428,20.9222,-0.0850126,21.2206,213,7.4812,1.52425,0.35,13245
9.54637e-08,5.3563e-07,-2.10406e-06,-3.81059e-05,-0.000192776,-0.0152653,21.3366,21.1189,-0.0942869,10.7263,21.3476,21.1187,-0.105067,21.3391,213,6.86088,2.32386,0.35,13246
1.03742e-07,7.50973e-07,-2.12537e-06,-3.43252e-05,-0.000266576,-0.0152895,21.1872,20.8604,-0.28293,10.8038,21.2589,20.8545,-0.348745,21.4083,213,6.6648,1.42575,0.35,13247
5.19879e-07,4.73624e-08,-2.11359e-06,-0.000183436,-2.68763e-05,-0.0153423,21.0393,21.2596,-0.295448,10.7832,21.2652,21.0393,-0.30108,21.4542,213,2.40417,8.41377,0.35,13248
3.91315e-07,4.65788e-08,-2.08903e-06,-0.000121983,-2.6968e-05,-0.0153441,21.2237,21.3574,-0.199961,10.7805,21.3593,21.2235,-0.201642,21.4934,213,3.276,8.44825,0.35,13249
-3.87959e-07,4.6424e-08,-2.09756e-06,-0.000119557,-2.71792e-05,-0.0154127,21.118,21.248,-0.405729,10.8283,21.2497,21.1176,-0.406952,21.5909,213,16.824,8.44825,0.35,13250
1.08476e-07,2.32064e-08,-2.09758e-06,-4.70808e-05,-2.52679e-05,-0.0153192,21.4957,21.5264,0.00153639,10.7625,21.5265,21.4957,0.0014542,21.5097,213,6.84322,9.43666,0.35,13251
1.67495e-07,1.08532e-08,-2.09246e-06,-6.1194e-05,-2.34845e-05,-0.0152927,21.4991,21.5522,0.0622178,10.7452,21.5524,21.4991,0.0620165,21.4638,213,5.75081,9.92104,0.35,13252
3.9904e-08,1.00275e-07,-2.09806e-06,-2.98892e-05,-4.12557e-05,-0.0153237,21.5145,21.4985,-0.0101157,10.7624,21.5146,21.4984,-0.0101815,21.5167,213,8.64136,7.06189,0.35,13253
4.40305e-08,1.46785e-07,-2.09563e-06,-2.98004e-05,-5.62559e-05,-0.0153052,21.5206,21.4834,0.021936,10.7495,21.5208,21.4833,0.0217786,21.4803,213,8.48392,6.10168,0.35,13254
3.85557e-08,5.15556e-07,-2.10742e-06,-2.77379e-05,-0.000191836,-0.0151751,21.5179,21.2869,0.199437,10.6682,21.5268,21.2869,0.190455,21.2175,213,8.54443,2.46219,0.35,13255
6.63668e-08,5.20639e-07,-2.10816e-06,-3.46778e-05,-0.000197837,-0.0151743,21.4881,21.2585,0.180498,10.6625,21.4968,21.2585,0.171825,21.2068,213,7.67729,2.42237,0.35,13256
-4.892e-07,3.34661e-07,-2.09251e-06,-0.000192127,-0.000104904,-0.0152083,21.1048,21.2276,-0.0290111,10.6375,21.2375,21.1033,-0.0374262,21.2082,213,17.7471,3.43043,0.35,13257
-6.64533e-07,2.50598e-07,-2.1214e-06,-0.000190847,-8.63329e-05,-0.0152129,21.1316,21.2787,-0.0105951,10.6708,21.3046,21.1321,-0.0370301,21.2559,213,18.5027,4.27402,0.35,13258
-7.03252e-07,3.29787e-07,-2.11568e-06,-0.000216048,-0.00010406,-0.0151638,21.1062,21.2638,0.068598,10.6455,21.3117,21.1062,0.0207014,21.189,213,18.6887,3.44488,0.35,13259
-5.5424e-08,-2.67983e-07,-2.09406e-06,-3.11509e-05,-8.66083e-05,-0.0153057,21.4657,21.3876,-0.0319141,10.7498,21.4668,21.3874,-0.0328562,21.4601,213,12.1453,16.3665,0.35,13260
-6.37031e-08,-2.09214e-07,-2.09252e-06,-3.3302e-05,-7.41048e-05,-0.0153168,21.4616,21.4041,-0.0484701,10.7556,21.4623,21.4039,-0.0489069,21.482,213,12.3414,15.6561,0.35,13261
-3.88464e-08,-2.09441e-07,-2.09273e-06,-2.83827e-05,-7.3803e-05,-0.0153183,21.4745,21.4106,-0.0446822,10.7601,21.475,21.4105,-0.0451418,21.488,213,11.5298,15.6408,0.35,13262
8.16557e-10,4.09883e-08,-2.09928e-06,-2.71686e-05,-2.85486e-05,-0.0153308,21.532,21.5301,-0.00636308,10.7692,21.532,21.5301,-0.00638632,21.5374,213,10.0268,8.82834,0.35,13263
3.07063e-10,6.6656e-08,-2.09895e-06,-2.71544e-05,-3.23991e-05,-0.0153301,21.5268,21.5194,-0.0107071,10.7688,21.5268,21.5194,-0.0107348,21.5338,213,10.049,7.98216,0.35,13264
3.05543e-08,5.11525e-08,-2.09922e-06,-3.0354e-05,-2.95046e-05,-0.0153303,21.5216,21.5228,-0.011619,10.7673,21.523,21.5214,-0.0116629,21.5339,213,8.99232,8.46722,0.35,13265
-3.60492e-08,9.92358e-07,-2.05302e-06,-2.87813e-05,-0.00043174,-0.0152617,20.9785,20.4114,-0.460436,11.1441,21.4033,20.4112,-0.884979,21.8091,213,11.3876,0.811382,0.35,13266
3.55189e-08,9.92658e-07,-2.04638e-06,-2.70172e-05,-0.000426676,-0.0153126,20.9086,20.3462,-0.604393,11.1766,21.3288,20.3461,-1.02446,21.8785,213,8.71244,0.811382,0.35,13267
3.54247e-10,-1.80486e-07,-2.0912e-06,-2.50759e-05,-6.36211e-05,-0.0152876,21.5517,21.4975,0.0711076,10.7404,21.5518,21.4975,0.0709805,21.4537,213,10.0512,15.2034,0.35,13268
-1.57705e-08,3.22197e-07,-2.08338e-06,-2.65715e-05,-0.000107402,-0.0152731,21.4991,21.3853,0.0410375,10.7297,21.4997,21.3853,0.0403802,21.4024,213,10.6791,3.87002,0.35,13269
4.90925e-10,2.67297e-07,-2.08521e-06,-2.51354e-05,-8.61074e-05,-0.0152405,21.5919,21.5061,0.177658,10.7073,21.5921,21.5061,0.177451,21.3718,213,10.05,4.43898,0.35,13270
1.12019e-09,3.93972e-07,-2.0816e-06,-2.51901e-05,-0.000137721,-0.015296,21.416,21.2576,-0.0762318,10.7488,21.4187,21.2576,-0.0789229,21.4175,213,10.05,3.28128,0.35,13271
1.61415e-08,4.73871e-07,-2.08954e-06,-2.35483e-05,-0.000161416,-0.0153284,21.3289,21.1348,-0.211287,10.774,21.3328,21.1347,-0.215164,21.4496,213,9.42062,2.7126,0.35,13272
-1.07845e-06,-4.99152e-08,-2.01393e-06,-0.000469405,-3.04631e-05,-0.0150668,20.6138,21.2316,0.069345,11.2225,21.8729,20.6139,-0.572089,21.8427,213,19.5021,12.1311,0.35,13273
-7.09109e-08,-1.47961e-07,-2.09396e-06,-3.58607e-05,-5.41621e-05,-0.0153117,21.4948,21.4691,-0.00445354,10.75,21.4953,21.4688,-0.00464658,21.4867,213,12.48,14.7079,0.35,13274
-4.597e-08,-1.61816e-07,-2.09361e-06,-2.97497e-05,-5.87087e-05,-0.0153184,21.4949,21.4542,-0.0224803,10.7589,21.4952,21.4541,-0.0226718,21.4973,213,11.7258,14.9304,0.35,13275
1.29523e-07,-8.328e-11,-2.09626e-06,-5.19902e-05,-2.3917e-05,-0.0153098,21.4984,21.5379,0.0244274,10.7569,21.538,21.4984,0.0243036,21.4939,213,6.42204,10.3774,0.35,13276
2.31829e-08,1.74907e-07,-2.0936e-06,-2.8001e-05,-6.33771e-05,-0.0152911,21.5374,21.4876,0.0559593,10.741,21.5377,21.4876,0.055708,21.457,213,9.18701,5.63775,0.35,13277
1.93383e-08,1.21799e-07,-2.09696e-06,-2.81085e-05,-4.78654e-05,-0.0153151,21.5232,21.4954,0.00818844,10.7576,21.5233,21.4954,0.00808579,21.5013,213,9.34445,6.59796,0.35,13278
3.87067e-14,1.45637e-07,-2.09632e-06,-2.63179e-05,-5.41633e-05,-0.0153126,21.5224,21.4832,0.0083238,10.7572,21.5226,21.4832,0.00815257,21.4948,213,10.0475,6.13403,0.35,13279
-2.36357e-07,2.27049e-07,-2.08356e-06,-8.32653e-05,-8.09735e-05,-0.0152348,21.4325,21.4358,0.10819,10.6682,21.444,21.4249,0.107588,21.3269,213,15.5232,4.70075,0.35,13280
-1.80053e-07,2.83509e-07,-2.08076e-06,-6.36417e-05,-9.67712e-05,-0.0151918,21.537,21.4903,0.245439,10.647,21.5388,21.4891,0.244839,21.2692,213,14.8124,4.1247,0.35,13281
-7.42243e-08,2.15749e-07,-2.09174e-06,-3.67453e-05,-7.33751e-05,-0.0152783,21.5154,21.4638,0.064243,10.7259,21.5158,21.4637,0.0639829,21.4258,213,12.5886,4.99913,0.35,13282
-1.07207e-07,2.2412e-07,-2.09092e-06,-4.47142e-05,-7.68263e-05,-0.0152739,21.4927,21.4475,0.0590806,10.7173,21.4932,21.4473,0.0587329,21.4116,213,13.4072,4.86033,0.35,13283
-1.04711e-07,1.59463e-07,-2.09437e-06,-4.40621e-05,-5.92889e-05,-0.0153023,21.4768,21.4553,0.00219083,10.7377,21.4774,21.4549,0.00195596,21.4642,213,13.3041,5.81835,0.35,13284
5.94116e-07,-4.65057e-09,-2.12611e-06,-0.000145674,-1.91361e-05,-0.0153096,21.2209,21.399,-0.120934,10.7709,21.4099,21.2209,-0.131819,21.4478,213,2.03454,10.5086,0.35,13285
-4.17986e-07,3.50251e-09,-2.09883e-06,-0.000137063,-2.32743e-05,-0.0154101,21.0753,21.2355,-0.42004,10.8301,21.2379,21.0753,-0.422401,21.5794,213,17.0148,10.1708,0.35,13286
6.55124e-08,-4.91446e-07,-2.12304e-06,-3.06076e-05,-0.000222018,-0.015324,21.215,20.9456,-0.308977,10.7971,21.2503,20.9451,-0.343803,21.4431,213,7.38394,18.0147,0.35,13287
9.01735e-08,-5.21395e-07,-2.12175e-06,-3.57966e-05,-0.000200851,-0.0152972,21.278,21.0457,-0.201001,10.8062,21.3451,21.0448,-0.267226,21.4638,213,6.61232,18.1567,0.35,13288
7.52988e-08,-7.4535e-07,-2.09211e-06,-3.14479e-05,-0.000410874,-0.0152234,21.0676,20.5336,-0.313596,11.4571,21.8341,20.5336,-1.0801,22.2924,213,6.94707,18.8284,0.35,13289
-6.5852e-08,5.22507e-07,-2.09912e-06,-3.26532e-05,-0.000190365,-0.0152766,21.3386,21.1166,-0.115911,10.7347,21.3461,21.1165,-0.123277,21.3555,213,12.4226,2.42216,0.35,13290
-7.19799e-08,7.2215e-07,-2.12364e-06,-3.22314e-05,-0.000304582,-0.0152446,21.2049,20.8216,-0.205114,10.7515,21.2514,20.8215,-0.251554,21.2913,213,12.6188,1.52421,0.35,13291
-1.03321e-07,-3.12392e-08,-2.09741e-06,-4.3299e-05,-2.71416e-05,-0.0153211,21.5011,21.5239,-0.000905283,10.7625,21.524,21.501,-0.000979625,21.5135,213,13.1477,11.639,0.35,13292
2.36956e-07,2.26839e-07,-2.08494e-06,-8.38007e-05,-7.99384e-05,-0.015255,21.3993,21.4048,0.0471882,10.6828,21.4122,21.3926,0.0465239,21.3559,213,4.57664,4.70087,0.35,13293
-9.40392e-08,1.03704e-06,-2.03565e-06,-3.83367e-05,-0.000460885,-0.0151483,21.0877,20.493,-0.178201,11.241,21.6959,20.4929,-0.786228,21.9054,213,13.1267,0.712826,0.35,13294
1.19938e-07,-7.54295e-08,-2.0969e-06,-4.86531e-05,-3.4609e-05,-0.0153155,21.4817,21.5015,-0.00487563,10.7534,21.5019,21.4815,-0.00501205,21.4967,213,6.54565,13.1056,0.35,13295
9.61998e-08,1.02855e-06,-2.0367e-06,-3.80948e-05,-0.000452598,-0.0152976,20.8569,20.2735,-0.619509,11.2753,21.3939,20.2737,-1.1567,22.0119,213,6.97331,0.712873,0.35,13296
-8.18773e-08,6.8249e-08,-2.09792e-06,-3.84249e-05,-3.42632e-05,-0.0153264,21.4955,21.5014,-0.020865,10.7614,21.5019,21.4951,-0.0209331,21.5194,213,12.6604,7.89461,0.35,13297
-1.17465e-07,7.77573e-08,-2.09607e-06,-4.81225e-05,-3.61681e-05,-0.0153108,21.4884,21.5052,0.00753425,10.7492,21.5058,21.488,0.00740485,21.4895,213,13.4949,7.58427,0.35,13298
-1.08148e-07,2.28165e-08,-2.09589e-06,-4.77357e-05,-2.4928e-05,-0.015307,21.5143,21.5464,0.0382352,10.7542,21.5465,21.5143,0.0381288,21.4923,213,13.2338,9.46505,0.35,13299
-1.30481e-07,3.6682e-10,-2.09394e-06,-5.29342e-05,-2.40012e-05,-0.0152961,21.5179,21.5586,0.0645866,10.7472,21.5588,21.5179,0.0644016,21.474,213,13.6773,10.3755,0.35,13300
-1.07578e-06,-8.20926e-08,-2.00523e-06,-0.000463479,-4.01147e-05,-0.0149946,20.7346,21.3305,0.283457,11.0831,21.8902,20.7344,-0.27604,21.6115,213,19.5021,13.1061,0.35,13301
-6.80442e-07,-1.7204e-07,-2.11955e-06,-0.00017864,-6.33762e-05,-0.0152139,21.2048,21.367,0.0440271,10.6927,21.3987,21.2037,0.0133605,21.2885,213,18.5027,15.226,0.35,13302
-7.54576e-08,-7.23546e-07,-2.09987e-06,-3.11252e-05,-0.000384473,-0.0153498,20.9044,20.4071,-0.655195,11.395,21.5195,20.4073,-1.27049,22.2548,213,13.1253,18.7974,0.35,13303
6.80198e-07,-1.72837e-07,-2.11712e-06,-0.000177615,-6.31123e-05,-0.0152099,21.2151,21.3762,0.0585785,10.6904,21.4084,21.214,0.0275054,21.2843,213,1.59727,15.226,0.35,13304
1.35991e-07,6.21023e-07,-2.12135e-06,-4.82653e-05,-0.000190069,-0.0152023,21.4135,21.214,0.0857111,10.6891,21.4425,21.2063,0.0644129,21.261,213,5.95801,1.85487,0.35,13305
-8.65473e-08,-3.65393e-07,-2.10633e-06,-3.80078e-05,-0.000152824,-0.0152433,21.4385,21.2769,0.038465,10.7085,21.4472,21.2764,0.0302459,21.3321,213,13.1947,17.2383,0.35,13306
1.8983e-08,3.03451e-09,-2.09957e-06,-2.93036e-05,-2.50232e-05,-0.0153326,21.5283,21.5343,-0.00971709,10.772,21.5343,21.5283,-0.00972152,21.541,213,9.38706,10.2531,0.35,13307
1.29575e-09,1.79324e-08,-2.0995e-06,-2.76479e-05,-2.59937e-05,-0.0153309,21.5345,21.5369,-0.00343279,10.7702,21.5369,21.5345,-0.00343624,21.5391,213,10.0046,9.67452,0.35,13308
1.27124e-07,4.55845e-07,-2.08715e-06,-4.94592e-05,-0.000145449,-0.0152915,21.3366,21.2015,-0.115255,10.7284,21.3392,21.2013,-0.117656,21.3882,213,6.1541,2.75298,0.35,13309
-3.01033e-07,1.18505e-08,-2.08125e-06,-9.47607e-05,-2.358e-05,-0.0152018,21.5459,21.6461,0.284196,10.6844,21.6495,21.5459,0.280776,21.3171,213,15.964,9.83306,0.35,13310
1.29197e-07,3.34772e-07,-2.08178e-06,-4.99996e-05,-0.000112896,-0.0152934,21.3853,21.2968,-0.0684186,10.7278,21.3864,21.2965,-0.0691857,21.4108,213,6.17213,3.67346,0.35,13311
3.6085e-09,-2.01576e-08,-2.09962e-06,-2.92355e-05,-2.5059e-05,-0.0153337,21.5267,21.5326,-0.0128451,10.7727,21.5326,21.5267,-0.0128497,21.5425,213,9.91635,11.1754,0.35,13312
3.25271e-08,-3.31368e-08,-2.09958e-06,-2.91171e-05,-2.75464e-05,-0.0153328,21.5244,21.5267,-0.0140651,10.7705,21.5269,21.5242,-0.0140821,21.5396,213,8.92019,11.6713,0.35,13313
3.75203e-08,-1.13171e-08,-2.09956e-06,-2.96571e-05,-2.45022e-05,-0.0153326,21.5282,21.5354,-0.00925638,10.7724,21.5354,21.5282,-0.00927723,21.5411,213,8.76949,10.8317,0.35,13314
1.46551e-07,-5.61832e-07,-2.11924e-06,-5.53127e-05,-0.00025396,-0.0153178,21.0974,20.8178,-0.383213,10.9684,21.3258,20.8171,-0.610947,21.6869,213,5.34626,18.3773,0.35,13315
1.24609e-07,-4.26174e-07,-2.11813e-06,-4.91872e-05,-0.000162633,-0.0152915,21.3092,21.1495,-0.143026,10.7403,21.324,21.1483,-0.156623,21.3933,213,5.93424,17.7057,0.35,13316
7.30449e-08,1.53024e-07,-2.09562e-06,-3.66485e-05,-5.74302e-05,-0.0153084,21.4925,21.4632,-0.00108368,10.7471,21.4929,21.463,-0.00130659,21.4793,213,7.59969,5.9649,0.35,13317
2.22678e-07,-1.06471e-07,-2.09091e-06,-8.12588e-05,-4.13573e-05,-0.0152975,21.4008,21.4569,-0.014645,10.7363,21.4575,21.4006,-0.0150137,21.4441,213,4.85747,13.9743,0.35,13318
-2.97747e-08,-9.00067e-08,-2.09793e-06,-2.94833e-05,-3.86122e-05,-0.0153214,21.5239,21.5111,0.00204501,10.761,21.524,21.511,0.00198593,21.5155,213,11.1252,13.431,0.35,13319
-1.83351e-08,-5.87889e-08,-2.09913e-06,-2.80273e-05,-3.27614e-05,-0.0153292,21.5251,21.5185,-0.00980792,10.7675,21.5252,21.5184,-0.00982913,21.5316,213,10.7071,12.5491,0.35,13320
-7.58465e-08,-1.07664e-07,-2.09668e-06,-3.73742e-05,-4.38561e-05,-0.0153133,21.5046,21.4954,0.00517608,10.7501,21.5053,21.4949,0.00504457,21.495,213,12.5667,13.8841,0.35,13321
9.23963e-08,-2.27483e-07,-2.09149e-06,-3.99493e-05,-8.04564e-05,-0.0153198,21.4258,21.3688,-0.0791841,10.7534,21.4269,21.3684,-0.0798582,21.4776,213,6.95235,15.9351,0.35,13322
9.43656e-08,-1.75849e-07,-2.0916e-06,-4.12458e-05,-6.32681e-05,-0.0152997,21.4832,21.4522,0.00833912,10.7378,21.4838,21.4517,0.0081628,21.4596,213,6.97297,15.2137,0.35,13323
1.31512e-07,-1.83873e-07,-2.08958e-06,-5.24423e-05,-6.5274e-05,-0.0153055,21.4362,21.4181,-0.0310612,10.7348,21.4381,21.4166,-0.0314179,21.4588,213,6.16318,15.3587,0.35,13324
1.28588e-07,-2.37319e-07,-2.08802e-06,-5.1355e-05,-8.31256e-05,-0.0153013,21.4171,21.3724,-0.045777,10.7331,21.4193,21.3713,-0.0469403,21.4423,213,6.14256,16.0802,0.35,13325
-1.08272e-07,-5.42716e-08,-2.09738e-06,-4.45188e-05,-2.97882e-05,-0.0153179,21.4982,21.519,0.00235668,10.7585,21.5193,21.498,0.00224299,21.5064,213,13.2888,12.4443,0.35,13326
-1.51472e-07,3.01515e-08,-2.09128e-06,-5.76349e-05,-2.61163e-05,-0.0152853,21.5177,21.5621,0.0861515,10.7383,21.5624,21.5176,0.0858778,21.4542,213,14.0683,9.15471,0.35,13327
-1.69076e-07,1.11567e-08,-2.08888e-06,-6.25033e-05,-2.33749e-05,-0.0152689,21.5344,21.5895,0.132881,10.7287,21.5899,21.5344,0.132484,21.4297,213,14.3478,9.91725,0.35,13328
-2.96902e-08,5.03503e-08,-2.09904e-06,-3.06662e-05,-2.93144e-05,-0.0153294,21.5224,21.5243,-0.00912971,10.7668,21.5245,21.5223,-0.00916865,21.5325,213,11.0844,8.49751,0.35,13329
1.24778e-07,-3.20236e-07,-2.09919e-06,-5.00851e-05,-0.000116796,-0.015276,21.4071,21.3133,-0.0219819,10.7193,21.4128,21.3115,-0.025852,21.3882,213,6.09394,16.9556,0.35,13330
9.01065e-08,-2.92888e-07,-2.09738e-06,-3.87298e-05,-0.000105449,-0.0152774,21.4582,21.3643,0.0111221,10.7259,21.4608,21.3639,0.00894851,21.4036,213,6.93173,16.6565,0.35,13331
1.67073e-07,-1.38289e-07,-2.09116e-06,-6.07542e-05,-5.37765e-05,-0.0152896,21.4557,21.4656,0.0224972,10.723,21.4681,21.4535,0.0222065,21.4386,213,5.60118,14.6146,0.35,13332
-7.11584e-07,-9.16808e-08,-2.11406e-06,-0.000311371,-4.16209e-05,-0.015179,20.8932,21.2729,-0.0315297,10.692,21.3124,20.8937,-0.0715255,21.1777,213,18.5605,13.4796,0.35,13333
-7.95275e-07,-5.87644e-08,-2.1033e-06,-0.000304679,-3.20432e-05,-0.0150152,21.1982,21.5819,0.494434,10.6317,21.6699,21.1982,0.406472,21.0315,213,18.8042,12.5623,0.35,13334
-4.45196e-07,4.31662e-07,-2.08369e-06,-0.000162267,-0.000154772,-0.0151982,21.1305,21.141,-0.03123,10.6003,21.1602,21.1205,-0.0403987,21.1808,213,17.5552,2.67053,0.35,13335
-5.71997e-07,5.47346e-07,-2.14869e-06,-0.000232411,-0.000224502,-0.0150806,20.9952,21.0064,0.0977856,10.5221,21.0838,20.9759,0.0396745,20.9904,213,18.3048,1.92508,0.35,13336
-6.281e-07,4.20489e-07,-2.12522e-06,-0.000283025,-0.000134134,-0.0151697,20.8429,21.0525,-0.108767,10.6206,21.0921,20.8436,-0.149052,21.118,213,18.4967,2.68498,0.35,13337
4.52638e-07,-2.89555e-07,-2.10394e-06,-0.000160891,-9.8802e-05,-0.0152443,21.151,21.2384,-0.0774663,10.6639,21.2451,21.1496,-0.0827978,21.2803,213,2.54485,16.8295,0.35,13338
5.17178e-07,-2.84598e-08,-2.106e-06,-0.000165784,-2.52182e-05,-0.0153758,21.0408,21.2386,-0.365942,10.8046,21.2409,21.0408,-0.368255,21.5098,213,2.4478,11.5323,0.35,13339
6.802e-07,-2.89323e-08,-2.13437e-06,-0.00020519,-2.7697e-05,-0.0151741,21.2479,21.4977,0.180578,10.6845,21.5246,21.2459,0.155675,21.2309,213,1.66515,11.5354,0.35,13340
-1.04991e-07,-8.92603e-08,-2.09688e-06,-4.40696e-05,-3.95395e-05,-0.0153089,21.4983,21.5047,0.0144476,10.7457,21.5058,21.4973,0.0143091,21.4873,213,13.2615,13.4648,0.35,13341
-2.6575e-08,-1.26218e-07,-2.09593e-06,-2.85574e-05,-4.91716e-05,-0.0153156,21.5189,21.4898,0.00375358,10.7577,21.519,21.4898,0.00364372,21.5008,213,11.0384,14.2548,0.35,13342
-4.985e-08,-1.18602e-07,-2.0963e-06,-3.08681e-05,-4.73585e-05,-0.0153164,21.5134,21.4902,0.000444038,10.7566,21.5136,21.4901,0.000334897,21.5015,213,11.8126,14.1066,0.35,13343
-1.74717e-07,2.15587e-07,-2.08907e-06,-6.27795e-05,-7.81239e-05,-0.0152624,21.4544,21.4328,0.0623999,10.6971,21.4562,21.4314,0.0620034,21.3818,213,14.6742,4.90714,0.35,13344
-1.68611e-07,1.63168e-07,-2.09233e-06,-6.12725e-05,-5.77786e-05,-0.0152974,21.4349,21.4398,-0.00853306,10.7258,21.4428,21.4323,-0.00889497,21.4464,213,14.5361,5.68958,0.35,13345
6.1708e-08,-3.25986e-08,-2.09943e-06,-3.46789e-05,-2.73162e-05,-0.0153336,21.5066,21.5169,-0.0252115,10.7711,21.517,21.5066,-0.0252436,21.537,213,8.00591,11.6587,0.35,13346
5.59516e-08,-5.68868e-08,-2.09896e-06,-3.40139e-05,-3.04143e-05,-0.0153324,21.5055,21.5106,-0.0255125,10.7682,21.5108,21.5054,-0.0255555,21.5336,213,8.15661,12.4983,0.35,13347
2.7501e-08,-5.77459e-08,-2.0991e-06,-2.8454e-05,-3.11974e-05,-0.0153299,21.5251,21.5213,-0.0102999,10.7677,21.5252,21.5213,-0.0103279,21.5335,213,9.07089,12.5109,0.35,13348
2.44425e-07,-8.17314e-09,-2.08564e-06,-8.61836e-05,-2.37669e-05,-0.0152429,21.5042,21.592,0.172502,10.7103,21.5926,21.5042,0.171925,21.3766,213,4.70378,10.7169,0.35,13349
2.64068e-07,-2.55266e-08,-2.08673e-06,-9.19589e-05,-2.41707e-05,-0.0152697,21.442,21.5374,0.0807329,10.7289,21.5379,21.442,0.080232,21.4099,213,4.46345,11.44,0.35,13350
1.9853e-07,-2.9594e-08,-2.09264e-06,-6.97028e-05,-2.50038e-05,-0.0152901,21.4749,21.5378,0.0535596,10.7425,21.5382,21.4749,0.0532199,21.4534,213,5.27175,11.6005,0.35,13351
-6.07886e-08,-3.50995e-07,-2.10331e-06,-3.02266e-05,-0.000139679,-0.0152562,21.4628,21.3087,0.0336815,10.7196,21.468,21.3084,0.0287658,21.3599,213,12.421,17.1228,0.35,13352
9.00275e-08,-5.59839e-08,-2.09842e-06,-4.00237e-05,-3.02925e-05,-0.0153261,21.4977,21.5114,-0.0160601,10.7639,21.5116,21.4976,-0.0161493,21.5207,213,7.24233,12.4858,0.35,13353
-1.46602e-07,-2.05121e-08,-2.0938e-06,-5.76072e-05,-2.46307e-05,-0.0153085,21.4822,21.5287,0.0180255,10.7556,21.529,21.4821,0.0178234,21.4878,213,13.9922,11.2347,0.35,13354
-1.5272e-07,-4.17774e-08,-2.09494e-06,-5.82027e-05,-2.78154e-05,-0.0153115,21.4703,21.513,0.00267802,10.7554,21.5133,21.4702,0.00247934,21.4893,213,14.1332,12.0401,0.35,13355
-2.09062e-07,-3.0811e-08,-2.09042e-06,-7.1275e-05,-2.50137e-05,-0.0152994,21.455,21.5201,0.0228472,10.7491,21.5207,21.4548,0.0224641,21.4654,213,14.9777,11.6358,0.35,13356
-2.38389e-07,-4.67771e-08,-2.0916e-06,-8.08713e-05,-2.82909e-05,-0.0152983,21.422,21.496,0.00491036,10.7458,21.4963,21.422,0.00462175,21.4546,213,15.3935,12.2333,0.35,13357
-1.91601e-07,-5.81517e-08,-2.09418e-06,-6.69436e-05,-3.14129e-05,-0.015311,21.4386,21.4886,-0.015922,10.7526,21.489,21.4385,-0.0161669,21.4799,213,14.7812,12.6097,0.35,13358
-1.27071e-07,4.55509e-07,-2.08697e-06,-4.87596e-05,-0.000146081,-0.0153127,21.3029,21.1659,-0.179759,10.744,21.3057,21.1657,-0.182353,21.4184,213,13.9457,2.75275,0.35,13359
-1.2867e-07,3.3628e-07,-2.08057e-06,-5.01011e-05,-0.000113842,-0.015275,21.4136,21.3239,-0.0140274,10.715,21.4149,21.3236,-0.0150148,21.3844,213,13.9276,3.67312,0.35,13360
-8.89966e-08,3.94747e-07,-2.08753e-06,-3.80778e-05,-0.000124682,-0.0153186,21.361,21.2391,-0.144925,10.7545,21.3625,21.239,-0.146424,21.4475,213,13.0428,3.22155,0.35,13361
-1.57306e-07,9.74448e-08,-2.09368e-06,-5.90563e-05,-4.07598e-05,-0.0153034,21.4597,21.4855,0.00471143,10.7408,21.4861,21.4593,0.00448059,21.4682,213,14.2685,7.03819,0.35,13362
-3.22053e-08,3.8971e-07,-2.08614e-06,-2.69199e-05,-0.00012417,-0.0152863,21.4488,21.312,-0.027298,10.7398,21.4505,21.312,-0.0290486,21.4107,213,11.3082,3.30105,0.35,13363
4.54935e-07,-1.31447e-08,-2.0957e-06,-0.000149218,-2.25741e-05,-0.0153539,21.1317,21.31,-0.267441,10.7917,21.313,21.1317,-0.270447,21.4934,213,2.84484,10.894,0.35,13364
6.49043e-08,-3.7041e-07,-2.10826e-06,-3.31079e-05,-0.000135999,-0.0152608,21.4525,21.3077,0.0209914,10.724,21.4609,21.3075,0.0128159,21.3718,213,7.54364,17.2645,0.35,13365
6.4384e-08,-2.66367e-07,-2.09394e-06,-3.36125e-05,-9.20059e-05,-0.0153064,21.4482,21.366,-0.0469516,10.7491,21.4498,21.3657,-0.0482826,21.4562,213,7.66888,16.3547,0.35,13366
-5.12427e-07,-2.84796e-08,-2.11386e-06,-0.000179538,-2.56831e-05,-0.015427,20.9141,21.1306,-0.545399,10.8394,21.132,20.9141,-0.546769,21.5706,213,17.6522,11.5323,0.35,13367
-2.30834e-08,1.74709e-07,-2.09539e-06,-2.78982e-05,-6.26721e-05,-0.0153098,21.5082,21.4593,0.000291189,10.7542,21.5084,21.4593,6.43525e-05,21.4838,213,10.9088,5.63598,0.35,13368
-1.89607e-07,-9.55122e-09,-2.08821e-06,-6.8227e-05,-2.43321e-05,-0.0152723,21.5098,21.5716,0.111492,10.7306,21.5721,21.5098,0.110959,21.4301,213,14.6627,10.7765,0.35,13369
1.32295e-10,1.98668e-07,-2.09271e-06,-2.55519e-05,-7.13678e-05,-0.0152833,21.5446,21.4801,0.0706696,10.7372,21.5449,21.4801,0.0704166,21.4421,213,10.0488,5.28651,0.35,13370
4.9137e-07,3.35372e-07,-2.09284e-06,-0.000197423,-0.000106619,-0.0152098,21.0833,21.2111,-0.0452931,10.6382,21.2214,21.0827,-0.0550574,21.2075,213,2.35292,3.43043,0.35,13371
4.45592e-07,4.31154e-07,-2.08207e-06,-0.000161315,-0.000149144,-0.0152168,21.1121,21.1293,-0.0770428,10.6143,21.1457,21.1016,-0.082967,21.2067,213,2.54485,2.67053,0.35,13372
9.13005e-08,-3.87406e-07,-2.10917e-06,-3.73962e-05,-0.000147742,-0.0152548,21.4298,21.2745,0.0126639,10.7253,21.4467,21.2741,-0.00383767,21.3648,213,6.77203,17.4066,0.35,13373
-2.17366e-08,-1.71202e-07,-2.09284e-06,-2.7519e-05,-6.1523e-05,-0.0153087,21.513,21.4652,0.00610658,10.7536,21.5132,21.4652,0.00592709,21.4833,213,10.8885,15.0669,0.35,13374
1.94705e-08,-1.07816e-07,-2.09642e-06,-2.81817e-05,-4.34805e-05,-0.0153147,21.5308,21.5093,0.0164771,10.7573,21.5309,21.5093,0.0163952,21.5037,213,9.33788,13.8544,0.35,13375
-3.72275e-09,-1.33551e-07,-2.09506e-06,-2.56568e-05,-5.20477e-05,-0.0153091,21.5337,21.4965,0.0236387,10.7551,21.5338,21.4965,0.023529,21.4917,213,10.2011,14.3913,0.35,13376
-7.80187e-09,-9.6104e-08,-2.0977e-06,-2.66558e-05,-4.01023e-05,-0.0153195,21.5332,21.5143,0.0100439,10.7616,21.5333,21.5143,0.00998004,21.5138,213,10.3511,13.5792,0.35,13377
-1.35128e-07,-1.11961e-07,-2.09511e-06,-5.29637e-05,-4.439e-05,-0.0152975,21.482,21.4941,0.0267596,10.7343,21.4952,21.4811,0.0265593,21.4616,213,13.9095,14.0344,0.35,13378
2.32144e-07,5.88881e-08,-2.08689e-06,-7.94167e-05,-3.08142e-05,-0.0152651,21.4768,21.5452,0.104382,10.7208,21.5456,21.4767,0.104054,21.4072,213,4.80321,8.08516,0.35,13379
2.25501e-07,3.94816e-08,-2.08627e-06,-7.83493e-05,-2.7026e-05,-0.0152666,21.4839,21.5561,0.107851,10.7245,21.5565,21.4839,0.107483,21.4128,213,4.91079,8.76188,0.35,13380
1.82734e-07,6.52903e-08,-2.09284e-06,-6.66778e-05,-3.22389e-05,-0.0152941,21.4657,21.5142,0.0344896,10.7402,21.5146,21.4656,0.0342483,21.4559,213,5.47584,7.90586,0.35,13381
1.77062e-07,4.50961e-08,-2.0922e-06,-6.54756e-05,-2.81169e-05,-0.0152903,21.4824,21.5349,0.0547943,10.7403,21.5352,21.4823,0.0545542,21.4543,213,5.58342,8.58258,0.35,13382
3.09812e-07,-4.12257e-08,-2.08787e-06,-0.000104267,-2.71014e-05,-0.0152942,21.3594,21.468,-0.0190251,10.7441,21.4687,21.3593,-0.0196253,21.4338,213,3.97294,12.0551,0.35,13383
3.4688e-07,-2.18081e-08,-2.08467e-06,-0.000113315,-2.32266e-05,-0.0153373,21.2674,21.3942,-0.15899,10.7778,21.3954,21.2674,-0.160213,21.4919,213,3.65515,11.2795,0.35,13384
2.29289e-07,-5.74846e-07,-1.90988e-06,-7.98206e-05,-0.000397742,-0.015242,20.911,20.4636,-0.428358,11.1215,21.3643,20.4606,-0.878662,21.8052,213,4.04193,18.6504,0.3375,13385
6.45678e-08,-1.11712e-08,-2.09949e-06,-3.58677e-05,-2.4103e-05,-0.0153312,21.5122,21.5287,-0.0145887,10.7717,21.5287,21.5122,-0.0146268,21.5351,213,7.93138,10.8327,0.35,13386
1.40332e-07,2.52208e-07,-2.08761e-06,-5.36707e-05,-8.71701e-05,-0.0152678,21.4583,21.4112,0.0457567,10.707,21.4592,21.4107,0.0452867,21.3897,213,5.98976,4.49265,0.35,13387
-1.78937e-07,-1.30878e-07,-2.09197e-06,-6.50116e-05,-5.00714e-05,-0.0152905,21.4474,21.4685,0.0189859,10.7255,21.4697,21.4465,0.0186973,21.4394,213,14.6827,14.4707,0.35,13388
-2.52157e-07,-8.99447e-09,-2.08365e-06,-8.52729e-05,-2.38656e-05,-0.0152263,21.5341,21.6205,0.224534,10.6996,21.6222,21.534,0.222935,21.3553,213,15.4709,10.7344,0.35,13389
7.125e-07,-9.05417e-08,-2.12069e-06,-0.000209838,-4.04291e-05,-0.0151488,21.2543,21.4927,0.229118,10.6776,21.5391,21.2531,0.18389,21.2137,213,1.53947,13.4796,0.35,13390
-3.28031e-07,-3.02332e-07,-2.08625e-06,-0.000108842,-0.000119762,-0.0152365,21.288,21.2726,-0.00287877,10.6582,21.3076,21.2588,-0.00870338,21.292,213,16.6676,16.9424,0.35,13391
5.0821e-08,1.20389e-08,-2.09935e-06,-3.19062e-05,-2.54921e-05,-0.0153327,21.5195,21.5285,-0.0149639,10.7718,21.5285,21.5195,-0.0149916,21.539,213,8.35256,9.89197,0.35,13392
-1.16702e-06,-6.53472e-08,-2.20064e-06,-0.000683324,-3.07505e-05,-0.0150428,20.0004,20.9188,-0.209314,11.3823,21.737,20.0004,-1.02753,21.9478,213,19.5021,12.6186,0.3625,13393
-3.54617e-07,8.43532e-07,-1.86365e-06,-0.00010988,-0.000485173,-0.0151606,20.8096,20.2814,-0.372889,10.9889,21.207,20.282,-0.770851,21.5302,213,16.9808,0.849583,0.3375,13394
6.77549e-07,6.56797e-07,-2.15874e-06,-0.000263836,-0.0002538,-0.0151766,20.6937,20.7078,-0.294566,10.5847,20.7718,20.7327,-0.397585,21.1499,213,1.31519,1.44693,0.35,13395
-3.30098e-07,4.5856e-07,-2.07995e-06,-0.000102538,-0.000168651,-0.0151997,21.2874,21.1943,0.0394834,10.6327,21.2973,21.1919,0.0319073,21.2129,213,16.6676,2.55757,0.35,13396
3.30656e-07,4.58899e-07,-2.08243e-06,-0.000102969,-0.000176681,-0.0152014,21.2701,21.1663,0.0204029,10.6325,21.2787,21.1643,0.0137367,21.208,213,3.43235,2.55757,0.35,13397
1.06697e-06,-5.13595e-07,-1.97735e-06,-0.000539358,-0.000207424,-0.0151201,20.0224,20.4896,-0.498631,11.6438,21.6321,20.0366,-1.65538,22.5322,213,0.367583,18.0406,0.35,13398
-7.60345e-07,7.39396e-08,-2.1123e-06,-0.000262114,-3.55528e-05,-0.0151506,21.0999,21.4188,0.145662,10.6697,21.4521,21.0994,0.112792,21.1652,213,18.7362,7.59729,0.35,13399
-5.56275e-07,6.97144e-08,-2.1186e-06,-0.000205741,-3.3416e-05,-0.0152975,21.0341,21.2766,-0.206187,10.7445,21.2798,21.0341,-0.209344,21.3673,213,17.9033,7.66162,0.35,13400
-1.75492e-07,-9.21944e-08,-2.09496e-06,-6.31599e-05,-3.80749e-05,-0.0153056,21.448,21.4833,-0.0044094,10.7442,21.4837,21.4478,-0.00464592,21.4704,213,14.5848,13.5835,0.35,13401
-4.52006e-07,-2.88492e-07,-2.10183e-06,-0.000159977,-9.64238e-05,-0.0152558,21.1388,21.2282,-0.107156,10.6733,21.2348,21.1368,-0.111827,21.2978,213,17.5552,16.8295,0.35,13402
-1.1865e-06,1.08379e-07,-2.18184e-06,-0.00072429,-3.91699e-05,-0.0150185,19.9015,20.8658,-0.216262,11.4741,21.7989,19.9015,-1.14937,22.0609,213,19.5523,6.82014,0.3625,13403
-1.01294e-06,1.06897e-07,-1.80565e-06,-0.000557144,-3.94898e-05,-0.0151967,20.1181,20.8467,-0.485695,11.3894,21.57,20.1179,-1.20886,22.0887,213,19.5523,6.82014,0.3375,13404
1.19155e-06,1.07542e-07,-2.18124e-06,-0.000739893,-3.51335e-05,-0.0149742,19.9333,20.9252,-0.100198,11.4527,21.8652,19.9332,-1.04018,22.0031,213,0.547658,6.82014,0.3625,13405
1.01541e-06,1.06253e-07,-1.80585e-06,-0.00058101,-3.80621e-05,-0.0151952,20.0502,20.8144,-0.517831,11.3318,21.4801,20.0502,-1.18354,21.9836,213,0.547658,6.82014,0.3375,13406
-1.40545e-07,2.5242e-07,-2.08766e-06,-5.37787e-05,-8.81465e-05,-0.0152641,21.4625,21.4141,0.0553698,10.7044,21.4636,21.4136,0.0548472,21.3838,213,14.1098,4.49252,0.35,13407
1.35721e-07,1.91946e-07,-2.0919e-06,-5.24267e-05,-6.83529e-05,-0.0152949,21.4486,21.4262,-0.00372627,10.7271,21.45,21.4251,-0.00409771,21.4417,213,6.12758,5.27546,0.35,13408
-2.12685e-08,-4.20825e-07,-2.11829e-06,-2.41538e-05,-9.23139e-05,-0.0152738,21.5301,21.4342,0.0676792,10.7451,21.5447,21.4327,0.0545753,21.4343,213,10.9675,17.6201,0.35,13409
-2.9264e-07,-8.84851e-08,-2.08926e-06,-0.000100329,-3.69018e-05,-0.0152895,21.363,21.4522,-0.0144379,10.7337,21.4526,21.363,-0.0148354,21.4228,213,16.0216,13.527,0.35,13410
-2.27489e-07,1.16457e-08,-2.08265e-06,-8.15539e-05,-2.31182e-05,-0.0152119,21.5703,21.6525,0.275717,10.6899,21.654,21.5703,0.274234,21.338,213,15.1559,9.87516,0.35,13411
-1.00131e-06,-6.48732e-08,-1.82372e-06,-0.000544459,-3.31591e-05,-0.0151902,20.178,20.8976,-0.434489,11.2568,21.4883,20.178,-1.0252,21.8878,213,19.5021,12.6186,0.3375,13412
2.2813e-08,2.36756e-07,-2.08809e-06,-2.71288e-05,-8.0644e-05,-0.0152717,21.5436,21.4683,0.0883158,10.728,21.5439,21.4683,0.0880257,21.4182,213,9.18824,4.79022,0.35,13413
9.13692e-08,-8.32574e-07,-2.2789e-06,-3.15223e-05,-0.000659375,-0.0149672,21.08,20.1964,0.0595146,11.4861,22.056,20.1961,-0.916172,22.101,213,6.48571,18.8284,0.3625,13414
8.92596e-08,-6.57766e-07,-1.90342e-06,-3.63381e-05,-0.000490694,-0.0152116,20.941,20.3015,-0.416811,11.3805,21.6427,20.3012,-1.11821,22.1207,213,6.48571,18.8284,0.3375,13415
1.11736e-07,9.53134e-07,-1.84409e-06,-4.26241e-05,-0.000544088,-0.0150961,21.0238,20.318,-0.16255,11.2401,21.6708,20.318,-0.809463,21.8353,213,6.51194,0.712873,0.3375,13416
1.13636e-07,1.11833e-06,-2.21804e-06,-3.49616e-05,-0.000694472,-0.0149565,21.0294,20.1012,0.0286941,11.2935,21.8225,20.1013,-0.764506,21.7775,213,6.51194,0.712873,0.3625,13417
1.83007e-07,-9.2141e-09,-2.09179e-06,-6.56333e-05,-2.41177e-05,-0.0152876,21.4929,21.5513,0.0693385,10.7413,21.5516,21.4929,0.0690389,21.4533,213,5.51128,10.7608,0.35,13418
1.7497e-07,2.15796e-07,-2.08937e-06,-6.36902e-05,-7.69544e-05,-0.0152701,21.4409,21.4222,0.0392718,10.7022,21.4433,21.4204,0.0387603,21.3931,213,5.42512,4.90775,0.35,13419
2.08645e-07,-7.99689e-08,-2.09277e-06,-7.51546e-05,-3.56132e-05,-0.0153005,21.4238,21.4794,-0.00452984,10.7424,21.4799,21.4237,-0.00484671,21.4567,213,5.06986,13.2781,0.35,13420
3.83929e-08,-8.55721e-08,-2.0978e-06,-2.95616e-05,-3.85121e-05,-0.0153226,21.5219,21.5093,-0.00162455,10.7618,21.522,21.5093,-0.0016858,21.5173,213,8.6978,13.3203,0.35,13421
9.25381e-07,-5.89134e-07,-1.79125e-06,-0.000637997,-0.000210813,-0.0153108,19.403,20.0042,-1.24754,11.6228,20.9819,19.4416,-2.26378,22.5151,213,0.367583,18.5281,0.3375,13422
8.09466e-07,-5.98379e-07,-2.08768e-06,-0.000282722,-0.000179865,-0.0152694,20.6051,20.7499,-0.487232,11.078,21.223,20.5779,-0.933127,21.8407,213,0.835166,18.5312,0.35,13423
1.12234e-06,-6.54457e-07,-2.16427e-06,-0.000862253,-0.000315227,-0.0147935,19.397,20.1669,-0.210009,11.6422,21.608,19.4222,-1.67635,22.2721,213,0.367583,18.5281,0.3625,13424
2.98936e-07,4.3105e-08,-2.08281e-06,-0.000102146,-2.72754e-05,-0.0152722,21.4018,21.5071,0.0513635,10.7288,21.5081,21.4017,0.0504485,21.4047,213,4.0934,8.60507,0.35,13425
-2.99626e-07,6.46552e-08,-2.08891e-06,-9.82579e-05,-3.23453e-05,-0.0153269,21.3153,21.4081,-0.117611,10.7637,21.4093,21.3147,-0.118164,21.4803,213,16.0801,7.87413,0.35,13426
4.87414e-08,-1.19488e-07,-2.09525e-06,-2.99763e-05,-4.61504e-05,-0.0153032,21.5398,21.5171,0.0441514,10.748,21.5401,21.5169,0.0440526,21.4845,213,8.3247,14.1296,0.35,13427
-5.63713e-07,8.2491e-07,-2.11978e-06,-0.000216391,-0.000344886,-0.0151226,20.7775,20.5966,-0.201623,10.8488,21.1369,20.5964,-0.560771,21.4325,213,18.3297,0.962542,0.35,13428
-6.97761e-07,1.03045e-06,-2.003e-06,-0.000280013,-0.000505927,-0.0151821,20.2212,19.9033,-0.752115,11.459,21.1829,19.9246,-1.73509,22.3155,213,18.8097,0.484385,0.35,13429
-6.35188e-07,-7.60377e-07,-2.08631e-06,-0.000277005,-0.000440502,-0.0151715,20.3553,20.1252,-0.6073,11.6832,21.5571,20.1252,-1.80915,22.6843,213,18.8097,19.0156,0.35,13430
6.33591e-07,-7.62448e-07,-2.08875e-06,-0.000280638,-0.000450378,-0.0151638,20.3407,20.1018,-0.605924,11.6913,21.5575,20.104,-1.825,22.6907,213,1.29031,19.0156,0.35,13431
-1.96437e-07,2.49949e-08,-2.08574e-06,-7.13962e-05,-2.52826e-05,-0.0152336,21.5622,21.6271,0.222833,10.7028,21.6278,21.5622,0.222144,21.3729,213,14.7617,9.33327,0.35,13432
-2.25946e-07,3.99913e-08,-2.08447e-06,-7.86142e-05,-2.71922e-05,-0.0152298,21.5432,21.6156,0.219291,10.6991,21.6166,21.543,0.218459,21.3615,213,15.1756,8.74929,0.35,13433
-1.75506e-07,4.56152e-08,-2.08955e-06,-6.51626e-05,-2.79442e-05,-0.0152779,21.5039,21.5563,0.0933685,10.732,21.5569,21.5037,0.0929592,21.4374,213,14.4822,8.57073,0.35,13434
-2.97843e-07,4.34535e-08,-2.08535e-06,-9.83596e-05,-2.7133e-05,-0.0152839,21.3943,21.4945,0.0220616,10.7378,21.4962,21.394,0.0206502,21.4246,213,15.9998,8.59877,0.35,13435
-2.61691e-07,2.53168e-08,-2.08166e-06,-8.86824e-05,-2.55843e-05,-0.0152014,21.5618,21.6506,0.292093,10.6812,21.6526,21.5616,0.29021,21.3171,213,15.5698,9.29117,0.35,13436
-1.34395e-07,5.12785e-08,-2.09449e-06,-5.26092e-05,-2.86307e-05,-0.0152997,21.5054,21.5392,0.0465968,10.7465,21.5395,21.5053,0.0464261,21.476,213,13.7888,8.39217,0.35,13437
-8.66681e-07,1.11994e-06,-2.13562e-06,-0.000385232,-0.000823728,-0.0147709,20.0538,19.4367,-0.192637,11.5382,21.4559,19.4624,-1.62041,22.1469,213,19.2711,0.484385,0.3625,13438
-7.95944e-07,9.28827e-07,-1.76289e-06,-0.000281603,-0.000601472,-0.0152768,19.9041,19.4539,-1.20022,11.5281,20.8602,19.4936,-2.19606,22.4043,213,19.2711,0.484385,0.3375,13439
-8.40576e-07,8.16735e-07,-2.06894e-06,-0.000263001,-0.000257317,-0.0152165,20.6249,20.6329,-0.420828,10.9737,21.1165,20.5514,-0.830909,21.6704,213,19.2648,0.968771,0.35,13440
8.06943e-07,-8.75089e-07,-2.22938e-06,-0.000391001,-0.000780957,-0.0148059,20.0491,19.5002,-0.238507,11.6445,21.5429,19.5139,-1.74605,22.3437,213,0.828946,19.0156,0.3625,13441
7.34578e-07,-6.79838e-07,-1.85612e-06,-0.000284417,-0.00055868,-0.0153179,19.8983,19.5123,-1.25989,11.6297,20.9338,19.5426,-2.32564,22.596,213,0.828946,19.0156,0.3375,13442
-7.32678e-07,-6.76937e-07,-1.85422e-06,-0.000278785,-0.000545811,-0.0153363,19.9063,19.5305,-1.28574,11.6614,20.9577,19.5584,-2.36505,22.6555,213,19.2711,19.0156,0.3375,13443
-8.08959e-07,-6.00893e-07,-2.08751e-06,-0.000257128,-0.000186947,-0.0152823,20.6504,20.7492,-0.496058,11.056,21.1916,20.6323,-0.9204,21.8377,213,19.2648,18.5312,0.35,13444
-8.05181e-07,-8.72596e-07,-2.22776e-06,-0.000384065,-0.000774738,-0.0148086,20.0759,19.5261,-0.225278,11.676,21.595,19.5388,-1.75706,22.3949,213,19.2711,19.0156,0.3625,13445
9.37957e-07,3.61762e-07,-1.81172e-06,-0.000495363,-0.000115407,-0.0151438,20.2687,20.8035,-0.347626,11.025,21.2529,20.2687,-0.797075,21.5747,213,0.655674,3.18494,0.3375,13446
9.88885e-07,-6.8311e-09,-2.25967e-06,-0.000534313,-2.02402e-05,-0.0150308,20.4918,21.2153,0.0892886,10.8984,21.5507,20.4918,-0.246101,21.2871,213,0.967271,10.6168,0.3625,13447
1.15226e-06,8.53105e-07,-2.14297e-06,-0.000855616,-0.000398625,-0.0147748,19.3111,19.9542,-0.278902,11.5352,21.358,19.3408,-1.71239,22.1308,213,0.367583,0.971886,0.3625,13448
-8.55588e-07,-3.29002e-07,-1.87161e-06,-0.000454919,-0.000110481,-0.0152175,20.2791,20.7639,-0.497875,10.9124,21.0444,20.2811,-0.780368,21.4533,213,19.2524,17.075,0.3375,13449
-9.5773e-07,-2.61479e-07,-1.8149e-06,-0.000495903,-8.57266e-05,-0.0151838,20.2502,20.8275,-0.421608,11.1145,21.3174,20.2502,-0.911524,21.715,213,19.4443,16.3151,0.3375,13450
1.05447e-06,3.66306e-07,-2.18845e-06,-0.000600211,-0.000116183,-0.0150274,20.1388,20.82,-0.166156,11.031,21.3579,20.1389,-0.704078,21.4784,213,0.655674,3.18494,0.3625,13451
1.17654e-06,-6.55585e-08,-2.19726e-06,-0.000706467,-2.92693e-05,-0.0149497,20.0852,21.0383,0.0392539,11.3599,21.8987,20.0852,-0.82114,21.8696,213,0.597879,12.6186,0.3625,13452
1.0223e-06,-1.42585e-07,-2.23985e-06,-0.000576837,-4.10691e-05,-0.0150353,20.3205,21.0745,-0.0284989,10.9969,21.5199,20.3206,-0.473969,21.4194,213,0.841592,14.5109,0.3625,13453
1.00646e-06,-6.46822e-08,-1.82344e-06,-0.00055515,-3.24875e-05,-0.0151287,20.2474,20.983,-0.263469,11.3319,21.6916,20.2474,-0.97212,21.9773,213,0.597879,12.6186,0.3375,13454
9.66032e-07,4.42617e-08,-1.83111e-06,-0.000513115,-2.70074e-05,-0.0151005,20.4309,21.1151,-0.0994409,11.1232,21.6312,20.4305,-0.61512,21.6709,213,0.716167,8.57715,0.3375,13455
8.73013e-07,-6.61198e-09,-1.88423e-06,-0.000461688,-2.18431e-05,-0.01513,20.5477,21.1667,-0.0966493,10.8708,21.4058,20.5477,-0.335732,21.3254,213,0.967271,10.6168,0.3375,13456
8.92543e-07,-1.39925e-07,-1.86499e-06,-0.000487539,-4.72286e-05,-0.0151523,20.3906,21.0103,-0.248661,10.9579,21.3387,20.3907,-0.577137,21.4575,213,0.841592,14.5109,0.3375,13457
-1.11757e-06,-6.51737e-07,-2.16631e-06,-0.000860711,-0.000325928,-0.0148272,19.3288,20.0814,-0.327843,11.6907,21.5537,19.3565,-1.82776,22.3639,213,19.7324,18.5281,0.3625,13458
8.01679e-07,9.36344e-07,-1.78529e-06,-0.000316221,-0.000612529,-0.0151819,19.9361,19.5191,-0.985956,11.4786,20.9373,19.5519,-2.01992,22.2968,213,0.828946,0.484385,0.3375,13459
9.56188e-07,7.88085e-07,-1.77211e-06,-0.000631719,-0.000305155,-0.0151638,19.5086,19.9682,-0.943918,11.4762,20.9738,19.5376,-1.97852,22.269,213,0.367583,0.971886,0.3375,13460
-9.19842e-07,-5.87582e-07,-1.79408e-06,-0.000626867,-0.000225819,-0.0152265,19.5507,20.1152,-0.996858,11.638,21.1851,19.5748,-2.09084,22.514,213,19.7324,18.5281,0.3375,13461
-9.47309e-07,7.83532e-07,-1.75277e-06,-0.000622961,-0.000272337,-0.0152663,19.4208,19.9143,-1.18835,11.5287,20.8749,19.4543,-2.18249,22.3809,213,19.7324,0.971886,0.3375,13462
8.73083e-07,1.12786e-06,-2.15681e-06,-0.000411197,-0.000830703,-0.0147972,19.92,19.3296,-0.326906,11.5173,21.2969,19.3635,-1.73775,22.1314,213,0.828946,0.484385,0.3625,13463
-9.4359e-07,-3.37185e-07,-2.2505e-06,-0.000539948,-0.000123935,-0.0150674,20.2442,20.8296,-0.201957,10.8269,21.1393,20.2471,-0.514509,21.2218,213,19.2524,17.075,0.3625,13464
-1.07627e-06,-2.64303e-07,-2.19276e-06,-0.000593439,-8.53024e-05,-0.0150954,20.0985,20.8137,-0.311642,11.0451,21.2961,20.0986,-0.794063,21.5164,213,19.4443,16.3151,0.3625,13465
-1.14284e-06,8.47919e-07,-2.12489e-06,-0.000846775,-0.000373797,-0.0147614,19.4007,20.0664,-0.18282,11.5485,21.4804,19.4206,-1.61668,22.1391,213,19.7324,0.971886,0.3625,13466
-1.06711e-06,3.65789e-07,-2.18815e-06,-0.000643834,-0.000118274,-0.0149656,20.1038,20.8435,-0.0527835,11.163,21.5582,20.1041,-0.767811,21.6357,213,19.4443,3.18494,0.3625,13467
-9.1119e-07,3.60912e-07,-1.81398e-06,-0.000519496,-0.000114767,-0.0151559,20.1764,20.746,-0.422911,11.1147,21.2763,20.1764,-0.953204,21.7005,213,19.4443,3.18494,0.3375,13468
1.11649e-06,4.47774e-08,-2.20542e-06,-0.000646707,-2.5855e-05,-0.0149481,20.2756,21.1494,0.147725,11.1246,21.7732,20.2755,-0.47602,21.5395,213,0.716167,8.57715,0.3625,13469
9.30998e-07,-1.71403e-08,-2.07711e-06,-0.00057875,-2.69638e-05,-0.0151551,20.1411,20.9177,-0.373749,10.8095,21.0816,20.141,-0.537496,21.1644,213,0.967271,11.1043,0.35,13470
-4.14565e-07,5.89132e-07,-2.1153e-06,-0.000154308,-0.000181202,-0.0153066,20.9333,20.8955,-0.392164,10.6648,20.934,20.8981,-0.395511,21.3116,213,17.4173,1.81212,0.35,13471
-7.29006e-09,-6.18425e-07,-2.11435e-06,-2.35378e-05,-0.000494856,-0.0152468,20.9153,20.252,-0.510028,10.8827,21.0852,20.2521,-0.680065,21.3609,213,10.5114,18.4382,0.35,13472
6.35083e-07,4.20976e-07,-2.12036e-06,-0.000207332,-0.000142554,-0.0151964,21.0161,21.1073,-0.0796308,10.6392,21.1585,21.0051,-0.119798,21.202,213,1.60328,2.68498,0.35,13473
7.08423e-07,3.30191e-07,-2.1122e-06,-0.000216116,-0.000101326,-0.0151193,21.1836,21.3452,0.208775,10.6348,21.411,21.1853,0.141273,21.1578,213,1.41135,3.44488,0.35,13474
-8.7345e-07,-3.95262e-07,-2.07658e-06,-0.000590005,-0.000154767,-0.0150856,20.0111,20.6237,-0.39,10.7604,20.8766,20.0125,-0.644268,21.1021,213,19.2524,17.5625,0.35,13475
9.61842e-07,-7.87993e-07,-1.96838e-06,-0.000650201,-0.000578284,-0.0151718,18.9905,19.0917,-1.44736,11.4723,20.2555,19.0684,-2.68906,22.3746,213,0.367583,19.0156,0.35,13476
-9.57377e-07,-7.83399e-07,-1.97068e-06,-0.000644808,-0.000570411,-0.0152278,18.928,19.0327,-1.59628,11.5201,20.2007,19.0031,-2.8394,22.4653,213,19.7324,19.0156,0.35,13477
9.53429e-07,-1.65253e-07,-2.05144e-06,-0.000619681,-5.91538e-05,-0.0152041,19.883,20.6719,-0.643177,10.8745,20.8889,19.8829,-0.860141,21.2639,213,0.841592,14.9984,0.35,13478
9.36971e-07,2.375e-07,-2.04476e-06,-0.000610687,-7.59539e-05,-0.0151913,19.9038,20.6564,-0.617124,10.8445,20.8641,19.9039,-0.824943,21.2252,213,0.841592,4.50158,0.35,13479
-9.53996e-07,-1.64631e-07,-2.05119e-06,-0.000620582,-5.86589e-05,-0.0152053,19.8791,20.6699,-0.647566,10.8718,20.883,19.8791,-0.860617,21.2594,213,19.2584,14.9984,0.35,13480
-9.34407e-07,2.36309e-07,-2.04352e-06,-0.000608128,-7.72419e-05,-0.0151837,19.922,20.6692,-0.591765,10.8441,20.8828,19.922,-0.80542,21.2242,213,19.2584,4.50158,0.35,13481
6.98127e-08,-1.45686e-07,-2.09337e-06,-3.53241e-05,-5.41681e-05,-0.0152934,21.5266,21.5,0.0522864,10.7374,21.527,21.4997,0.0521865,21.4612,213,7.64883,14.6717,0.35,13482
-3.12629e-08,-7.14333e-07,-2.10055e-06,-1.97673e-05,-0.000536809,-0.0152464,20.8587,20.131,-0.57135,11.0799,21.224,20.1303,-0.935888,21.6338,213,11.4289,18.6819,0.35,13483
-2.92995e-08,2.6759e-08,-2.09921e-06,-3.07155e-05,-2.63202e-05,-0.0153304,21.5255,21.5317,-0.00739637,10.7696,21.5317,21.5255,-0.00742158,21.536,213,11.0622,9.34368,0.35,13484
9.68814e-07,-1.20592e-07,-2.05681e-06,-0.000619365,-4.74547e-05,-0.0151458,19.9989,20.8038,-0.44576,10.8464,21.0253,19.9991,-0.667505,21.1984,213,0.841592,14.0234,0.35,13485
-3.36331e-07,-1.62983e-07,-2.08015e-06,-0.000113741,-5.89731e-05,-0.0152643,21.3273,21.4044,0.00438194,10.7017,21.4066,21.3263,0.00323361,21.3633,213,16.5198,15.1536,0.35,13486
2.29657e-07,1.72595e-07,-2.08737e-06,-8.20436e-05,-6.0238e-05,-0.0152804,21.3954,21.4261,0.0051803,10.7116,21.4278,21.3943,0.00460498,21.4065,213,4.71445,5.48368,0.35,13487
-9.49466e-08,4.30735e-08,-2.09711e-06,-4.2927e-05,-2.74106e-05,-0.0153172,21.5081,21.5299,0.0109,10.7596,21.53,21.508,0.0108224,21.5082,213,12.9544,8.70251,0.35,13488
-1.75445e-07,-2.48994e-07,-2.08237e-06,-6.34067e-05,-8.72502e-05,-0.0152587,21.4435,21.41,0.0576116,10.6954,21.4474,21.4071,0.0566086,21.3707,213,14.8095,16.2932,0.35,13489
1.63308e-08,3.22452e-07,-2.07705e-06,-2.49348e-05,-0.000105173,-0.0153545,21.3742,21.2612,-0.200727,10.788,21.3748,21.2612,-0.201301,21.5195,213,9.42062,3.8703,0.35,13490
-1.7689e-07,3.85028e-07,-2.07342e-06,-6.14142e-05,-0.000126686,-0.0152853,21.3411,21.2492,-0.0851529,10.7159,21.3443,21.2484,-0.0875162,21.384,213,14.8306,3.20432,0.35,13491
-5.93786e-07,9.82716e-08,-2.11028e-06,-0.000222611,-3.80105e-05,-0.0152392,21.0709,21.3307,-0.0635185,10.7128,21.3464,21.071,-0.0792285,21.2892,213,18.0718,6.87962,0.35,13492
5.94023e-07,9.75487e-08,-2.11099e-06,-0.000219618,-3.76208e-05,-0.0152418,21.0764,21.3325,-0.065963,10.7148,21.3481,21.0764,-0.0815451,21.2951,213,2.02819,6.87962,0.35,13493
6.77474e-07,-4.67454e-07,-2.14147e-06,-0.000311289,-0.000202801,-0.015242,20.5253,20.678,-0.488311,10.676,20.7755,20.516,-0.576537,21.2235,213,1.31519,18.0531,0.35,13494
1.09471e-06,6.74392e-07,-1.99525e-06,-0.00069775,-0.000234864,-0.0150887,19.5459,20.1974,-0.708062,11.404,21.144,19.5552,-1.66393,22.0565,213,0.367583,1.45939,0.35,13495
8.41551e-07,8.16004e-07,-2.09492e-06,-0.000271674,-0.000265785,-0.0151928,20.6234,20.6317,-0.376731,10.9603,21.091,20.617,-0.829636,21.6875,213,0.835166,0.968771,0.35,13496
-1.08738e-06,-5.09674e-07,-1.97477e-06,-0.000692233,-0.00017559,-0.015151,19.5577,20.2848,-0.791724,11.3911,21.1368,19.5595,-1.6455,22.036,213,19.7324,18.0406,0.35,13497
-9.73233e-08,2.98567e-07,-2.0865e-06,-4.12771e-05,-0.00010423,-0.0153034,21.4097,21.3211,-0.0703944,10.7407,21.4104,21.321,-0.0709834,21.4368,213,13.225,4.04094,0.35,13498
-3.29136e-07,2.50306e-07,-2.08063e-06,-0.00010948,-8.86461e-05,-0.0152558,21.3055,21.3348,-0.0115563,10.6762,21.3396,21.302,-0.0128182,21.3336,213,16.5198,4.34639,0.35,13499
3.11625e-07,8.87967e-07,-2.04725e-06,-9.11993e-05,-0.000691054,-0.0151636,20.5235,19.6793,-0.689494,10.8114,20.7283,19.6796,-0.894506,21.118,213,3.58056,0.849583,0.35,13500
-2.71815e-07,-5.98304e-07,-2.10256e-06,-8.7329e-05,-0.000623659,-0.0152212,20.5513,19.7965,-0.748185,10.8876,20.7892,19.7964,-0.985993,21.2962,213,16.5194,18.6504,0.35,13501
8.00759e-08,1.1887e-08,-2.0989e-06,-3.83368e-05,-2.51122e-05,-0.015332,21.5016,21.5202,-0.0228722,10.7716,21.5202,21.5016,-0.0229031,21.5338,213,7.51445,9.89298,0.35,13502
9.74854e-08,-1.10503e-08,-2.0985e-06,-4.2686e-05,-2.37252e-05,-0.0153272,21.4986,21.5253,-0.0129007,10.7692,21.5254,21.4986,-0.012948,21.5249,213,7.09327,10.8337,0.35,13503
-2.33279e-08,6.4095e-07,-2.1287e-06,-2.76075e-05,-0.00024951,-0.0151534,21.4591,21.1468,0.170889,10.6719,21.4869,21.1468,0.143154,21.1757,213,10.9262,1.87317,0.35,13504
2.27537e-08,6.40495e-07,-2.13468e-06,-2.75384e-05,-0.000257074,-0.0150914,21.5488,21.2258,0.347895,10.6243,21.5727,21.2257,0.324047,21.0773,213,9.1738,1.87317,0.35,13505
6.49562e-07,2.06556e-08,-2.14063e-06,-0.000189676,-2.45376e-05,-0.0152348,21.2006,21.433,0.0259308,10.717,21.4467,21.2,0.0127625,21.3117,213,1.78344,9.44393,0.35,13506
7.19371e-07,4.81041e-08,-2.13807e-06,-0.000266724,-2.58101e-05,-0.0152083,21.0071,21.3462,-0.0217855,10.7089,21.3722,21.005,-0.0456455,21.2366,213,1.53233,8.37929,0.35,13507
1.05206e-07,-7.27e-07,-2.09378e-06,-3.81015e-05,-0.000410128,-0.0152772,20.9602,20.4366,-0.487387,11.3838,21.6206,20.4357,-1.14693,22.1988,213,6.02434,18.8284,0.35,13508
1.29603e-07,1.04751e-06,-2.02802e-06,-4.64268e-05,-0.000615096,-0.0151524,20.8032,20.0028,-0.457024,11.1102,21.2839,20.0014,-0.936398,21.6076,213,6.05058,0.712873,0.35,13509
-1.23625e-07,-4.1747e-07,-2.11718e-06,-4.88744e-05,-0.000174571,-0.0152198,21.4083,21.2314,0.0565458,10.6921,21.4248,21.2308,0.0406715,21.2878,213,14.1355,17.6616,0.35,13510
1.10952e-06,-5.11498e-08,-2.01152e-06,-0.000650534,-2.93541e-05,-0.015096,20.0153,20.8895,-0.315407,11.0852,21.3725,20.0148,-0.797884,21.5237,213,0.597879,12.1311,0.35,13511
7.99466e-07,-5.97814e-08,-2.11717e-06,-0.000251007,-3.09173e-05,-0.0150456,21.3139,21.6236,0.491835,10.6555,21.7133,21.3139,0.402184,21.1142,213,1.29576,12.5623,0.35,13512
3.2213e-07,-4.96802e-09,-2.08133e-06,-0.000105537,-2.31096e-05,-0.0152736,21.3959,21.5119,0.0482309,10.7332,21.5133,21.3959,0.046833,21.408,213,3.89548,10.5564,0.35,13513
4.70912e-07,2.5322e-07,-2.09692e-06,-0.000168953,-8.75461e-05,-0.0152365,21.1576,21.2721,-0.0486564,10.6655,21.278,21.156,-0.0529358,21.2702,213,2.53883,4.25957,0.35,13514
-1.7814e-07,6.73004e-08,-2.09186e-06,-6.47324e-05,-3.26327e-05,-0.0152968,21.4667,21.5118,0.0289909,10.7417,21.5122,21.4665,0.0287565,21.4606,213,14.5625,7.84609,0.35,13515
3.30184e-07,2.50374e-07,-2.08001e-06,-0.000105623,-8.88194e-05,-0.0152547,21.3188,21.3424,-0.00215186,10.6756,21.3477,21.3148,-0.00346054,21.3347,213,3.58023,4.34639,0.35,13516
-3.40903e-07,2.8677e-08,-2.08857e-06,-0.000107665,-2.51041e-05,-0.0153269,21.2987,21.4149,-0.120938,10.7703,21.4173,21.2986,-0.123236,21.4814,213,16.394,9.14066,0.35,13517
6.78836e-08,-8.41509e-08,-2.09764e-06,-3.49064e-05,-3.81017e-05,-0.0153208,21.5091,21.5046,-0.00440681,10.7573,21.5101,21.5037,-0.00447161,21.5114,213,7.78351,13.3077,0.35,13518
3.14815e-08,2.72966e-08,-2.09938e-06,-3.07024e-05,-2.68202e-05,-0.0153314,21.5231,21.5286,-0.0112237,10.7699,21.5286,21.5231,-0.0112448,21.5371,213,8.97013,9.3134,0.35,13519
-9.43629e-08,5.39745e-07,-2.09963e-06,-3.96719e-05,-0.000209561,-0.0151893,21.429,21.1899,0.107278,10.6735,21.4418,21.1896,0.0947489,21.2221,213,13.239,2.3236,0.35,13520
-3.79967e-08,-3.52788e-07,-2.10431e-06,-2.55847e-05,-0.000137773,-0.0152581,21.4769,21.319,0.0384915,10.7249,21.4826,21.319,0.032743,21.3686,213,11.6094,17.1075,0.35,13521
-4.11542e-07,9.11376e-07,-2.06452e-06,-0.000142226,-0.000561192,-0.0151607,20.5858,19.9962,-0.551319,10.8783,20.895,19.9973,-0.861587,21.3219,213,17.4422,0.849583,0.35,13522
1.76645e-07,-5.986e-08,-2.09463e-06,-6.39199e-05,-3.16438e-05,-0.0153057,21.4561,21.5015,0.00476017,10.7487,21.5019,21.456,0.00450731,21.4745,213,5.56036,12.6629,0.35,13523
-6.95119e-07,6.70108e-07,-2.16728e-06,-0.000279627,-0.000274429,-0.0151507,20.6542,20.6615,-0.275506,10.5916,20.7987,20.6259,-0.384455,21.0973,213,18.7848,1.44693,0.35,13524
-6.76724e-07,-4.6623e-07,-2.14748e-06,-0.00023404,-0.000209824,-0.0152708,20.7021,20.7361,-0.460792,10.676,20.8089,20.7116,-0.543061,21.3035,213,18.7848,18.0531,0.35,13525
6.93109e-07,1.05614e-06,-2.02412e-06,-0.000253252,-0.000669748,-0.0151128,20.1478,19.5616,-0.765618,11.3522,21.0369,19.5745,-1.66759,22.0097,213,1.29031,0.484385,0.35,13526
-5.02779e-07,-2.23265e-07,-2.10339e-06,-0.000185886,-7.3544e-05,-0.0152322,21.1361,21.2942,-0.0401084,10.6779,21.3052,21.1355,-0.0505837,21.2715,213,17.7471,16.0696,0.35,13527
-7.28999e-07,-2.3118e-07,-2.10636e-06,-0.000222838,-7.03606e-05,-0.0151603,21.1466,21.3612,0.123423,10.6996,21.4414,21.1475,0.0422925,21.2537,213,18.6887,16.0551,0.35,13528
5.03294e-07,-2.23272e-07,-2.10383e-06,-0.000186242,-7.39719e-05,-0.0152332,21.1326,21.2906,-0.0446223,10.6782,21.3014,21.1322,-0.0550465,21.2724,213,2.35292,16.0696,0.35,13529
-1.56083e-08,4.74893e-07,-2.0974e-06,-2.62907e-05,-0.000165763,-0.0152254,21.4825,21.2862,0.0912567,10.6999,21.4868,21.2862,0.0869665,21.3002,213,10.6791,2.71232,0.35,13530
1.60822e-07,9.49564e-08,-2.09419e-06,-6.10971e-05,-3.99002e-05,-0.0153017,21.4577,21.4875,0.00789529,10.7402,21.488,21.4574,0.00766798,21.4651,213,5.78426,7.09838,0.35,13531
-6.16608e-10,-4.2531e-08,-2.09954e-06,-2.83902e-05,-2.86626e-05,-0.0153323,21.5256,21.5252,-0.0133491,10.7696,21.5258,21.525,-0.0133584,21.5388,213,10.0671,12.015,0.35,13532
5.88265e-07,-5.76603e-08,-2.10936e-06,-0.000215801,-2.81895e-05,-0.0152896,21.025,21.289,-0.190014,10.7544,21.3039,21.025,-0.204866,21.3707,213,2.07841,12.5592,0.35,13533
-5.86756e-07,-5.73142e-08,-2.10891e-06,-0.000217217,-2.85903e-05,-0.0153225,20.966,21.2315,-0.293363,10.7764,21.2455,20.966,-0.307322,21.4144,213,18.0216,12.5592,0.35,13534
-1.92876e-08,8.3042e-08,-2.09874e-06,-2.88174e-05,-3.69557e-05,-0.0153305,21.5137,21.5023,-0.0219032,10.7679,21.5138,21.5023,-0.021952,21.53,213,10.7487,7.51197,0.35,13535
-3.96097e-08,5.1916e-07,-2.10284e-06,-2.75412e-05,-0.000189458,-0.0152424,21.4118,21.184,-0.00162749,10.7155,21.4206,21.184,-0.0103976,21.3137,213,11.5553,2.46191,0.35,13536
-6.36083e-08,-4.87492e-07,-2.12118e-06,-2.99824e-05,-0.000211252,-0.015311,21.256,21.0009,-0.250619,10.7947,21.2975,21.0005,-0.291791,21.4424,213,12.6587,17.9793,0.35,13537
9.36194e-08,-3.20244e-08,-2.09885e-06,-4.10676e-05,-2.70437e-05,-0.0153297,21.4939,21.5137,-0.023357,10.7686,21.5138,21.4938,-0.0234181,21.5273,213,7.1678,11.6597,0.35,13538
-2.28732e-07,6.09995e-08,-2.08709e-06,-7.72488e-05,-3.13773e-05,-0.0152617,21.4881,21.5526,0.117316,10.7181,21.5532,21.4879,0.116908,21.4037,213,15.2559,8.02464,0.35,13539
9.47686e-09,-7.58346e-08,-2.09856e-06,-2.75498e-05,-3.57282e-05,-0.0153256,21.5277,21.5162,-0.00284817,10.7653,21.5277,21.5162,-0.00288776,21.5249,213,9.71098,13.045,0.35,13540
-3.49034e-07,-6.03661e-08,-2.09351e-06,-0.000118187,-3.01807e-05,-0.0153223,21.2657,21.3896,-0.13272,10.7615,21.3899,21.2657,-0.133075,21.4612,213,16.5241,12.6934,0.35,13541
-2.7282e-07,-6.46823e-08,-2.09141e-06,-9.35345e-05,-3.15868e-05,-0.0153018,21.3723,21.4595,-0.0318791,10.7459,21.4597,21.3723,-0.0321096,21.4483,213,15.8093,12.8307,0.35,13542
1.10352e-06,-8.01e-08,-2.00923e-06,-0.000670085,-3.48639e-05,-0.0150899,19.9566,20.8506,-0.338001,11.0637,21.3201,19.9563,-0.807222,21.4779,213,0.597879,13.1061,0.35,13543
-1.39211e-07,-7.19563e-08,-2.09637e-06,-5.40579e-05,-3.41064e-05,-0.0153118,21.472,21.5001,-0.00186516,10.7512,21.5004,21.4719,-0.00201891,21.4882,213,13.9368,13.0139,0.35,13544
-6.81738e-07,-2.88078e-08,-2.12245e-06,-0.000282922,-2.61299e-05,-0.0151814,21.0014,21.3628,0.0331147,10.6806,21.3786,21.0013,0.0174328,21.175,213,18.4348,11.5354,0.35,13545
-2.35242e-07,-1.0374e-07,-2.09119e-06,-8.39477e-05,-4.02529e-05,-0.0152999,21.3903,21.4518,-0.0247372,10.7387,21.4523,21.3902,-0.0251166,21.4464,213,15.4094,13.9034,0.35,13546
-1.04414e-06,5.98905e-08,-2.02029e-06,-0.000626114,-3.19353e-05,-0.0150182,20.2133,21.0496,-0.0422221,10.954,21.4577,20.2132,-0.450209,21.3129,213,19.3838,8.08965,0.35,13547
1.03093e-06,5.81488e-08,-2.02895e-06,-0.000433939,-3.29184e-05,-0.0151745,20.5411,21.1055,-0.204839,11.0888,21.5394,20.5405,-0.638121,21.6953,213,0.716167,8.08965,0.35,13548
-5.0961e-08,6.46276e-08,-2.09876e-06,-3.18012e-05,-3.31087e-05,-0.0153307,21.5106,21.5088,-0.0210744,10.7663,21.5115,21.508,-0.0211178,21.5308,213,11.7842,8.02731,0.35,13549
4.57058e-08,-1.71809e-07,-2.09113e-06,-2.88616e-05,-6.31969e-05,-0.0153034,21.5149,21.4666,0.0174056,10.749,21.5153,21.4664,0.0172373,21.4736,213,8.36537,15.0913,0.35,13550
-5.79427e-08,3.93168e-07,-2.08829e-06,-3.28464e-05,-0.000124903,-0.0152898,21.4238,21.2943,-0.0488813,10.738,21.4254,21.2943,-0.0505028,21.4107,213,12.1755,3.2613,0.35,13551
2.12209e-08,-2.09958e-07,-2.0884e-06,-2.60212e-05,-7.33804e-05,-0.0153134,21.4904,21.4238,-0.0252057,10.7581,21.4907,21.4238,-0.0255117,21.4828,213,9.22861,15.6282,0.35,13552
2.30572e-08,-1.47704e-07,-2.09298e-06,-2.7647e-05,-5.54866e-05,-0.0152956,21.5441,21.5049,0.055821,10.7443,21.5442,21.5049,0.0557084,21.4689,213,9.18794,14.6665,0.35,13553
2.34333e-07,-4.60362e-08,-2.09105e-06,-8.13413e-05,-2.82342e-05,-0.0152835,21.445,21.5198,0.0494013,10.7356,21.5202,21.4449,0.0490424,21.4336,213,4.78124,12.2156,0.35,13554
2.75496e-07,-6.41041e-08,-2.08897e-06,-9.39559e-05,-3.17639e-05,-0.0152822,21.4028,21.4903,0.0266993,10.7323,21.4908,21.4028,0.0262329,21.4207,213,4.29074,12.8307,0.35,13555
-1.3571e-07,1.91964e-07,-2.0923e-06,-5.23895e-05,-6.78961e-05,-0.0152864,21.4634,21.4416,0.0228989,10.721,21.4646,21.4408,0.0225331,21.4302,213,13.9717,5.27495,0.35,13556
-1.11886e-06,8.89456e-08,-1.99635e-06,-0.000655498,-3.70752e-05,-0.0150537,20.0569,20.9273,-0.207226,11.1668,21.5271,20.0565,-0.80656,21.6358,213,19.5523,7.30764,0.35,13557
1.10373e-06,9.05076e-08,-1.99767e-06,-0.000480462,-3.65267e-05,-0.0151533,20.4281,21.0529,-0.222499,11.2847,21.6998,20.4284,-0.869637,21.9613,213,0.547658,7.30764,0.35,13558
3.52415e-07,-5.94086e-08,-2.08888e-06,-0.00011887,-3.01899e-05,-0.0152999,21.3004,21.4252,-0.0654959,10.7462,21.426,21.3004,-0.0662953,21.4298,213,3.5759,12.6934,0.35,13559
2.94187e-07,-8.80022e-08,-2.08779e-06,-0.000100433,-3.70892e-05,-0.0152795,21.3788,21.468,0.015742,10.7268,21.4686,21.3788,0.0151325,21.4087,213,4.07836,13.527,0.35,13560
3.27562e-07,-3.00532e-07,-2.08853e-06,-0.000110054,-0.000107695,-0.0152582,21.2684,21.2718,-0.051234,10.6757,21.295,21.2503,-0.0563754,21.3291,213,3.43235,16.9424,0.35,13561
-2.19842e-07,-7.78188e-08,-2.09343e-06,-7.79928e-05,-3.50793e-05,-0.0153139,21.3941,21.4545,-0.0490566,10.752,21.4547,21.3941,-0.0492833,21.4738,213,15.197,13.2071,0.35,13562
5.60989e-07,6.99819e-08,-2.11544e-06,-0.000202547,-3.29188e-05,-0.0152943,21.05,21.2887,-0.190262,10.746,21.2953,21.05,-0.196808,21.3705,213,2.1967,7.66162,0.35,13563
1.50024e-10,1.01135e-07,-2.09817e-06,-2.703e-05,-4.24567e-05,-0.0153296,21.5116,21.4899,-0.0253422,10.7685,21.5117,21.4899,-0.0253993,21.5262,213,10.0483,7.0581,0.35,13564
1.98296e-08,8.2526e-08,-2.0986e-06,-2.85515e-05,-3.67068e-05,-0.0153299,21.5158,21.5043,-0.0194982,10.7677,21.5159,21.5043,-0.0195363,21.5296,213,9.34518,7.52203,0.35,13565
-2.25034e-08,2.35826e-07,-2.09001e-06,-2.75842e-05,-7.99434e-05,-0.0152746,21.5386,21.4649,0.0798649,10.7297,21.539,21.4648,0.0795846,21.4224,213,10.91,4.78846,0.35,13566
-3.87534e-07,-3.81784e-08,-2.10097e-06,-0.000129253,-2.67917e-05,-0.0153772,21.1474,21.2916,-0.31264,10.8023,21.2918,21.1474,-0.31284,21.5328,213,16.8458,11.9187,0.35,13567
3.93272e-07,-3.77267e-08,-2.08997e-06,-0.000131224,-2.59783e-05,-0.0153534,21.1818,21.33,-0.241947,10.7871,21.3311,21.1818,-0.243033,21.4999,213,3.25811,11.9178,0.35,13568
-4.07072e-07,6.9119e-08,-2.10405e-06,-0.000134049,-3.31338e-05,-0.0154105,21.0678,21.2098,-0.432393,10.8217,21.2104,21.0677,-0.432951,21.5724,213,17.0315,7.6961,0.35,13569
6.58644e-08,-2.07316e-07,-2.09033e-06,-3.49668e-05,-7.30576e-05,-0.0153326,21.4323,21.3787,-0.0976721,10.7656,21.4331,21.3783,-0.0980383,21.5038,213,7.6895,15.6333,0.35,13570
-1.32738e-07,1.35219e-07,-2.09441e-06,-5.13817e-05,-5.10789e-05,-0.0153075,21.4595,21.4599,-0.0119926,10.7378,21.4634,21.4562,-0.0122423,21.4721,213,13.8685,6.23298,0.35,13571
2.59682e-07,2.51871e-08,-2.0824e-06,-9.0771e-05,-2.503e-05,-0.0152396,21.4936,21.5861,0.172993,10.7072,21.5868,21.4935,0.17234,21.368,213,4.5233,9.29755,0.35,13572
1.02288e-06,-2.25948e-07,-2.00768e-06,-0.000665167,-6.98817e-05,-0.0151748,19.7749,20.6127,-0.646033,10.9936,20.9768,19.7751,-1.01034,21.4116,213,0.655674,15.8276,0.35,13573
-1.0106e-06,3.14522e-07,-2.00006e-06,-0.00065012,-9.23761e-05,-0.0151785,19.7777,20.5627,-0.669602,10.9792,20.926,19.7772,-1.03236,21.4071,213,19.4443,3.67244,0.35,13574
1.00886e-06,3.14066e-07,-1.9993e-06,-0.000663908,-9.32004e-05,-0.0151609,19.7632,20.5664,-0.639915,10.9476,20.9108,19.7633,-0.984374,21.3445,213,0.655674,3.67244,0.35,13575
-1.02467e-06,-2.25883e-07,-2.00906e-06,-0.000667761,-7.01689e-05,-0.015173,19.7693,20.6104,-0.645474,10.9915,20.9739,19.7694,-1.00911,21.4062,213,19.4443,15.8276,0.35,13576
3.06606e-07,6.26271e-08,-2.08477e-06,-0.000102676,-3.1413e-05,-0.0153099,21.3314,21.4317,-0.0712936,10.7523,21.4326,21.3312,-0.0719556,21.454,213,3.98581,7.92834,0.35,13577
2.25109e-07,1.16479e-08,-2.08608e-06,-8.14782e-05,-2.30356e-05,-0.0152573,21.4962,21.5784,0.13764,10.7209,21.5789,21.4962,0.137133,21.4005,213,4.94331,9.87713,0.35,13578
2.23959e-07,-3.8472e-07,-2.10565e-06,-8.04397e-05,-8.98509e-05,-0.0154185,21.125,21.1117,-0.461838,10.8181,21.1611,21.089,-0.475177,21.6003,213,4.41318,17.5278,0.35,13579
-9.73593e-07,4.26512e-07,-2.01745e-06,-0.000436711,-0.000133606,-0.0151293,20.4416,20.8682,-0.23686,11.0105,21.327,20.4399,-0.693975,21.5911,213,19.4443,2.69744,0.35,13580
1.96174e-07,-6.78436e-07,-2.09428e-06,-7.57378e-05,-0.000478893,-0.0150964,21.0293,20.4619,-0.110883,11.0176,21.4784,20.4588,-0.55686,21.5436,213,4.50329,18.6504,0.35,13581
9.38738e-07,3.93636e-09,-2.07248e-06,-0.000580668,-2.54775e-05,-0.0150909,20.2431,21.0245,-0.178767,10.7769,21.1997,20.2431,-0.353981,21.0917,213,0.967271,10.1293,0.35,13582
1.19428e-07,7.7469e-08,-2.09699e-06,-4.84081e-05,-3.60887e-05,-0.0153199,21.4728,21.4901,-0.0203776,10.7555,21.4906,21.4725,-0.0205089,21.502,213,6.56448,7.5958,0.35,13583
-1.98281e-07,1.20278e-07,-2.09149e-06,-6.96482e-05,-4.72095e-05,-0.0153,21.4225,21.4541,-0.0127807,10.734,21.4549,21.422,-0.0130654,21.4515,213,14.9361,6.49479,0.35,13584
5.19752e-08,6.51184e-08,-2.09895e-06,-3.20067e-05,-3.31558e-05,-0.0153331,21.506,21.5044,-0.0288607,10.7678,21.5067,21.5037,-0.028902,21.5341,213,8.2885,8.00709,0.35,13585
6.65244e-07,2.50633e-07,-2.12248e-06,-0.000162366,-8.34301e-05,-0.0151836,21.2713,21.3824,0.130334,10.6539,21.41,21.2716,0.102344,21.2388,213,1.59727,4.27402,0.35,13586
1.36574e-07,-4.19038e-08,-2.09683e-06,-5.47038e-05,-2.78877e-05,-0.015318,21.4702,21.5079,-0.0114757,10.7599,21.5081,21.4701,-0.0116157,21.5008,213,6.25704,12.0431,0.35,13587
-1.89802e-08,1.22237e-07,-2.09789e-06,-2.77638e-05,-4.77265e-05,-0.0153267,21.5055,21.4774,-0.026287,10.766,21.5056,21.4774,-0.0263963,21.5179,213,10.748,6.5879,0.35,13588
-3.05857e-07,-4.19611e-08,-2.09253e-06,-0.000101255,-2.77867e-05,-0.0153004,21.3573,21.4607,-0.034046,10.7477,21.4611,21.3573,-0.0343869,21.4437,213,16.1309,12.056,0.35,13589
-2.69758e-07,-2.64743e-08,-2.08749e-06,-9.16625e-05,-2.42825e-05,-0.0152661,21.4487,21.5435,0.0921116,10.7267,21.5446,21.4485,0.09121,21.4055,213,15.7151,11.4585,0.35,13590
1.9499e-07,2.46718e-08,-2.0891e-06,-7.00619e-05,-2.51332e-05,-0.0152791,21.4918,21.555,0.0864817,10.7345,21.5553,21.4918,0.0862012,21.4374,213,5.3308,9.34146,0.35,13591
4.12642e-07,6.87063e-08,-2.09538e-06,-0.000134007,-3.26489e-05,-0.0153406,21.1834,21.326,-0.21856,10.7739,21.3276,21.1833,-0.220088,21.4759,213,3.06853,7.6961,0.35,13592
-1.02012e-06,1.00978e-06,-1.85756e-06,-0.000639923,-0.000626592,-0.0151657,18.9526,18.9713,-1.49111,11.362,20.0822,18.9924,-2.64182,22.1992,213,19.7324,0.484385,0.35,13593
1.03425e-06,1.02191e-06,-1.85692e-06,-0.000653821,-0.000638021,-0.0150997,18.9999,19.0221,-1.3313,11.2584,20.0745,19.0586,-2.44241,22.0265,213,0.367583,0.484385,0.35,13594
1.06731e-06,3.33609e-08,-2.01274e-06,-0.000614384,-2.40835e-05,-0.0150465,20.2155,21.0463,-0.0962962,10.9709,21.4462,20.2148,-0.495497,21.3526,213,0.716167,9.06465,0.35,13595
7.68112e-07,7.34265e-08,-2.12143e-06,-0.000347237,-3.48546e-05,-0.0151537,20.8365,21.2761,-0.0022157,10.6921,21.3291,20.8365,-0.0551838,21.1423,213,1.36383,7.59729,0.35,13596
-8.50061e-07,5.442e-07,-2.09919e-06,-0.000349506,-0.000209656,-0.0152109,20.4486,20.6455,-0.467355,10.8747,20.9629,20.4504,-0.78651,21.4977,213,19.2524,1.93754,0.35,13597
1.41836e-07,-2.02437e-08,-2.09625e-06,-5.61573e-05,-2.43512e-05,-0.015312,21.4814,21.5262,0.0102601,10.7581,21.5264,21.4814,0.0101082,21.4938,213,6.18251,11.2171,0.35,13598
-1.06484e-06,6.78143e-07,-1.97836e-06,-0.000536071,-0.000267586,-0.0151331,19.9123,20.2902,-0.63167,11.5248,21.3453,19.9298,-1.70424,22.3754,213,19.7324,1.45939,0.35,13599
-6.45901e-07,-2.90362e-07,-2.12217e-06,-0.000234804,-9.22174e-05,-0.0152133,20.9872,21.1879,-0.0936499,10.6789,21.2281,20.983,-0.129707,21.2363,213,18.4967,16.815,0.35,13600
3.74543e-08,-3.02377e-08,-1.69471e-06,-2.96016e-05,-2.68087e-05,-0.000287483,37.8547,38.2649,-0.0216522,19.147,38.2721,37.8476,-0.0217863,38.0834,213,8.73639,11.5848,0.25,13601
1.80461e-08,-1.97499e-08,-1.69466e-06,-2.86683e-05,-2.50515e-05,-0.000288648,38.1343,38.6655,-0.0501952,19.3582,38.666,38.1341,-0.050488,38.4533,213,9.41109,11.1774,0.25,13602
4.24233e-08,-9.09675e-09,-1.69463e-06,-3.01485e-05,-2.41114e-05,-0.000288234,37.9051,38.7918,-0.00127409,19.3967,38.792,37.9049,-0.0013165,38.3575,213,8.58226,10.7534,0.25,13603
3.23994e-08,-5.41017e-08,-1.69442e-06,-2.89638e-05,-2.9988e-05,-0.000286299,37.8215,37.671,0.0253598,18.9089,37.8428,37.6502,0.0248618,37.722,213,8.88709,12.4244,0.25,13604
1.50543e-08,-7.03034e-08,-1.6941e-06,-2.74765e-05,-3.40589e-05,-0.000285695,37.8549,36.8881,-0.0709643,18.9639,37.8563,36.8872,-0.0714946,37.4527,213,9.49696,12.9216,0.25,13605
1.35473e-08,-4.20752e-08,-1.69467e-06,-2.79556e-05,-2.82277e-05,-0.000287511,38.115,38.0751,-0.00719825,19.0629,38.1182,38.0723,-0.00760025,38.1029,213,9.56179,12.0171,0.25,13606
7.12306e-08,-8.06191e-08,-1.69359e-06,-3.54429e-05,-3.67709e-05,-0.000281394,36.0887,35.8937,-0.0354121,18.1322,36.2275,35.7564,-0.036897,36.0311,213,7.66277,13.2491,0.25,13607
9.73626e-08,-1.03948e-07,-1.69275e-06,-4.33236e-05,-4.17511e-05,-0.0002761,34.224,34.4549,0.0348988,17.3094,34.6512,34.0301,0.0324271,34.3125,213,6.96609,13.869,0.25,13608
5.17623e-08,-1.1471e-07,-1.69192e-06,-3.04373e-05,-4.47156e-05,-0.000279962,36.6831,34.586,0.0342649,18.3359,36.7043,34.5666,0.0324998,35.651,213,8.20396,14.0711,0.25,13609
-7.27321e-08,1.03416e-07,-1.6936e-06,-3.6773e-05,-4.08178e-05,-0.00027925,35.5912,34.9971,-0.0227024,17.8344,35.6441,34.9463,-0.0247722,35.3251,213,12.4791,6.93052,0.25,13610
-5.52265e-08,6.27931e-08,-1.69413e-06,-3.24979e-05,-3.26607e-05,-0.000284145,36.9236,36.8997,-0.0370376,18.5413,37.0448,36.7793,-0.0378331,36.9506,213,11.9386,8.04876,0.25,13611
-4.35087e-08,9.88423e-08,-1.69406e-06,-3.02755e-05,-3.99667e-05,-0.000282056,36.9701,35.5467,-0.0101902,18.4972,36.9829,35.5352,-0.011435,36.2921,213,11.6029,7.06322,0.25,13612
7.11509e-08,2.2618e-07,-1.68883e-06,-3.56568e-05,-7.8211e-05,-0.000263279,33.8572,27.6071,0.425203,16.7318,33.8848,27.5834,0.421234,30.8002,213,7.56519,4.82134,0.25,13613
1.02736e-07,2.35133e-07,-1.68718e-06,-4.2495e-05,-8.08687e-05,-0.000263034,31.9882,26.3521,-0.40347,16.2164,32.0229,26.3239,-0.409974,29.9922,213,6.74806,4.68079,0.25,13614
9.34808e-08,3.12353e-07,-1.68607e-06,-4.00264e-05,-0.000106169,-0.000252013,31.2469,21.5323,0.111415,15.5914,31.2782,21.5171,0.0953171,27.6274,213,6.93043,3.86159,0.25,13615
-8.54135e-08,8.92052e-07,-1.64411e-06,-3.67174e-05,-0.000287132,-0.000186101,21.2889,-15.4908,-0.651769,18.9813,22.4666,-1.82422,-15.4961,33.3026,213,12.9394,0.734755,0.25,13616
-6.50232e-08,6.82342e-07,-1.72695e-06,-3.15667e-05,-0.000231354,-0.000220338,24.5401,-4.80366,-3.18562,14.7838,24.756,-3.39375,-4.81147,28.8848,213,12.4315,1.54614,0.25,13617
-9.26407e-08,7.01424e-07,-1.72745e-06,-3.77096e-05,-0.000238214,-0.000206335,23.7314,-5.71766,-1.0354,14.9337,24.1444,-1.44302,-5.72301,27.974,213,13.2479,1.44758,0.25,13618
5.04436e-07,-3.38876e-08,-1.70289e-06,-0.000160879,-2.58315e-05,-0.000248978,9.99366,29.8287,-2.94595,16.401,29.8383,10.0017,-2.9636,28.6143,213,2.47286,11.761,0.25,13619
5.60422e-07,-5.81105e-08,-1.70902e-06,-0.000188256,-2.85524e-05,-0.000227817,5.13727,28.5938,-0.673216,14.6814,28.6415,5.13763,-0.721319,26.916,213,2.13244,12.6123,0.25,13620
4.28378e-07,-5.81754e-08,-1.69175e-06,-0.000138595,-2.83834e-05,-0.000245208,15.4632,31.6505,-0.195563,15.9498,31.6782,15.4614,-0.221457,27.6272,213,2.94396,12.6708,0.25,13621
-6.65167e-08,-5.88511e-07,-1.70017e-06,-2.94541e-05,-0.000215729,-0.000221253,26.4227,-0.936493,-1.74785,14.8716,27.2139,-0.946237,-2.5293,28.9841,213,12.9072,18.7488,0.25,13622
-7.98417e-08,-4.61291e-07,-1.72155e-06,-3.47794e-05,-0.000148376,-0.000243073,29.3986,12.7141,-1.19449,15.4574,29.5798,12.6733,-1.33495,26.8122,213,13.2143,18.0462,0.25,13623
-5.67784e-08,-4.48036e-07,-1.71827e-06,-2.79795e-05,-0.000142991,-0.000253229,30.5871,13.6948,-2.49636,16.5984,30.6663,13.6498,-2.53056,28.7524,213,12.4406,17.9307,0.25,13624
1.23963e-07,1.27244e-07,-1.69221e-06,-4.87367e-05,-4.82465e-05,-0.000272146,32.6855,32.7575,-0.12781,16.5944,33.059,32.386,-0.12979,32.8574,213,6.37824,6.35602,0.25,13625
1.57235e-07,1.54189e-07,-1.69064e-06,-5.81003e-05,-5.56427e-05,-0.000264864,30.4244,30.7854,0.0560286,15.5382,31.1238,30.0946,0.0474383,30.5748,213,5.72325,5.80714,0.25,13626
1.25988e-07,1.8169e-07,-1.69019e-06,-4.8919e-05,-6.54677e-05,-0.000264629,31.7347,29.3041,0.052272,15.8891,31.8233,29.2228,0.0450105,30.5611,213,6.2879,5.39204,0.25,13627
-1.48164e-07,-2.25092e-08,-1.69016e-06,-5.70362e-05,-2.45118e-05,-0.000277648,32.3949,37.1719,-0.00745621,18.5932,37.1767,32.3923,-0.0096586,35.04,213,14.0751,11.3172,0.25,13628
-2.08859e-07,-3.36688e-08,-1.68785e-06,-7.13972e-05,-2.49327e-05,-0.000272037,29.4285,36.2529,-0.0405472,18.1543,36.264,29.4214,-0.0445717,33.4169,213,15.0338,11.7581,0.25,13629
-1.79796e-07,-7.98084e-09,-1.68618e-06,-6.43765e-05,-2.40257e-05,-0.000274671,30.9544,36.881,0.0674535,18.4104,36.8848,30.9542,0.0638623,34.243,213,14.5847,10.7132,0.25,13630
5.31997e-07,5.17542e-07,-1.73455e-06,-0.000181592,-0.000171412,-0.000164406,-0.686637,0.808523,1.83756,4.39365,6.12324,-1.49973,-2.66407,8.26687,213,1.90619,2.01633,0.25,13631
3.93218e-07,5.48198e-07,-1.71721e-06,-0.000131525,-0.000189504,-0.000186889,7.55393,-0.961715,-0.577562,5.10909,8.7271,-1.22136,-1.49108,10.086,213,2.7937,1.90337,0.25,13632
4.22905e-07,4.12591e-07,-1.68111e-06,-0.000139948,-0.000134978,-0.000220565,7.47841,8.20835,-4.36221,6.79043,9.21724,6.47092,-4.36361,12.4372,213,2.65583,2.76178,0.25,13633
-4.02398e-07,2.14976e-08,-1.69371e-06,-0.000134668,-2.38401e-05,-0.000255811,15.8407,32.1185,-1.95213,17.0517,32.1354,15.8396,-1.96794,29.544,213,16.9513,9.41244,0.25,13634
-4.6211e-07,3.86874e-08,-1.70578e-06,-0.000150091,-2.51578e-05,-0.000258644,11.7459,30.0955,-4.19779,17.1573,30.1105,11.7372,-4.20407,29.7422,213,17.3813,8.72004,0.25,13635
-5.7086e-07,1.35753e-08,-1.72217e-06,-0.000193622,-2.35713e-05,-0.000223997,4.67019,29.6464,0.20879,14.8691,29.7893,4.68482,0.0512213,27.7134,213,18.002,9.75019,0.25,13636
5.82456e-07,4.01798e-07,-1.72016e-06,-0.000207537,-0.000132084,-0.000172819,-4.033,7.04913,1.06629,6.506,8.53935,0.0157195,-4.47265,11.4479,213,1.71426,2.77623,0.25,13637
-2.39884e-07,-7.72359e-09,-1.68283e-06,-8.18385e-05,-2.37265e-05,-0.000267186,27.4852,36.0204,0.2623,17.8867,36.0287,27.4839,0.255346,32.3584,213,15.4024,10.6929,0.25,13638
-2.43589e-08,1.19603e-07,-1.69376e-06,-2.79754e-05,-4.64913e-05,-0.000280643,37.0452,34.3257,-0.0653246,18.5581,37.0496,34.3227,-0.0667143,35.8308,213,10.9534,6.59999,0.25,13639
-2.65436e-08,7.92791e-08,-1.6942e-06,-2.87586e-05,-3.58893e-05,-0.000284307,37.5054,36.4581,-0.0283187,18.7687,37.5083,36.456,-0.0291647,37.0226,213,11.0128,7.57973,0.25,13640
-5.13382e-08,-2.63461e-07,-1.69179e-06,-3.01891e-05,-8.7615e-05,-0.000265682,34.0678,25.6334,-0.520253,17.3097,34.0921,25.6163,-0.52743,31.2557,213,12.0417,16.3687,0.25,13641
-2.96615e-08,-2.51373e-07,-1.69082e-06,-2.58844e-05,-8.46886e-05,-0.000266329,35.3154,26.6786,0.000113435,17.672,35.3339,26.6702,-0.00999758,31.9068,213,11.2587,16.2185,0.25,13642
-3.14805e-08,-3.3118e-07,-1.70217e-06,-2.45849e-05,-0.000113839,-0.000256299,33.8406,20.7314,-0.192379,17.0465,33.8746,20.7234,-0.218375,29.7812,213,11.382,17.0274,0.25,13643
3.85405e-07,-3.63324e-07,-1.71961e-06,-0.000137746,-0.00012115,-0.000210373,10.2525,12.6901,-0.414543,7.52786,14.4041,8.77551,-0.651587,13.1762,213,2.7937,17.5966,0.25,13644
5.3432e-07,-3.52258e-07,-1.74112e-06,-0.000192854,-0.000111698,-0.000184663,0.294257,12.214,1.49726,7.20762,13.3795,1.66181,-1.03576,13.2736,213,1.90619,17.4837,0.25,13645
4.28198e-07,-2.73604e-07,-1.70181e-06,-0.00014891,-8.99442e-05,-0.000227062,8.92633,17.5869,-2.55233,10.1948,17.8225,8.70547,-2.56704,17.6907,213,2.65583,16.7382,0.25,13646
5.95342e-07,-2.75879e-07,-1.72458e-06,-0.000212813,-8.964e-05,-0.000187587,-2.71416,15.3768,0.99079,9.41489,15.8763,0.730533,-2.95344,17.2848,213,1.71426,16.7238,0.25,13647
-1.39295e-08,-2.07239e-07,-1.6883e-06,-2.52583e-05,-7.20347e-05,-0.000271124,36.2005,29.3302,0.0889392,18.0602,36.206,29.328,0.0855899,33.2198,213,10.6174,15.6446,0.25,13648
-3.64048e-08,-1.96581e-07,-1.6893e-06,-2.77953e-05,-6.98729e-05,-0.000271011,35.8034,29.6232,0.0810794,17.8696,35.816,29.6148,0.0768016,33.0775,213,11.4547,15.5081,0.25,13649
-1.19047e-07,8.05041e-08,-1.6923e-06,-4.74838e-05,-3.62547e-05,-0.000276794,33.673,35.3223,-0.00700138,17.6887,35.3685,33.6288,-0.00896424,34.5405,213,13.5768,7.47438,0.25,13650
-1.80021e-07,7.00136e-08,-1.689e-06,-6.55588e-05,-3.29497e-05,-0.000271413,30.1407,34.9302,-0.0940287,17.526,34.952,30.1248,-0.0999334,32.905,213,14.6444,7.73619,0.25,13651
-1.3571e-07,5.39114e-08,-1.69102e-06,-5.20302e-05,-2.90544e-05,-0.000277461,33.1909,36.5655,0.0807271,18.2514,36.5815,33.1769,0.0787577,34.9251,213,13.8707,8.28228,0.25,13652
-1.53082e-07,-4.46732e-08,-1.6915e-06,-5.82172e-05,-2.75351e-05,-0.000276181,31.9656,36.472,-0.0478495,18.2674,36.4842,31.9563,-0.0507282,34.4946,213,14.1894,12.1624,0.25,13653
-1.3125e-07,-7.44959e-08,-1.69304e-06,-5.16083e-05,-3.45143e-05,-0.000275801,32.9372,35.4479,0.0088745,17.7325,35.4714,32.9163,0.00632457,34.259,213,13.8305,13.1175,0.25,13654
-1.00192e-07,-5.61608e-08,-1.69356e-06,-4.22534e-05,-2.99187e-05,-0.000281239,35.1069,36.9185,0.00594301,18.467,36.9384,35.0884,0.00449416,36.0446,213,13.1485,12.5295,0.25,13655
-2.49134e-07,3.07341e-07,-1.67576e-06,-8.8053e-05,-0.000102321,-0.000234887,21.6646,19.569,0.0983633,11.0457,22.1616,19.1001,0.0702113,20.7309,213,15.7961,3.75871,0.25,13656
-1.70055e-07,2.78495e-07,-1.68277e-06,-6.03831e-05,-9.38027e-05,-0.00024797,27.8881,22.9796,0.336173,13.8513,28.0238,22.8587,0.321282,25.5152,213,14.6993,4.12755,0.25,13657
-2.29905e-07,2.24856e-07,-1.6842e-06,-8.18421e-05,-7.9189e-05,-0.000246673,24.2177,24.6074,0.00825127,12.6873,25.3655,23.477,-0.00915311,24.4851,213,15.4934,4.68807,0.25,13658
6.34147e-08,6.70194e-07,-1.73792e-06,-3.16872e-05,-0.00022664,-0.000220211,24.9636,-3.67012,-2.72572,14.527,25.2383,-2.855,-3.81559,28.5857,213,7.7469,1.60726,0.25,13659
9.01949e-08,6.88083e-07,-1.72758e-06,-3.60757e-05,-0.000235185,-0.000210744,23.9951,-5.249,-1.6592,14.8155,24.3686,-2.01926,-5.26242,28.1499,213,6.93049,1.50875,0.25,13660
8.23537e-08,8.74341e-07,-1.65534e-06,-3.59584e-05,-0.000282366,-0.000192155,21.3509,-14.8402,-1.59056,18.618,22.3923,-2.62857,-14.8436,32.8768,213,7.239,0.795879,0.25,13661
2.92526e-08,-3.88887e-07,-1.71626e-06,-2.48724e-05,-0.000128369,-0.000244615,33.5056,18.3045,1.23089,16.1952,33.564,18.3035,1.17352,28.0665,213,8.76965,17.5027,0.25,13662
5.9665e-08,-3.36963e-07,-1.70438e-06,-3.07342e-05,-0.000117465,-0.000242421,33.3209,20.5823,2.22948,15.6116,33.3931,20.5698,2.16982,27.1835,213,7.70786,17.0968,0.25,13663
5.87847e-08,-2.4737e-07,-1.68877e-06,-3.16765e-05,-8.1984e-05,-0.000267691,34.0488,26.6599,-0.615815,17.3561,34.089,26.6272,-0.623252,31.6481,213,7.83309,16.187,0.25,13664
2.78946e-08,-2.87769e-07,-1.68982e-06,-2.50604e-05,-9.55789e-05,-0.000270424,34.1129,23.7555,-1.92485,18.0313,34.131,23.7441,-1.93158,32.1531,213,8.89489,16.5929,0.25,13665
-3.29948e-07,-1.60946e-07,-1.68007e-06,-0.000110393,-5.81696e-05,-0.000243579,19.6096,27.2799,0.0478555,13.6774,27.3844,19.5234,0.0295436,24.3936,213,16.5069,15.1652,0.25,13666
-4.3168e-07,-1.18108e-07,-1.69053e-06,-0.000147931,-4.38338e-05,-0.000236,12.636,27.9252,-0.299256,14.1619,27.9787,12.6283,-0.345057,24.5579,213,17.2326,14.3299,0.25,13667
-3.01116e-07,-1.10144e-07,-1.68498e-06,-0.000101655,-4.13289e-05,-0.000253776,22.3306,31.191,-0.0122262,15.6256,31.2288,22.303,-0.0224248,27.8813,213,16.1657,14.1381,0.25,13668
-8.82209e-07,-2.60623e-07,-1.61867e-06,-0.000284406,-8.49574e-05,-0.000159764,-16.8829,12.4112,1.42391,14.9964,13.0651,0.814691,-16.9276,26.1192,213,19.4443,16.3151,0.2875,13669
-1.02233e-06,-3.56338e-07,-1.38147e-06,-0.000249291,-0.000118438,-0.000165511,-12.1096,7.10951,0.195636,10.9237,9.53415,-2.02529,-12.3133,18.9311,213,20.125,17.0025,0.2125,13670
-1.0259e-06,-4.16282e-07,-1.40234e-06,-0.000271915,-0.000133595,-0.000148462,-17.3704,2.94543,0.761869,13.4848,9.36876,-5.4311,-17.6008,23.3933,213,20.125,17.49,0.25,13671
-8.38433e-07,-2.97724e-07,-1.63587e-06,-0.000272739,-9.56448e-05,-0.000179338,-16.9072,9.10356,-3.18883,13.3631,9.77748,-3.82123,-16.9487,23.1468,213,19.3693,16.7426,0.25,13672
-8.62032e-07,3.59636e-07,-1.61525e-06,-0.000279401,-0.000112147,-0.000151974,-17.4931,7.07234,1.22272,12.8456,8.17803,0.137057,-17.5131,22.7621,213,19.4443,3.18494,0.2875,13673
-8.19029e-07,4.10351e-07,-1.64331e-06,-0.000263923,-0.000129051,-0.000170759,-17.1089,2.70052,-3.42544,10.4126,3.6317,-4.27202,-17.1935,18.2088,213,19.3693,2.75744,0.25,13674
-9.98624e-07,4.71259e-07,-1.37307e-06,-0.000242002,-0.000145586,-0.00015678,-12.0792,2.08196,0.437779,9.30956,6.27054,-3.48141,-12.3486,16.1307,213,20.125,2.4975,0.2125,13675
-1.00564e-06,5.45066e-07,-1.40766e-06,-0.00026063,-0.00016579,-0.00014184,-17.0482,-3.11857,0.399048,11.7742,6.10525,-8.42981,-17.4432,20.5796,213,20.125,2.01,0.25,13676
7.58216e-08,1.99768e-07,-1.69026e-06,-3.66319e-05,-6.99308e-05,-0.000268933,33.8683,28.9776,-0.250916,17.0774,33.8959,28.9581,-0.259006,31.9733,213,7.45352,5.17585,0.25,13677
7.414e-08,1.40784e-07,-1.69281e-06,-3.63268e-05,-5.32029e-05,-0.000275086,34.93,32.4514,-0.137799,17.5508,34.9613,32.4226,-0.140249,33.9035,213,7.54386,6.13983,0.25,13678
4.8894e-08,1.92039e-07,-1.68978e-06,-2.96567e-05,-6.7029e-05,-0.000271465,35.5794,30.0903,0.0637601,17.7691,35.5959,30.0797,0.0578111,33.1263,213,8.27065,5.3164,0.25,13679
-1.44655e-07,-1.77118e-07,-1.68619e-06,-5.60647e-05,-6.16138e-05,-0.000264054,30.4313,29.6162,-0.117112,15.4723,30.821,29.233,-0.123554,30.1819,213,14.2273,15.3178,0.25,13680
-1.68033e-07,-2.43812e-07,-1.68211e-06,-6.14371e-05,-8.41897e-05,-0.000253586,28.0083,24.6665,-0.213536,14.2997,28.3672,24.3262,-0.232194,26.8083,213,14.7408,16.2779,0.25,13681
-1.88842e-07,-1.73778e-07,-1.68318e-06,-6.88502e-05,-6.02715e-05,-0.000258165,28.0342,29.2942,0.228663,14.7033,29.6275,27.7088,0.22084,28.4958,213,14.9386,15.309,0.25,13682
3.37483e-07,-6.1878e-08,-1.68721e-06,-0.000115028,-3.01728e-05,-0.000252812,20.2493,32.7124,0.0122212,16.3701,32.735,20.2442,-0.00524624,28.618,213,3.6588,12.8081,0.25,13683
3.5975e-07,-8.51141e-08,-1.68641e-06,-0.00012016,-3.60347e-05,-0.000248822,18.8409,31.1968,-0.0563823,15.6454,31.2242,18.8239,-0.0667234,27.2923,213,3.44641,13.5044,0.25,13684
4.20052e-08,-1.57268e-07,-1.68866e-06,-2.8366e-05,-5.88701e-05,-0.000274788,36.3416,31.8613,0.148326,18.1066,36.3576,31.8493,0.144334,34.1828,213,8.48633,14.8908,0.25,13685
2.33887e-08,-1.41533e-07,-1.6901e-06,-2.74322e-05,-5.32828e-05,-0.000278087,36.7798,32.983,-0.0350989,18.4115,36.7859,32.9789,-0.037105,35.0748,213,9.16081,14.5938,0.25,13686
-5.64794e-08,2.04262e-07,-1.69022e-06,-3.09211e-05,-6.985e-05,-0.00027036,35.1151,29.3974,-0.0525214,17.5939,35.1305,29.3868,-0.057326,32.6966,213,12.0775,5.12779,0.25,13687
-7.62255e-08,2.82827e-07,-1.68644e-06,-3.52201e-05,-9.80124e-05,-0.000257293,32.671,23.4483,0.0540406,16.3222,32.6895,23.4387,0.0451212,29.1418,213,12.7139,4.1696,0.25,13688
-8.44379e-08,2.12505e-07,-1.68979e-06,-3.85394e-05,-7.29847e-05,-0.000265898,33.4082,28.349,0.0149537,16.7142,33.4352,28.3302,0.00671795,31.1909,213,12.8961,4.98899,0.25,13689
8.62055e-07,3.6058e-07,-1.61417e-06,-0.000280004,-0.000112912,-0.000153003,-17.8057,6.73588,0.847537,12.803,7.77763,-0.171604,-17.8283,22.7004,213,0.655674,3.18494,0.2875,13690
9.99701e-07,4.70785e-07,-1.38091e-06,-0.000241271,-0.000144694,-0.000156119,-11.7584,2.4263,0.748224,9.40191,6.81746,-3.41498,-11.9864,16.3058,213,-0.025,2.4975,0.2125,13691
1.00778e-06,5.43937e-07,-1.41617e-06,-0.000261961,-0.000165704,-0.000139024,-17.097,-2.95917,0.959458,12.2456,6.9316,-8.46872,-17.5596,21.4433,213,-0.025,2.01,0.25,13692
8.18907e-07,4.11537e-07,-1.63976e-06,-0.000267665,-0.000128624,-0.000172448,-18.1261,2.29558,-4.14116,10.6567,3.1077,-4.87364,-18.2057,18.6509,213,0.730674,2.75744,0.25,13693
1.02225e-06,-3.56348e-07,-1.39263e-06,-0.000250399,-0.000117508,-0.000162963,-12.051,7.46745,0.791173,11.163,10.0546,-1.57563,-12.2714,19.3406,213,-0.025,17.0025,0.2125,13694
1.02665e-06,-4.16697e-07,-1.41165e-06,-0.00026938,-0.000133797,-0.00015147,-17.0612,2.85255,0.25684,13.2665,9.20985,-5.83858,-17.3231,23.0472,213,-0.025,17.49,0.25,13695
8.80164e-07,-2.61165e-07,-1.619e-06,-0.000282439,-8.60022e-05,-0.000163912,-16.8953,11.9563,0.513322,14.7356,12.5524,-0.0591052,-16.9189,25.6111,213,0.655674,16.3151,0.2875,13696
8.37169e-07,-2.9865e-07,-1.63565e-06,-0.000272254,-9.64909e-05,-0.000180108,-16.9417,8.87357,-3.40765,13.2562,9.52869,-4.02078,-16.9837,22.9623,213,0.730674,16.7426,0.25,13697
4.44329e-07,-1.78269e-08,-1.69273e-06,-0.000147922,-2.30871e-05,-0.000242851,13.9369,32.272,-0.00579217,16.1609,32.2941,13.9367,-0.0277127,28.0776,213,2.8699,11.1227,0.25,13698
3.77734e-07,-4.02203e-08,-1.687e-06,-0.000125635,-2.60905e-05,-0.000252153,18.1432,32.7638,-0.43915,16.615,32.7772,18.1435,-0.452791,28.8461,213,3.341,12.0325,0.25,13699
2.18803e-08,2.30498e-07,-1.68613e-06,-2.68025e-05,-7.90027e-05,-0.000270087,35.275,27.6081,-0.457326,17.8733,35.2839,27.6046,-0.462689,32.5927,213,9.21172,4.81324,0.25,13700
4.1202e-08,2.56045e-07,-1.68305e-06,-2.77995e-05,-8.91997e-05,-0.000261995,34.8386,25.8205,0.441147,17.2106,34.8541,25.8132,0.432925,30.9088,213,8.49242,4.49578,0.25,13701
2.51277e-08,-1.00668e-07,-1.69266e-06,-2.82466e-05,-4.13081e-05,-0.000282305,37.3091,35.3907,-0.00566608,18.6608,37.3145,35.3867,-0.00709888,36.396,213,9.12387,13.731,0.25,13702
-9.8444e-08,4.31504e-08,-1.69281e-06,-4.35827e-05,-2.72643e-05,-0.000281844,34.9789,37.3756,-0.0157931,18.7002,37.3833,34.9724,-0.0170845,36.2552,213,13.0765,8.67306,0.25,13703
-1.43555e-07,3.13624e-08,-1.68886e-06,-5.40243e-05,-2.61976e-05,-0.000277797,32.9473,37.0344,0.0806405,18.4824,37.0431,32.9409,0.0783785,35.0939,213,13.9903,9.0914,0.25,13704
8.14059e-08,-7.45011e-07,-1.6242e-06,-3.16572e-05,-0.000261934,-0.000186801,24.7947,-9.02723,2.00799,18.9662,28.8704,-2.03286,-9.06206,34.952,213,6.66591,19.425,0.25,13705
9.68301e-08,-7.24899e-07,-1.61813e-06,-3.5721e-05,-0.000269653,-0.000185938,23.1773,-11.1815,1.11412,19.0409,26.8767,-2.56166,-11.2052,34.5801,213,6.20455,19.425,0.2125,13706
-3.44285e-08,2.48263e-08,-1.6943e-06,-3.05694e-05,-2.52669e-05,-0.000287764,37.7399,38.5187,-0.0355716,19.2776,38.5194,37.7395,-0.0358371,38.1712,213,11.2549,9.39603,0.25,13707
-6.61696e-08,3.52406e-08,-1.69382e-06,-3.43554e-05,-2.58392e-05,-0.000285852,36.9552,38.206,0.0165344,19.0985,38.2129,36.9489,0.0159501,37.5809,213,12.2421,8.98339,0.25,13708
-3.70009e-08,4.73961e-08,-1.69424e-06,-3.06615e-05,-2.87254e-05,-0.000286442,37.5181,37.8025,-0.0496147,18.9349,37.8198,37.5013,-0.0500667,37.7116,213,11.3485,8.56527,0.25,13709
1.11e-07,1.08678e-06,-1.42804e-06,-4.37504e-05,-0.000276249,-0.000192103,20.0548,-14.0935,-1.73446,18.1293,22.1604,-3.83543,-14.0981,32.3712,213,6.66591,0.075,0.25,13710
1.32521e-07,1.05942e-06,-1.42037e-06,-4.91381e-05,-0.000235022,-0.000200103,21.8655,-5.43632,-0.307467,13.7595,22.0752,-0.509763,-5.44373,25.4138,213,6.20455,0.075,0.2125,13711
-5.66733e-08,-3.40896e-07,-1.703e-06,-2.96511e-05,-0.000118735,-0.000250786,32.6807,19.5965,0.201457,16.2843,32.7343,19.5786,0.165717,28.3782,213,12.3173,17.125,0.25,13712
-3.6917e-08,-4.28742e-07,-1.71841e-06,-2.44004e-05,-0.000140754,-0.000237636,33.1136,16.0241,1.79459,15.7881,33.2418,16.0248,1.66568,27.383,213,11.6576,17.7837,0.25,13713
-3.22337e-08,-1.10669e-07,-1.69276e-06,-2.90685e-05,-4.40243e-05,-0.000280643,37.0131,34.8164,0.0631004,18.4784,37.019,34.8114,0.0621494,35.904,213,11.2398,13.9685,0.25,13714
-3.05757e-09,-1.27657e-07,-1.69157e-06,-2.52253e-05,-5.01783e-05,-0.000279898,37.4311,33.7662,0.0260567,18.7049,37.4335,33.766,0.0238075,35.7175,213,10.174,14.3185,0.25,13715
-2.07961e-08,-1.64003e-07,-1.68969e-06,-2.7001e-05,-5.92946e-05,-0.000276025,36.5143,31.7712,-0.0610789,18.2922,36.5207,31.7674,-0.0636761,34.4545,213,10.8614,14.9942,0.25,13716
-5.18965e-08,-1.42934e-07,-1.69081e-06,-3.04972e-05,-5.27667e-05,-0.000277235,36.1711,32.9002,-0.0685879,18.1311,36.1901,32.8848,-0.0721051,34.7277,213,11.9272,14.6441,0.25,13717
1.88252e-07,1.1072e-07,-1.6895e-06,-6.76378e-05,-4.4249e-05,-0.000265845,29.1054,32.5406,-0.00635329,16.3078,32.6015,29.0524,-0.0141844,30.9939,213,5.2896,6.66608,0.25,13718
5.08999e-07,-8.92589e-08,-1.70048e-06,-0.000168407,-3.78036e-05,-0.000225721,9.23902,28.4214,0.82097,13.8862,28.505,9.2439,0.732538,24.6449,213,2.40502,13.5912,0.25,13719
-1.1047e-07,1.08803e-06,-1.42317e-06,-4.40762e-05,-0.000276205,-0.000187548,20.4063,-13.6876,-0.666052,18.0876,22.4852,-2.74253,-13.6901,32.1321,213,13.4341,0.075,0.25,13720
-1.32279e-07,1.05997e-06,-1.41697e-06,-4.93882e-05,-0.000233878,-0.000200813,21.8459,-5.25102,-0.394639,13.6177,21.9782,-0.520636,-5.2573,25.2032,213,13.8955,0.075,0.2125,13721
-4.16755e-07,-3.25805e-08,-1.70018e-06,-0.00013749,-2.56105e-05,-0.000245099,15.9981,32.4304,0.19307,16.1531,32.464,15.9998,0.15773,27.9798,213,17.071,11.7157,0.25,13722
-4.80907e-07,-8.28513e-09,-1.70747e-06,-0.000161454,-2.23879e-05,-0.000233517,11.6222,32.0476,1.03797,15.5269,32.0688,11.624,1.01499,27.3393,213,17.4843,10.692,0.25,13723
-3.67392e-07,-1.68112e-08,-1.6924e-06,-0.000120302,-2.32037e-05,-0.000254859,19.4418,33.7031,-0.3213,17.0262,33.7173,19.4415,-0.335194,29.6183,213,16.6779,11.0784,0.25,13724
-1.09265e-06,-2.20056e-07,-1.40184e-06,-0.00028027,-7.37301e-05,-0.000175317,-16.2932,14.0424,-0.878132,16.7819,17.2639,-4.09295,-16.2999,29.425,213,20.125,15.555,0.25,13725
-1.08261e-06,-1.85221e-07,-1.38104e-06,-0.000273733,-6.628e-05,-0.000173662,-13.8709,16.5988,0.827109,16.2205,18.5196,-1.04316,-13.9214,28.2928,213,20.125,15.0675,0.2125,13726
-8.62368e-07,-1.38044e-07,-1.66217e-06,-0.00028537,-4.925e-05,-0.000187089,-16.3309,18.3492,-1.89585,17.4791,18.5918,-2.10297,-16.3664,30.445,213,19.2584,14.5109,0.2875,13727
-8.2552e-07,-1.60413e-07,-1.66965e-06,-0.000267192,-5.69233e-05,-0.000190517,-12.9998,17.8835,-1.73814,15.6578,18.2928,-2.12434,-13.0229,27.5346,213,19.1834,14.9534,0.25,13728
1.9186e-07,2.85482e-08,-1.68674e-06,-6.88267e-05,-2.52999e-05,-0.000273192,29.9041,36.297,-0.112069,18.211,36.3045,29.9021,-0.117523,33.6803,213,5.32022,9.17314,0.25,13729
1.49688e-07,3.373e-08,-1.69084e-06,-5.64426e-05,-2.64498e-05,-0.000277026,32.4146,36.8198,0.0165122,18.4055,36.8256,32.4105,0.0147322,34.814,213,5.99285,8.99383,0.25,13730
1.64952e-07,1.46448e-08,-1.68927e-06,-6.02849e-05,-2.3486e-05,-0.000276591,31.8088,37.2136,0.0387542,18.5902,37.2166,31.8084,0.0362342,34.7929,213,5.74022,9.75272,0.25,13731
-8.43714e-07,1.99666e-07,-1.6572e-06,-0.000277053,-6.63414e-05,-0.000181417,-15.3994,15.5489,-1.35282,15.5896,15.7528,-1.5297,-15.4265,27.0551,213,19.2584,4.98908,0.2875,13732
-8.07953e-07,2.29754e-07,-1.66361e-06,-0.000262958,-7.59241e-05,-0.000184244,-13.1718,14.2989,-1.61065,13.9898,14.7724,-2.04872,-13.2072,24.396,213,19.1834,4.54658,0.25,13733
-1.0603e-06,2.5756e-07,-1.38389e-06,-0.000270151,-8.56049e-05,-0.000168121,-14.2984,12.8068,0.687216,14.8244,15.3001,-1.7556,-14.3488,25.7735,213,20.125,4.4325,0.2125,13734
-1.07087e-06,3.03148e-07,-1.37951e-06,-0.00027668,-9.11059e-05,-0.000170616,-16.6149,10.6413,-1.03666,15.4764,14.3183,-4.69415,-16.6344,27.0381,213,20.125,3.945,0.25,13735
3.58106e-08,6.8844e-08,-1.69427e-06,-2.95425e-05,-3.39341e-05,-0.000284395,37.4915,36.8465,0.060016,18.7227,37.5044,36.8347,0.0589151,37.1152,213,8.78333,7.87572,0.25,13736
5.86003e-08,9.33871e-08,-1.69391e-06,-3.36744e-05,-3.85111e-05,-0.000281611,36.3309,35.6205,-0.0847273,18.2241,36.3622,35.5905,-0.0860583,36.0686,213,8.03893,7.18865,0.25,13737
3.27859e-08,9.84962e-08,-1.69372e-06,-2.87435e-05,-4.02896e-05,-0.000282405,37.2755,35.5797,0.0188912,18.6323,37.2824,35.574,0.0176886,36.4406,213,8.86312,7.0753,0.25,13738
1.08248e-06,-1.85581e-07,-1.38576e-06,-0.000274404,-6.57558e-05,-0.000173719,-13.9884,16.6568,0.799691,16.2824,18.5228,-1.01276,-14.042,28.3889,213,-0.025,15.0675,0.2125,13739
1.09152e-06,-2.1998e-07,-1.40687e-06,-0.000280904,-7.35006e-05,-0.000173963,-16.2974,14.165,-0.590369,16.8524,17.3991,-3.8161,-16.3057,29.5135,213,-0.025,15.555,0.25,13740
8.24926e-07,-1.60574e-07,-1.66997e-06,-0.000267477,-5.69529e-05,-0.000190953,-13.1117,17.809,-1.87222,15.6541,18.1889,-2.24447,-13.1193,27.5317,213,0.916592,14.9534,0.25,13741
8.6219e-07,-1.38563e-07,-1.66505e-06,-0.000285332,-4.92833e-05,-0.000189995,-16.5967,18.073,-2.59393,17.458,18.2786,-2.75893,-16.6373,30.4492,213,0.841592,14.5109,0.2875,13742
8.43923e-07,2.00237e-07,-1.65908e-06,-0.000277168,-6.65504e-05,-0.000182872,-15.5826,15.3519,-1.73279,15.5741,15.5329,-1.88106,-15.6153,27.0378,213,0.841592,4.98908,0.2875,13743
1.06023e-06,2.57497e-07,-1.38096e-06,-0.00027004,-8.57446e-05,-0.000168227,-14.2945,12.7738,0.659235,14.7739,15.1901,-1.69384,-14.3577,25.676,213,-0.025,4.4325,0.2125,13744
1.07099e-06,3.02844e-07,-1.37843e-06,-0.000275098,-9.12536e-05,-0.000169934,-16.1847,10.8174,-0.738723,15.3767,14.5535,-4.45963,-16.1999,26.8803,213,-0.025,3.945,0.25,13745
8.08355e-07,2.30416e-07,-1.66439e-06,-0.000262233,-7.60264e-05,-0.000185273,-13.1033,14.2459,-1.79965,13.898,14.6585,-2.17806,-13.1375,24.2507,213,0.916592,4.54658,0.25,13746
-1.11929e-06,-2.62535e-08,-1.3999e-06,-0.00028894,-2.87743e-05,-0.00018533,-15.1109,23.101,0.10684,19.9595,24.7925,-1.56908,-15.1265,35.1586,213,20.125,11.1975,0.2125,13747
-1.13582e-06,-3.97535e-08,-1.42429e-06,-0.000291506,-2.69851e-05,-0.000198169,-16.7603,22.0912,-3.05142,20.4813,24.184,-5.12606,-16.7785,36.5567,213,20.125,11.685,0.25,13748
-8.16171e-07,-1.77684e-08,-1.68198e-06,-0.00026629,-2.47459e-05,-0.000202488,-10.8942,24.5826,-1.52329,17.8941,24.8933,-1.83331,-10.8949,32.2275,213,19.0577,11.0893,0.25,13749
-8.46851e-07,-6.41249e-09,-1.67098e-06,-0.000279713,-2.26666e-05,-0.000194798,-13.2072,24.5464,-0.735404,18.9369,24.6583,-0.838959,-13.2156,33.4494,213,19.1327,10.6168,0.2875,13750
6.51922e-08,-5.79597e-07,-1.70109e-06,-2.8877e-05,-0.000211732,-0.000226546,26.4403,-0.416509,-2.59226,15.0656,26.9874,-0.412017,-3.14383,28.8624,213,7.24197,18.7037,0.25,13751
5.70421e-08,-4.41121e-07,-1.72087e-06,-2.85537e-05,-0.000141944,-0.000252945,30.5734,13.9193,-2.384,16.5483,30.6617,13.8819,-2.43485,28.6634,213,7.67884,17.89,0.25,13752
7.96995e-08,-4.59072e-07,-1.72007e-06,-3.38609e-05,-0.000151665,-0.000235805,29.9913,12.6889,0.330815,15.0161,30.202,12.6392,0.169851,26.1329,213,6.90722,18.032,0.25,13753
-1.04999e-07,-3.30537e-08,-1.69309e-06,-4.37499e-05,-2.6893e-05,-0.000282402,34.9212,37.3971,-0.130816,18.7682,37.4046,34.9147,-0.131793,36.3554,213,13.2307,11.7215,0.25,13754
-9.96786e-08,-1.27036e-08,-1.69289e-06,-4.25954e-05,-2.3754e-05,-0.000283536,35.3862,38.1535,-0.00192866,19.0791,38.1554,35.3852,-0.00276882,36.8512,213,13.0897,10.9162,0.25,13755
2.43435e-08,4.49156e-07,-1.68271e-06,-2.37044e-05,-0.000141977,-0.000268217,30.3084,12.9371,-5.60432,17.971,30.3172,12.9489,-5.6249,31.1326,213,9.07274,2.83221,0.25,13756
5.34262e-08,3.88997e-07,-1.68752e-06,-3.12227e-05,-0.000121706,-0.000250572,32.0454,18.7557,-0.171561,16.1268,32.0713,18.7406,-0.182348,28.0721,213,8.02565,3.24017,0.25,13757
6.16724e-08,5.12002e-07,-1.71181e-06,-3.29957e-05,-0.000177649,-0.00020849,30.3237,9.07773,4.54788,13.0164,30.4397,9.10277,4.40687,24.0315,213,7.77883,2.40074,0.25,13758
3.12516e-08,5.89489e-07,-1.73386e-06,-2.734e-05,-0.000205422,-0.000207715,29.1595,3.00364,2.66684,13.4718,29.3739,3.02597,2.43016,26.6508,213,8.82592,1.99278,0.25,13759
1.23901e-07,3.31835e-07,-1.68144e-06,-4.84013e-05,-0.000110373,-0.000249299,29.0948,19.9927,-0.412108,14.7912,29.156,19.9457,-0.426364,26.2199,213,6.22883,3.65343,0.25,13760
1.23711e-07,4.59973e-07,-1.69032e-06,-4.79009e-05,-0.000149948,-0.000245282,25.8916,10.9033,-3.09888,14.5334,25.9367,10.8895,-3.13015,25.1779,213,6.16182,2.66962,0.25,13761
8.37416e-08,3.90639e-07,-1.68978e-06,-3.64689e-05,-0.000125477,-0.00024453,30.9967,17.9236,0.437713,15.3105,31.0304,17.9182,0.409376,26.6096,213,7.15851,3.20034,0.25,13762
-4.16503e-09,-5.80715e-08,-1.69445e-06,-2.72002e-05,-3.20247e-05,-0.000286286,38.0562,37.3476,0.00307277,19.0275,38.0577,37.3465,0.00268903,37.7044,213,10.2019,12.5512,0.25,13763
-2.1586e-09,-8.97126e-08,-1.69358e-06,-2.61394e-05,-3.8107e-05,-0.000284118,37.9453,36.1875,0.0546696,18.9462,37.9462,36.1874,0.0538634,37.0443,213,10.137,13.4558,0.25,13764
-1.69029e-07,-1.33869e-07,-1.68958e-06,-6.18986e-05,-5.08099e-05,-0.000266434,29.8164,31.4451,-0.224794,15.9238,31.6158,29.6527,-0.231809,30.9129,213,14.5764,14.5743,0.25,13765
-1.27391e-07,-1.14871e-07,-1.69215e-06,-5.05228e-05,-4.4648e-05,-0.00027325,32.4894,33.3523,-0.223589,16.8555,33.4832,32.3627,-0.227765,33.1649,213,13.8032,14.138,0.25,13766
-1.66081e-07,-9.47472e-08,-1.69217e-06,-6.03209e-05,-3.83861e-05,-0.000270907,30.9388,34.1604,0.00891456,17.0948,34.1941,30.9097,0.00435796,32.6716,213,14.4785,13.6871,0.25,13767
8.51478e-08,-2.11385e-07,-1.68814e-06,-3.72981e-05,-7.42345e-05,-0.000266574,33.5264,28.1014,-0.148486,16.8726,33.5882,28.0482,-0.157058,31.3446,213,7.11656,15.7674,0.25,13768
6.15079e-08,-1.90148e-07,-1.68752e-06,-3.33928e-05,-6.73727e-05,-0.000270661,34.7245,29.7337,-0.12428,17.4412,34.755,29.7064,-0.127454,32.6522,213,7.81046,15.4328,0.25,13769
9.68189e-08,-1.6669e-07,-1.68941e-06,-4.1148e-05,-5.95577e-05,-0.000270275,33.6271,30.9231,-0.0259891,16.8685,33.7078,30.8456,-0.0292253,32.4009,213,6.88787,15.1054,0.25,13770
-5.39885e-09,9.91729e-08,-1.69377e-06,-2.66192e-05,-4.17402e-05,-0.000282976,37.5971,35.3763,-0.0552245,18.8273,37.5984,35.3761,-0.0562905,36.5942,213,10.2537,7.07019,0.25,13771
-7.0447e-09,6.34773e-08,-1.69425e-06,-2.70443e-05,-3.15528e-05,-0.000286422,38.125,37.4629,0.0289215,19.0488,38.1259,37.4626,0.0283024,37.7703,213,10.3131,8.04993,0.25,13772
1.32765e-08,8.1023e-08,-1.694e-06,-2.75073e-05,-3.6359e-05,-0.000284814,37.7149,36.4148,-0.0770567,18.8968,37.716,36.4142,-0.0775767,37.1598,213,9.56694,7.53543,0.25,13773
-1.60198e-07,1.23441e-08,-1.68691e-06,-5.87016e-05,-2.32142e-05,-0.0002771,32.1672,37.3794,0.0899314,18.6479,37.383,32.1663,0.087248,34.9804,213,14.2698,9.85394,0.25,13774
-2.15404e-07,1.24089e-08,-1.68235e-06,-7.67078e-05,-2.27182e-05,-0.00026966,28.5813,36.511,0.241491,18.1434,36.5201,28.5805,0.233212,33.0405,213,15.0874,9.83363,0.25,13775
1.122e-06,-2.62983e-08,-1.35562e-06,-0.000289483,-2.91503e-05,-0.00018418,-15.169,23.0674,0.297478,19.9379,24.6936,-1.31552,-15.1822,35.0631,213,-0.025,11.1975,0.2125,13776
8.49119e-07,-6.85802e-09,-1.68538e-06,-0.000284305,-2.30299e-05,-0.00019408,-14.2777,24.097,-1.02595,19.2435,24.208,-1.13567,-14.279,33.8843,213,0.967271,10.6168,0.2875,13777
8.18339e-07,-1.81599e-08,-1.69587e-06,-0.000268944,-2.46977e-05,-0.000200821,-11.3718,24.5019,-1.36618,18.0613,24.7465,-1.60663,-11.376,32.3633,213,1.04227,11.0893,0.25,13778
1.14262e-06,-3.98536e-08,-1.37609e-06,-0.000295461,-2.70628e-05,-0.000194625,-17.387,22.034,-2.57667,20.7126,24.0313,-4.56689,-17.394,36.7318,213,-0.025,11.685,0.25,13779
-9.77587e-08,-2.15419e-07,-1.68707e-06,-4.13113e-05,-7.51223e-05,-0.000265733,32.5575,27.5916,-0.40443,16.5199,32.6301,27.5242,-0.409647,30.8058,213,13.3154,15.8297,0.25,13780
-7.78088e-08,-2.62741e-07,-1.69025e-06,-3.51509e-05,-8.81162e-05,-0.000260993,33.2667,25.4874,0.0961738,16.6153,33.3166,25.4478,0.0859216,30.0784,213,12.8533,16.384,0.25,13781
-1.14713e-07,-2.97024e-07,-1.69267e-06,-4.66678e-05,-9.94458e-05,-0.000255988,29.9076,22.1558,-0.836337,15.4529,30.0596,22.0136,-0.846148,27.7711,213,13.829,16.7898,0.25,13782
-9.70564e-08,-9.13049e-08,-1.69329e-06,-4.20242e-05,-3.94514e-05,-0.000277881,34.5849,34.9627,-0.0565476,17.577,35.0952,34.4548,-0.0589215,34.8383,213,13.1212,13.55,0.25,13783
-7.21952e-08,-6.99992e-08,-1.69406e-06,-3.62505e-05,-3.36233e-05,-0.000282372,36.0975,36.4833,-0.0515849,18.3021,36.5512,36.0308,-0.0528688,36.3467,213,12.4538,12.9487,0.25,13784
-6.54269e-09,3.82353e-08,-1.69444e-06,-2.70018e-05,-2.80709e-05,-0.000287921,38.3206,38.1636,-0.00191887,19.1616,38.321,38.1634,-0.00214534,38.2446,213,10.2909,8.89611,0.25,13785
-4.05061e-09,1.63306e-08,-1.69454e-06,-2.71976e-05,-2.48469e-05,-0.000289003,38.4737,38.819,0.0210298,19.399,38.819,38.4737,0.0209848,38.6265,213,10.1973,9.72687,0.25,13786
7.42635e-07,5.16641e-07,-1.70812e-06,-0.000242648,-0.000167032,-0.000158186,-14.3703,-3.26419,-1.965,6.87124,-0.9143,-4.0284,-14.6568,12.4803,213,0.922604,1.99754,0.25,13787
6.16629e-07,6.04762e-07,-1.76792e-06,-0.000208539,-0.000198281,-0.000190416,-12.1056,-10.5991,-9.44393,3.01806,-7.58724,-10.938,-13.6234,5.23801,213,1.4185,1.52224,0.25,13788
7.53507e-07,-3.71647e-07,-1.69044e-06,-0.00025257,-0.000123108,-0.000166444,-13.4214,5.59338,-0.771579,9.72625,5.94569,-1.03848,-13.5068,17.0681,213,0.922604,17.5025,0.25,13789
6.11783e-07,-4.18959e-07,-1.7512e-06,-0.000221902,-0.00012359,-0.000203271,-9.53774,4.90169,-6.80145,7.70757,5.45436,-6.93107,-9.96078,14.1458,213,1.4185,17.9778,0.25,13790
1.38799e-07,8.19093e-08,-1.69236e-06,-5.40017e-05,-3.6303e-05,-0.000274167,32.3475,34.947,0.0107439,17.4842,34.9771,32.3194,0.00872167,33.7182,213,6.13902,7.41997,0.25,13791
1.5805e-07,5.50214e-08,-1.69135e-06,-5.92259e-05,-2.94431e-05,-0.000273863,31.7615,36.1359,0.236668,17.9567,36.1485,31.7504,0.235123,33.9288,213,5.83059,8.22745,0.25,13792
1.04808e-07,6.7721e-08,-1.69368e-06,-4.44334e-05,-3.32739e-05,-0.000279295,34.4511,36.0901,-0.0441897,18.0812,36.1153,34.4287,-0.0469951,35.3492,213,6.84627,7.85934,0.25,13793
9.08776e-08,9.7957e-08,-1.69341e-06,-3.9665e-05,-3.99492e-05,-0.00027785,35.1082,35.0665,0.124834,17.5947,35.3101,34.8687,0.120704,34.9708,213,7.1547,7.05187,0.25,13794
7.12802e-07,8.14806e-07,-1.62068e-06,-0.000219304,-0.000226917,-0.000136536,-12.3333,-13.4515,-0.176846,8.59994,1.91441,-12.5906,-15.2855,16.0233,213,0.932261,0.559698,0.2125,13795
7.53597e-07,8.64096e-07,-1.58626e-06,-0.000254594,-0.000266105,-0.000125688,-23.4639,-25.1545,-4.53085,10.9331,-4.00301,-23.277,-25.8692,20.6922,213,0.828946,0.484385,0.2875,13796
7.18796e-07,7.07223e-07,-1.72355e-06,-0.000249372,-0.000243475,-0.00010448,-18.1115,-17.2455,3.16948,12.0368,4.62947,-17.3729,-19.444,23.1077,213,0.93848,1.04408,0.25,13797
8.40538e-07,8.33116e-07,-1.51642e-06,-0.000247949,-0.000244062,-0.0001328,-20.4713,-19.9005,-3.55882,10.067,-2.43585,-18.9249,-22.5698,18.5816,213,0.442583,0.559385,0.25,13798
8.21428e-07,9.27111e-07,-1.25965e-06,-0.000221357,-0.000193958,-0.000138923,-9.96927,-5.94507,2.13822,6.94959,3.57566,-7.02825,-10.3235,12.5795,213,0.436364,0.075,0.2125,13799
6.56123e-07,-5.77335e-07,-1.66749e-06,-0.00022192,-0.000179579,-0.000155733,-10.332,-4.11308,-0.610725,8.52562,3.70071,-5.406,-13.3505,14.7782,213,0.932261,18.9403,0.2125,13800
6.93616e-07,-5.0044e-07,-1.70696e-06,-0.000253,-0.000151876,-0.000146337,-14.3343,0.518336,1.33181,10.1653,5.23979,-2.63317,-15.0908,17.7554,213,0.93848,18.4559,0.25,13801
6.88431e-07,-6.13489e-07,-1.65476e-06,-0.000245943,-0.000208702,-0.000144779,-17.804,-12.3341,-2.94551,9.03811,-0.856611,-13.2942,-18.9328,16.0193,213,0.828946,19.0156,0.2875,13802
7.30737e-07,-7.05126e-07,-1.48929e-06,-0.000220704,-0.000207299,-0.000134914,-10.6848,-8.71591,1.91573,8.4812,4.01889,-8.56036,-12.9435,15.2508,213,0.436364,19.425,0.2125,13803
7.81533e-07,-6.12776e-07,-1.59554e-06,-0.000254539,-0.00018403,-0.000152059,-18.2442,-7.8883,-3.19246,10.2984,0.315701,-9.35953,-20.2811,17.8483,213,0.442583,18.9406,0.25,13804
-7.55187e-07,-3.69883e-07,-1.6969e-06,-0.000252085,-0.00012097,-0.00016946,-13.387,5.87055,-1.25134,9.84116,6.09645,-1.27836,-13.5859,17.2229,213,19.1774,17.5025,0.25,13805
-7.45856e-07,5.15916e-07,-1.71474e-06,-0.000244879,-0.000169488,-0.000151031,-14.4675,-3.39444,-0.683554,7.59879,0.308246,-3.9644,-14.8893,13.5753,213,19.1774,1.99754,0.25,13806
3.26865e-07,-1.59026e-07,-1.67949e-06,-0.000108585,-5.76445e-05,-0.000245221,19.9396,27.4215,-0.128842,13.8341,27.5219,19.8566,-0.146233,24.7426,213,3.62653,15.1269,0.25,13807
2.98417e-07,-1.13353e-07,-1.68453e-06,-0.000100099,-4.30464e-05,-0.000253815,22.5405,30.9201,-0.0365442,15.5086,30.9692,22.5029,-0.0479976,27.7694,213,3.9588,14.2108,0.25,13808
4.28402e-07,-1.17472e-07,-1.69146e-06,-0.000146596,-4.38596e-05,-0.000237374,12.8258,27.9153,-0.507196,14.2539,27.9628,12.816,-0.544952,24.7046,213,2.89017,14.3158,0.25,13809
-8.42896e-08,3.95972e-07,-1.68682e-06,-3.63655e-05,-0.00012651,-0.000246065,30.7815,17.5416,-0.0180895,15.4285,30.8183,17.5254,-0.0386697,26.8081,213,12.9596,3.16489,0.25,13810
-5.43324e-08,3.94111e-07,-1.68769e-06,-3.1466e-05,-0.000126313,-0.000250459,31.5668,17.6362,-0.597797,16.0941,31.5809,17.6317,-0.607386,27.9583,213,12.0923,3.20464,0.25,13811
-6.17686e-08,5.19018e-07,-1.70227e-06,-3.19066e-05,-0.000175001,-0.000224566,29.3303,8.31332,1.03343,14.2134,29.3983,8.30724,0.971543,25.5609,213,12.3394,2.36549,0.25,13812
6.18235e-07,8.30943e-07,-1.65732e-06,-0.000203262,-0.000266391,-0.000136345,-12.1495,-21.4216,-2.32114,11.3218,0.805302,-14.8593,-21.8383,20.085,213,1.39362,0.559698,0.25,13813
5.61122e-07,-5.71002e-07,-1.70648e-06,-0.000203504,-0.000193787,-0.000164865,-8.08734,-6.66017,-2.4122,7.61516,2.65344,-7.23627,-12.5769,13.3845,213,1.39362,18.9403,0.25,13814
-5.30279e-08,1.14207e-08,-1.69419e-06,-3.25061e-05,-2.51417e-05,-0.000286989,37.3586,38.4402,-0.0186106,19.2297,38.4406,37.3585,-0.0188963,37.93,213,11.8471,9.9271,0.25,13815
-1.76437e-07,4.80081e-08,-1.687e-06,-6.47318e-05,-2.80962e-05,-0.000274321,30.5213,35.9022,-0.262057,18.0932,35.9182,30.5115,-0.268265,33.8089,213,14.5641,8.46083,0.25,13816
1.62543e-08,3.03629e-08,-1.69451e-06,-2.83876e-05,-2.6543e-05,-0.000288282,38.0966,38.3676,-0.0752943,19.2221,38.3688,38.0956,-0.0754205,38.3083,213,9.46497,9.18204,0.25,13817
-2.39343e-07,-4.94127e-08,-1.68945e-06,-8.25535e-05,-2.80871e-05,-0.000266244,26.9938,34.9935,0.0141625,17.4977,35.0028,26.9913,0.0073573,31.7569,213,15.4496,12.3556,0.25,13818
-1.92201e-07,-6.10063e-08,-1.6911e-06,-6.7836e-05,-3.1376e-05,-0.000271064,29.7731,35.1281,-0.0761075,17.6131,35.146,29.7592,-0.0801416,32.8655,213,14.8374,12.732,0.25,13819
5.92483e-08,3.52032e-07,-1.68646e-06,-3.29809e-05,-0.000115722,-0.000255124,31.7565,19.6039,-0.870811,16.3297,31.7752,19.5984,-0.884084,28.587,213,7.85766,3.53603,0.25,13820
6.17324e-07,9.35974e-07,-1.46979e-06,-0.000185982,-0.000228807,-0.000136769,-4.52333,-10.8131,2.70491,7.71345,4.61146,-6.42754,-10.8154,13.7678,213,1.43636,0.075,0.2125,13821
5.35192e-07,9.76863e-07,-1.46641e-06,-0.000165791,-0.000262739,-0.000128916,-2.10806,-16.3474,3.30795,12.7946,8.76458,-7.08748,-16.8246,22.3708,213,1.89773,0.075,0.25,13822
5.26321e-07,-6.58256e-07,-1.62066e-06,-0.000186535,-0.000219279,-0.00014327,-4.37325,-9.18244,1.9813,8.93814,7.57048,-8.83906,-10.3058,17.1899,213,1.43636,19.425,0.2125,13823
4.44772e-07,-6.7127e-07,-1.62972e-06,-0.000160765,-0.000227192,-0.000153309,0.142531,-9.614,1.23754,11.0994,11.8419,-9.71905,-10.3568,21.8868,213,1.89773,19.425,0.25,13824
-1.32388e-07,2.48085e-07,-1.68691e-06,-5.11823e-05,-8.53978e-05,-0.000256693,30.0697,25.0443,-0.114601,15.1324,30.1419,24.9802,-0.122768,28.0424,213,13.9967,4.49537,0.25,13825
-1.20884e-07,3.29975e-07,-1.68114e-06,-4.73608e-05,-0.000110046,-0.000251145,29.203,19.9961,-0.727786,15.005,29.2662,19.949,-0.743827,26.6045,213,13.8145,3.67597,0.25,13826
-3.52497e-07,1.36537e-07,-1.68343e-06,-0.000116684,-4.98399e-05,-0.000248104,18.4532,28.2709,-0.84904,14.5918,28.3223,18.414,-0.861231,25.704,213,16.6624,6.01362,0.25,13827
-4.99761e-07,1.3848e-07,-1.70612e-06,-0.000169699,-5.16317e-05,-0.00021991,8.17909,25.5203,0.804328,12.4649,25.6347,8.1642,0.704849,22.1625,213,17.7038,5.9268,0.25,13828
-4.20354e-07,9.79176e-08,-1.70025e-06,-0.000136563,-3.84577e-05,-0.000242464,15.2665,29.6757,-0.287806,15.0189,29.7173,15.2576,-0.320546,26.0196,213,17.1649,6.8472,0.25,13829
-8.89757e-07,3.09454e-08,-1.62921e-06,-0.000286192,-2.6216e-05,-0.000202982,-15.861,22.3229,-3.63964,19.3037,22.7416,-4.0535,-15.8658,34.2639,213,19.3088,9.06465,0.25,13830
-1.1483e-06,1.45436e-08,-1.38464e-06,-0.000296806,-2.67282e-05,-0.000190734,-17.3152,22.3525,-1.73579,21.2055,25.0953,-4.47813,-17.3157,37.6702,213,20.125,9.75,0.25,13831
-8.20969e-07,4.42091e-09,-1.67481e-06,-0.000268221,-2.30935e-05,-0.00019904,-10.8816,25.1214,-0.720767,18.1661,25.4392,-1.02718,-10.893,32.541,213,19.0577,10.1293,0.25,13832
2.53677e-07,-6.12644e-08,-1.688e-06,-8.75439e-05,-3.03413e-05,-0.000263348,25.8544,34.256,0.0331618,17.1248,34.2736,25.8459,0.0240252,30.9098,213,4.48794,12.7673,0.25,13833
2.70773e-07,-4.1901e-08,-1.68694e-06,-9.23357e-05,-2.70177e-05,-0.000260365,25.2922,34.8857,0.612786,17.1485,34.9014,25.2849,0.60443,30.6421,213,4.32344,12.0945,0.25,13834
-5.36936e-07,-3.53455e-07,-1.74177e-06,-0.000196774,-0.000111487,-0.000183771,-0.544534,11.982,1.36521,7.46249,13.2712,1.18534,-1.65382,13.7274,213,18.2203,17.5063,0.25,13835
-6.17355e-07,-4.17858e-07,-1.75638e-06,-0.00022533,-0.000133815,-0.000161732,-7.43482,6.00645,1.90614,7.73395,7.46189,1.02187,-8.006,13.4579,213,18.7003,17.9845,0.25,13836
-8.55067e-07,-4.57659e-07,-1.60453e-06,-0.000275976,-0.000150092,-0.000154201,-20.4247,-1.93545,-2.53898,11.4513,2.27184,-6.54013,-20.6308,20.0091,213,19.6574,17.9806,0.25,13837
-6.237e-07,6.06932e-07,-1.78359e-06,-0.000218274,-0.00020886,-0.000131998,-9.97422,-8.5915,2.69758,7.27146,3.59187,-8.50896,-10.9511,13.4887,213,18.7003,1.51555,0.25,13838
-8.52651e-07,6.17211e-07,-1.61262e-06,-0.00026463,-0.000201527,-0.000139034,-21.0876,-11.8194,-2.64064,10.4307,-0.56186,-13.5625,-21.4233,18.2484,213,19.6574,1.51939,0.25,13839
-5.32484e-07,5.1676e-07,-1.74672e-06,-0.00018823,-0.000175192,-0.000165126,-2.70286,-0.787886,0.690583,4.44453,4.37478,-2.66065,-4.51429,8.12246,213,18.2203,1.9937,0.25,13840
-1.86896e-07,-1.25671e-07,-1.68934e-06,-6.79047e-05,-4.81451e-05,-0.00026354,28.8925,31.7947,0.158572,15.8641,31.8802,28.8136,0.151935,30.3116,213,14.8407,14.4218,0.25,13841
-2.4982e-07,-1.39539e-07,-1.68396e-06,-8.83297e-05,-5.19141e-05,-0.00025405,24.5182,29.8668,0.178011,14.8959,29.9557,24.4435,0.16382,27.454,213,15.6653,14.7416,0.25,13842
-1.23663e-07,1.68469e-09,-1.69085e-06,-4.99073e-05,-2.36966e-05,-0.000280388,33.9284,37.7781,0.0765915,18.8526,37.78,33.9284,0.0747285,35.9346,213,13.5992,10.3122,0.25,13843
-1.02527e-07,2.3979e-08,-1.69226e-06,-4.49238e-05,-2.4789e-05,-0.000282133,34.8609,37.8182,0.0207276,18.9013,37.822,34.8584,0.0194633,36.4113,213,13.1558,9.40174,0.25,13844
7.03176e-07,7.1261e-08,-1.72853e-06,-0.000244087,-3.38473e-05,-0.00020198,-6.36107,24.5178,-0.176653,15.6655,24.913,-0.514789,-6.41808,28.8362,213,1.45866,7.63269,0.25,13845
7.38766e-07,9.97146e-08,-1.70738e-06,-0.000255904,-3.80819e-05,-0.000191907,-8.65575,23.3369,0.743797,16.2005,23.7433,0.339297,-8.65764,28.9699,213,1.29015,6.85069,0.25,13846
5.56265e-07,9.45936e-08,-1.71293e-06,-0.000189521,-3.78635e-05,-0.000224023,4.31761,26.5923,-0.749825,13.7194,26.6277,4.34345,-0.811107,25.2592,213,2.12303,6.91502,0.25,13847
-8.63202e-07,-2.17711e-07,-1.63218e-06,-0.000277889,-6.87205e-05,-0.000181632,-15.8429,14.8788,-1.70515,15.7287,15.6102,-2.43226,-15.8472,27.341,213,19.3693,15.7826,0.25,13848
-8.43252e-07,3.03716e-07,-1.62507e-06,-0.000273568,-9.31253e-05,-0.000175104,-16.4751,10.0274,-2.01314,13.6756,10.856,-2.82148,-16.4953,23.6869,213,19.3693,3.71744,0.25,13849
8.89922e-07,3.11991e-08,-1.6403e-06,-0.000287377,-2.57697e-05,-0.000207699,-16.5451,21.8785,-4.84231,19.3763,22.2046,-5.16557,-16.5479,34.4996,213,0.791167,9.06465,0.25,13850
8.21208e-07,4.39214e-09,-1.6932e-06,-0.00026992,-2.34566e-05,-0.000196107,-11.0498,25.1495,-0.208588,18.2074,25.3602,-0.41439,-11.0547,32.4314,213,1.04227,10.1293,0.25,13851
1.15089e-06,1.51809e-08,-1.35414e-06,-0.000298688,-2.7012e-05,-0.000187364,-17.4792,22.4233,-1.12835,21.1888,24.8982,-3.60309,-17.4794,37.4215,213,-0.025,9.75,0.25,13852
4.16502e-07,1.82199e-07,-1.68769e-06,-0.000142863,-6.21131e-05,-0.000231855,12.5328,24.393,-0.537916,12.53,24.4754,12.4971,-0.584611,21.7096,213,2.8997,5.17045,0.25,13853
5.92376e-07,1.88076e-07,-1.72381e-06,-0.000205663,-6.19396e-05,-0.000201844,0.260839,21.3701,0.821732,10.7565,21.6097,0.746337,0.0966415,21.1957,213,1.85831,5.08363,0.25,13854
4.48719e-07,2.50879e-07,-1.69748e-06,-0.000151435,-8.71402e-05,-0.000220709,9.17522,18.6185,-0.999347,9.93259,18.8103,9.03904,-1.05493,17.2045,213,2.61396,4.24004,0.25,13855
1.35163e-07,2.49958e-07,-1.6864e-06,-5.20327e-05,-8.55604e-05,-0.000255899,29.9243,25,-0.018473,15.0169,30.005,24.9296,-0.0287779,27.8452,213,6.04646,4.47263,0.25,13856
2.26681e-07,-1.46094e-07,-1.68347e-06,-8.15019e-05,-5.3634e-05,-0.000256168,25.8005,29.8936,0.146408,14.9341,30.0058,25.6971,0.137595,27.9639,213,4.70252,14.8511,0.25,13857
2.11796e-07,-1.04327e-07,-1.68894e-06,-7.70493e-05,-4.10686e-05,-0.000263562,27.354,32.6387,-0.0401061,16.3651,32.6816,27.3198,-0.0487417,30.4061,213,4.9503,13.9619,0.25,13858
8.62062e-07,-2.17746e-07,-1.63e-06,-0.000276453,-6.9322e-05,-0.000182605,-15.6448,14.7775,-1.86082,15.5838,15.5176,-2.59559,-15.6501,27.1103,213,0.730674,15.7826,0.25,13859
8.44181e-07,3.04125e-07,-1.6249e-06,-0.000274581,-9.36639e-05,-0.000174407,-16.7037,9.86846,-1.99062,13.7547,10.7869,-2.89025,-16.7225,23.8239,213,0.730674,3.71744,0.25,13860
-5.86769e-07,4.03848e-07,-1.72568e-06,-0.00021271,-0.000130315,-0.000175301,-5.34292,6.75889,0.151464,6.99528,8.18836,-0.818707,-5.80221,12.2821,213,18.4122,2.7536,0.25,13861
-4.25137e-07,4.14832e-07,-1.6831e-06,-0.000139674,-0.000135185,-0.000217349,7.82526,8.48461,-3.5832,6.65298,9.71275,6.60713,-3.59321,12.0569,213,17.4706,2.73915,0.25,13862
-4.09861e-08,6.4876e-07,-1.73202e-06,-2.77133e-05,-0.000221565,-0.00020362,27.9437,-0.528176,2.10739,14.3723,28.2007,1.8661,-0.543926,27.6186,213,11.6244,1.70874,0.25,13863
-3.95294e-07,5.51707e-07,-1.7156e-06,-0.000131435,-0.000190529,-0.000186802,7.48803,-1.1915,-0.644006,5.27529,8.64334,-1.08357,-1.90724,10.1638,213,17.3328,1.88075,0.25,13864
-5.99409e-07,-2.7728e-07,-1.72422e-06,-0.000217136,-8.88667e-05,-0.000189091,-3.82162,15.018,0.29755,9.78151,15.5242,0.00861967,-4.03885,17.8861,213,18.4122,16.7464,0.25,13865
-4.31257e-07,-2.75341e-07,-1.70076e-06,-0.00014883,-9.05772e-05,-0.000225151,9.06494,17.6208,-2.14462,10.0227,17.8809,8.8247,-2.16445,17.3866,213,17.4706,16.7608,0.25,13866
-3.88184e-07,-3.65307e-07,-1.71898e-06,-0.000138623,-0.000121631,-0.000209907,10.0404,12.5361,-0.429359,7.39649,14.1877,8.56471,-0.60527,12.9333,213,17.3328,17.6193,0.25,13867
2.42073e-07,4.12259e-07,-1.67892e-06,-8.49056e-05,-0.000137475,-0.000219394,20.5833,12.8621,0.830229,10.0107,20.7964,12.7044,0.774859,17.445,213,4.31916,2.87668,0.25,13868
1.7065e-07,3.81312e-07,-1.67223e-06,-5.98014e-05,-0.000129122,-0.000231275,26.2872,16.1058,1.10204,12.6394,26.3737,16.0265,1.09482,22.0118,213,5.32596,3.18445,0.25,13869
1.72584e-07,5.29454e-07,-1.70808e-06,-5.95354e-05,-0.000171842,-0.000220796,23.3377,6.84268,-0.347487,12.1226,23.6387,6.80067,-0.606481,21.5199,213,5.25895,2.20064,0.25,13870
1.67234e-07,7.81546e-07,-1.69688e-06,-5.73488e-05,-0.000264005,-0.000186416,18.4624,-11.8902,-0.494286,15.3931,18.8841,-0.904087,-11.9021,27.0214,213,5.35152,1.05864,0.25,13871
1.32774e-07,6.19326e-07,-1.7285e-06,-4.97191e-05,-0.00021384,-0.000201319,23.592,-0.513285,1.32575,12.2572,23.8166,1.28567,-0.697757,23.5852,213,5.96573,1.77151,0.25,13872
6.69126e-07,-2.19398e-07,-1.71281e-06,-0.000236644,-6.90907e-05,-0.000188192,-6.57774,18.0317,0.538742,12.4669,18.3143,0.297938,-6.6195,22.295,213,1.45968,15.9923,0.25,13873
6.53129e-07,3.16056e-07,-1.72152e-06,-0.000233677,-9.8882e-05,-0.000175254,-7.43974,12.3582,1.14103,10.2494,12.919,0.720316,-7.57978,17.8591,213,1.45968,3.5077,0.25,13874
-8.09737e-08,-5.78869e-07,-1.69331e-06,-3.30786e-05,-0.000202196,-0.000227582,26.225,1.38585,-2.34272,14.9145,26.8723,1.35255,-2.9567,27.9248,213,13.3685,18.7488,0.2125,13875
-8.83292e-08,-5.97979e-07,-1.7063e-06,-3.66576e-05,-0.000217715,-0.000211184,25.447,-1.14587,-0.186543,13.7208,26.2178,-0.879541,-1.22369,27.2711,213,13.5867,18.7974,0.2875,13876
-9.45895e-08,-5.73951e-07,-1.70461e-06,-3.84521e-05,-0.000197569,-0.000225375,25.5722,2.20182,-1.8822,14.4749,26.3583,2.12511,-2.59156,26.9034,213,13.7412,18.7224,0.25,13877
-9.69062e-08,-7.25213e-07,-1.61636e-06,-3.48962e-05,-0.000265363,-0.000186575,23.7169,-10.133,1.43903,18.6715,27.1556,-1.94527,-10.1874,33.9801,213,13.8955,19.425,0.2125,13878
-8.97373e-08,5.31841e-07,-1.70357e-06,-3.71006e-05,-0.000183275,-0.000217019,28.014,6.54462,1.58848,13.3311,28.1276,6.5541,1.46542,24.5172,213,13.1558,2.26694,0.25,13879
-1.33949e-07,6.1555e-07,-1.73277e-06,-5.08828e-05,-0.000212386,-0.000202028,23.3819,-0.338863,1.18243,12.1062,23.6019,1.23412,-0.61055,23.3448,213,14.1577,1.78514,0.25,13880
-3.08004e-07,-3.85955e-09,-1.68383e-06,-0.000102685,-2.29949e-05,-0.000259701,23.2429,34.9474,0.181213,17.409,34.9735,23.2424,0.15556,30.6832,213,16.1398,10.5157,0.25,13881
-2.69603e-07,-2.89908e-08,-1.68673e-06,-9.24596e-05,-2.4564e-05,-0.000263492,25.1994,35.1716,0.0789957,17.5635,35.1917,25.1935,0.0647372,31.3475,213,15.7713,11.5809,0.25,13882
3.88646e-08,-2.22358e-07,-1.68513e-06,-2.73302e-05,-7.68496e-05,-0.000266471,35.6874,28.4142,0.563598,17.5768,35.7073,28.4043,0.553642,32.1308,213,8.52699,15.8524,0.25,13883
1.21715e-07,-4.10957e-07,-1.71964e-06,-4.72781e-05,-0.000138957,-0.000237688,27.7783,14.313,-0.188161,14.1429,28.0609,14.067,-0.224831,24.4967,213,5.9395,17.7697,0.25,13884
1.21287e-07,-3.19554e-07,-1.70024e-06,-4.82906e-05,-0.0001072,-0.000254452,28.9364,20.2841,-1.34358,15.2263,29.0926,20.1443,-1.36006,27.1098,213,6.0992,17.0196,0.25,13885
7.96538e-08,-3.56083e-07,-1.70774e-06,-3.43193e-05,-0.000121818,-0.000251182,31.2337,18.3824,-0.617993,15.973,31.3098,18.3246,-0.636262,27.8269,213,7.06692,17.2819,0.25,13886
4.69281e-07,3.22383e-07,-1.69679e-06,-0.000161803,-0.00010512,-0.000205982,6.3795,14.7049,-0.109244,7.68481,15.1303,6.08416,-0.239315,13.3799,213,2.40125,3.49325,0.25,13887
6.27393e-07,2.41348e-07,-1.72791e-06,-0.000219993,-8.04725e-05,-0.000191663,-3.96398,16.5281,0.196904,10.4647,16.8605,-0.0305426,-4.06892,19.2309,213,1.6456,4.33684,0.25,13888
6.40954e-07,-1.65261e-07,-1.72187e-06,-0.000223841,-5.76149e-05,-0.000201848,-3.70432,20.7101,-0.47414,12.3023,20.8879,-0.639634,-3.71664,23.2195,213,1.6456,15.1632,0.25,13889
4.81458e-07,-2.15319e-07,-1.7059e-06,-0.000168477,-7.13016e-05,-0.000214485,7.14143,21.4141,0.383998,10.6742,21.5994,7.08909,0.250994,18.8821,213,2.40125,16.0068,0.25,13890
-2.21557e-08,-7.47499e-08,-1.69408e-06,-2.80948e-05,-3.50856e-05,-0.000284716,37.7018,36.675,0.01055,18.8494,37.7082,36.6697,0.00944725,37.1904,213,10.8647,13.0519,0.25,13891
-3.30157e-08,-4.20103e-08,-1.69455e-06,-2.87975e-05,-2.82251e-05,-0.00028736,37.927,38.0111,-0.049405,19.0411,38.0328,37.9053,-0.0494368,38.0187,213,11.2207,12.0219,0.25,13892
-1.4352e-08,-2.85417e-08,-1.69459e-06,-2.80384e-05,-2.54442e-05,-0.000288507,38.2622,38.6432,0.00580626,19.3204,38.6462,38.2595,0.0054449,38.4489,213,10.558,11.5211,0.25,13893
2.45956e-08,1.61198e-07,-1.69135e-06,-2.79895e-05,-5.86082e-05,-0.000275751,36.3665,31.8694,-0.0234311,18.1982,36.3703,31.8683,-0.0261467,34.3673,213,9.13119,5.81269,0.25,13894
4.52584e-08,1.3488e-07,-1.69281e-06,-2.98484e-05,-5.21744e-05,-0.000277702,36.3387,33.0596,-0.0647766,18.207,36.3476,33.0525,-0.066537,34.8835,213,8.42809,6.27662,0.25,13895
2.8074e-07,-8.59327e-08,-1.68679e-06,-9.59053e-05,-3.66739e-05,-0.000257856,23.7662,32.4659,-0.0202398,16.2608,32.4903,23.7529,-0.0312813,29.152,213,4.17119,13.5146,0.25,13896
6.67106e-07,-9.0041e-08,-1.72545e-06,-0.000228416,-3.86456e-05,-0.000209664,-3.76157,24.111,-1.00729,14.1114,24.3354,-1.10596,-3.88733,26.94,213,1.5935,13.5327,0.25,13897
7.32199e-07,-6.04187e-08,-1.7262e-06,-0.000254317,-3.07545e-05,-0.000189362,-7.35153,25.4842,2.18869,16.6808,26.0093,1.66431,-7.35227,29.8913,213,1.34979,12.6154,0.25,13898
-9.1301e-07,-8.02346e-08,-1.63315e-06,-0.000288815,-3.78848e-05,-0.000187524,-16.1375,20.7179,-1.26042,18.7394,21.323,-1.84724,-16.1558,32.7586,213,19.4271,13.0761,0.25,13899
-8.39116e-07,-1.13653e-07,-1.67505e-06,-0.000273669,-4.22885e-05,-0.000192315,-13.3566,20.6274,-1.40776,17.1697,20.9825,-1.76255,-13.3569,30.2569,213,19.1834,13.9934,0.25,13900
-1.12893e-06,-1.05382e-07,-1.37531e-06,-0.000290561,-4.26776e-05,-0.00018366,-16.6439,19.764,-0.942797,19.3825,22.1129,-3.28359,-16.652,34.1059,213,20.125,13.62,0.25,13901
-6.23095e-07,-1.08463e-08,-1.72989e-06,-0.000212315,-2.2559e-05,-0.000221487,0.506753,28.3772,-0.840384,14.7471,28.5029,0.532047,-0.99134,28.7628,213,18.2578,10.8166,0.25,13902
-5.3883e-07,-3.63229e-08,-1.71324e-06,-0.000179625,-2.59654e-05,-0.000239606,6.35167,28.9204,-2.45807,15.7869,29.0197,6.34844,-2.55412,28.197,213,17.8445,11.8404,0.25,13903
9.15587e-07,-7.97953e-08,-1.63699e-06,-0.00028957,-3.65662e-05,-0.000191149,-16.5344,20.6256,-2.07872,18.8553,21.1666,-2.61017,-16.544,33.0271,213,0.672879,13.0761,0.25,13904
8.39117e-07,-1.14058e-07,-1.67872e-06,-0.000273074,-4.32735e-05,-0.000192469,-13.3199,20.432,-1.48105,17.0258,20.7313,-1.77995,-13.3203,29.9954,213,0.916592,13.9934,0.25,13905
1.12896e-06,-1.0463e-07,-1.36628e-06,-0.000291039,-4.26823e-05,-0.000182254,-16.6277,19.8497,-0.649957,19.3487,22.0605,-2.85166,-16.6368,33.9715,213,-0.025,13.62,0.25,13906
-2.82282e-07,-8.37326e-08,-1.68819e-06,-9.71291e-05,-3.56544e-05,-0.000257475,23.603,32.6321,0.0521127,16.304,32.6494,23.5964,0.0413652,29.1555,213,15.9533,13.4418,0.25,13907
-2.26636e-07,-9.85321e-08,-1.68945e-06,-8.16074e-05,-3.87863e-05,-0.000262701,26.5524,32.8417,-0.0457007,16.4628,32.8703,26.5334,-0.0552623,30.2589,213,15.341,13.8182,0.25,13908
6.05513e-07,-1.25406e-07,-1.72508e-06,-0.000208159,-4.39685e-05,-0.000209041,0.667852,24.7833,0.538391,12.4451,24.9896,0.900528,0.0994536,24.4994,213,1.84877,14.4026,0.25,13909
4.60601e-07,-1.65161e-07,-1.69819e-06,-0.000156086,-5.78711e-05,-0.00022914,10.0052,24.4304,-0.724695,12.66,24.5372,9.95665,-0.782908,22.0118,213,2.60442,15.2462,0.25,13910
-9.14259e-07,1.25355e-07,-1.61885e-06,-0.00028618,-4.57901e-05,-0.00018709,-16.2023,19.1049,-1.64848,17.9407,19.6608,-2.18603,-16.2207,31.3188,213,19.4773,6.36264,0.25,13911
-8.22202e-07,1.66989e-07,-1.66499e-06,-0.000265528,-5.60935e-05,-0.000191522,-12.6163,18.1445,-1.74666,15.5742,18.5154,-2.10087,-12.633,27.4425,213,19.1834,5.50658,0.25,13912
-1.1062e-06,1.56948e-07,-1.42473e-06,-0.000284433,-5.47406e-05,-0.000179025,-15.8654,17.8707,-0.383539,18.2088,20.5149,-2.99053,-15.9026,31.9802,213,20.125,5.88,0.25,13913
-6.09192e-07,8.28891e-07,-1.64011e-06,-0.000200809,-0.000259056,-0.000129335,-10.2193,-18.7743,0.278582,10.8823,2.48771,-11.9259,-19.2768,19.1766,213,18.6574,0.559385,0.25,13914
-5.15681e-07,7.20006e-07,-1.73025e-06,-0.000172795,-0.000235713,-0.000148279,-3.07508,-12.3162,0.52569,7.47105,2.01256,-3.9486,-12.9295,13.028,213,18.1774,1.03754,0.25,13915
-5.51544e-07,-5.68419e-07,-1.70653e-06,-0.000201796,-0.000185758,-0.000160695,-6.53676,-4.18118,-0.499966,7.53705,4.85071,-5.84522,-10.2234,13.4313,213,18.6574,18.9406,0.25,13916
-4.85204e-07,-4.81794e-07,-1.74207e-06,-0.000177573,-0.000158947,-0.000180094,-0.022233,2.71354,-0.392476,4.71541,6.67995,-1.63024,-2.75087,8.92344,213,18.1774,18.4625,0.25,13917
8.21966e-07,1.67272e-07,-1.66911e-06,-0.000265259,-5.68639e-05,-0.000192224,-12.6892,17.9188,-1.96222,15.4828,18.2699,-2.30682,-12.6957,27.2966,213,0.916592,5.50658,0.25,13918
9.16018e-07,1.24612e-07,-1.62264e-06,-0.000287933,-4.52353e-05,-0.00018647,-16.5139,19.1323,-1.61158,18.149,19.7561,-2.20744,-16.5418,31.6655,213,0.622658,6.36264,0.25,13919
1.10667e-06,1.56349e-07,-1.41817e-06,-0.000284893,-5.49373e-05,-0.000178655,-15.9596,17.8151,-0.355993,18.1427,20.2832,-2.78146,-16.0023,31.8073,213,-0.025,5.88,0.25,13920
-7.76517e-08,-3.45454e-07,-1.70478e-06,-3.43501e-05,-0.000118531,-0.000248112,31.8204,19.4563,0.424154,15.7509,31.8968,19.4091,0.39503,27.4758,213,12.9765,17.1897,0.25,13921
1.15391e-07,-7.21791e-08,-1.69332e-06,-4.72111e-05,-3.36624e-05,-0.00027811,33.8578,35.8478,-0.0554958,17.9638,35.8704,33.8369,-0.0572337,34.9553,213,6.60199,13.0405,0.25,13922
8.62971e-08,-5.31037e-08,-1.69415e-06,-3.88678e-05,-2.94378e-05,-0.00028265,35.8336,37.2187,0.0281865,18.6033,37.2333,35.8205,0.0266529,36.5208,213,7.30114,12.4219,0.25,13923
5.16573e-07,7.17763e-07,-1.7278e-06,-0.00017037,-0.000233009,-0.000161215,-3.44874,-12.6488,-2.10409,6.32795,-0.593004,-4.35973,-13.2489,11.2556,213,1.9226,1.03754,0.25,13924
4.85229e-07,-4.81879e-07,-1.74239e-06,-0.000176441,-0.000157705,-0.000184483,-0.0441553,2.70757,-1.22543,4.69731,6.47909,-2.12559,-2.91552,9.02561,213,1.9226,18.4625,0.25,13925
-5.94046e-08,-2.06118e-07,-1.68961e-06,-3.1844e-05,-7.30941e-05,-0.000268795,34.7363,28.6777,-0.0658377,17.4157,34.7602,28.6591,-0.0711275,32.217,213,12.2377,15.6583,0.25,13926
8.57017e-07,6.1533e-07,-1.63013e-06,-0.00027164,-0.000208288,-0.000123391,-21.9422,-12.6373,-0.168087,12.4186,2.29872,-14.5079,-22.5384,21.9526,213,0.442583,1.51939,0.25,13927
8.60609e-07,-4.57186e-07,-1.60376e-06,-0.000277633,-0.00014772,-0.000150508,-20.256,-1.1751,-1.58447,12.1423,3.84877,-6.42856,-20.4358,21.1136,213,0.442583,17.9806,0.25,13928
1.62594e-07,-1.33828e-07,-1.68932e-06,-5.98064e-05,-5.11671e-05,-0.000266326,30.296,31.5649,-0.0366661,15.9056,31.7687,30.098,-0.0424621,31.0096,213,5.63152,14.5715,0.25,13929
1.50017e-07,-9.3539e-08,-1.69213e-06,-5.55069e-05,-3.82028e-05,-0.000272765,31.9392,34.4808,0.0293974,17.2517,34.5286,31.8955,0.0252549,33.2651,213,5.90531,13.6604,0.25,13930
-1.33867e-08,-3.01673e-07,-1.69658e-06,-2.38597e-05,-0.000102177,-0.000258968,34.8555,23.3527,0.324055,17.2944,34.8853,23.3505,0.296468,30.5035,213,10.6168,16.7311,0.25,13931
-4.7783e-08,1.43409e-07,-1.6931e-06,-3.03236e-05,-5.46417e-05,-0.000276077,36.1458,32.5741,0.0508489,18.0532,36.1552,32.5666,0.0488683,34.4525,213,11.7636,6.1113,0.25,13932
1.70052e-07,-5.71032e-08,-1.69165e-06,-6.22206e-05,-3.06803e-05,-0.000273404,30.9691,35.6016,-0.0484394,17.8356,35.6179,30.9577,-0.053375,33.5846,213,5.6167,12.5979,0.25,13933
8.17047e-09,-2.49087e-07,-1.68709e-06,-2.39547e-05,-8.72407e-05,-0.000268863,35.3039,26.0087,-0.667046,17.9894,35.3079,26.0086,-0.670939,32.3477,213,9.71746,16.1681,0.25,13934
8.53026e-10,-1.733e-07,-1.68867e-06,-2.47153e-05,-6.10112e-05,-0.000276329,36.8748,31.5439,-0.0808434,18.4809,36.8779,31.5439,-0.0838968,34.6045,213,10.024,15.1306,0.25,13935
2.41167e-07,-2.70293e-07,-1.68196e-06,-8.72668e-05,-9.21772e-05,-0.00023875,22.4405,21.7193,0.19149,11.661,23.4902,20.6928,0.168273,22.0567,213,4.32162,16.6427,0.25,13936
1.63938e-07,-3.46352e-07,-1.70509e-06,-5.9793e-05,-0.00011132,-0.000243923,26.7709,19.2029,-0.273183,13.7089,27.0896,18.9393,-0.328248,24.3865,213,5.26141,17.3187,0.25,13937
1.69552e-07,-2.48344e-07,-1.68331e-06,-6.13271e-05,-8.61852e-05,-0.000250837,28.1052,24.4542,0.271039,14.0826,28.427,24.1417,0.261801,26.2858,213,5.33511,16.3361,0.25,13938
2.47541e-07,-2.0075e-07,-1.67545e-06,-8.89047e-05,-6.75806e-05,-0.000249626,23.3293,26.4613,-0.276648,13.5188,26.7458,23.06,-0.291876,25.3962,213,4.37024,15.7672,0.25,13939
1.7318e-07,-1.83949e-07,-1.68249e-06,-6.31965e-05,-6.28604e-05,-0.000260472,28.9354,28.9848,-0.0394764,14.9005,29.7545,28.1727,-0.0464754,29.0424,213,5.38373,15.4607,0.25,13940
-2.84569e-07,1.27565e-08,-1.68133e-06,-9.27053e-05,-2.26874e-05,-0.000263095,25.353,35.6368,0.327036,17.6734,35.6561,25.3516,0.309159,31.4858,213,15.8956,9.79153,0.25,13941
-3.39352e-07,-2.81751e-10,-1.68587e-06,-0.000110557,-2.25058e-05,-0.000260387,21.3326,34.265,-0.673812,17.4739,34.2695,21.3326,-0.678262,30.6038,213,16.4336,10.3542,0.25,13942
1.68676e-07,2.13869e-07,-1.68833e-06,-6.10058e-05,-7.58357e-05,-0.000256219,28.6467,26.4686,-0.025254,14.4358,28.8326,26.2966,-0.0390909,27.6909,213,5.48181,4.88772,0.25,13943
-5.97332e-07,1.88069e-07,-1.72036e-06,-0.000206873,-6.22221e-05,-0.000202269,-0.096398,21.1493,0.579813,10.8107,21.3923,0.469336,-0.228966,21.2808,213,18.2679,5.07722,0.25,13944
-4.19993e-07,1.82724e-07,-1.69014e-06,-0.000144356,-6.2405e-05,-0.000230643,12.2599,24.2965,-0.413476,12.4213,24.3797,12.226,-0.462831,21.5159,213,17.2265,5.16404,0.25,13945
-4.52716e-07,2.51493e-07,-1.6978e-06,-0.000153352,-8.69146e-05,-0.000218795,8.91444,18.6725,-0.697439,9.81962,18.8735,8.78168,-0.765712,17.0103,213,17.5123,4.23363,0.25,13946
2.46714e-07,3.03349e-07,-1.67772e-06,-8.72305e-05,-0.000101431,-0.000235675,21.8717,19.7861,0.0689083,11.15,22.3453,19.3362,0.0452108,20.9582,213,4.33719,3.79715,0.25,13947
2.31522e-07,2.21783e-07,-1.68531e-06,-8.221e-05,-7.81604e-05,-0.000247017,24.1933,24.7881,-0.0127646,12.7509,25.4702,23.53,-0.0316365,24.5892,213,4.59429,4.72281,0.25,13948
1.73877e-07,2.7974e-07,-1.68341e-06,-6.16735e-05,-9.41098e-05,-0.000248296,27.5187,22.7547,0.108533,13.7869,27.6677,22.6204,0.093804,25.4288,213,5.344,4.10492,0.25,13949
-1.82879e-07,-2.39767e-07,-1.68028e-06,-6.65148e-05,-8.18359e-05,-0.000250154,27.3287,25.0785,0.356719,13.6972,27.7385,24.6814,0.34404,26.001,213,14.9675,16.2442,0.25,13950
-2.68183e-07,-1.9379e-07,-1.67624e-06,-9.42258e-05,-6.62005e-05,-0.000248098,22.3222,26.4384,-0.277752,13.4869,26.6844,22.0878,-0.289321,24.9944,213,15.951,15.672,0.25,13951
-9.45738e-07,-6.39187e-08,-1.62566e-06,-0.000299362,-3.52168e-05,-0.00017258,-17.0262,21.7702,1.595,19.6229,22.1923,1.20005,-17.0534,34.0154,213,19.5021,12.6186,0.2875,13952
-1.10113e-06,-8.40243e-08,-1.38331e-06,-0.000269513,-3.96789e-05,-0.000186601,-11.5798,22.1771,0.597976,17.4172,23.2155,-0.401346,-11.6189,30.7979,213,20.125,13.1325,0.2125,13953
-6.19436e-07,3.9555e-08,-1.73172e-06,-0.000219829,-2.48902e-05,-0.000202517,0.25604,28.8876,2.79865,14.4196,29.0893,2.60294,0.250075,27.7377,213,18.2531,8.68556,0.25,13954
1.10302e-06,-8.50057e-08,-1.36132e-06,-0.000270263,-3.7998e-05,-0.000186778,-11.6195,22.4944,0.642288,17.5471,23.4289,-0.246384,-11.6653,31.0041,213,-0.025,13.1325,0.2125,13955
9.50917e-07,-6.3907e-08,-1.62429e-06,-0.000303492,-3.46741e-05,-0.000169093,-17.6421,21.8405,2.09766,20.0021,22.3521,1.59605,-17.6521,34.6529,213,0.597879,12.6186,0.2875,13956
6.61172e-07,1.36899e-07,-1.72436e-06,-0.000229945,-5.12131e-05,-0.000197502,-4.16702,22.0843,0.598071,13.297,22.3117,0.485818,-4.28221,24.5595,213,1.58409,5.99462,0.25,13957
9.19938e-07,-4.77494e-08,-1.638e-06,-0.000292833,-2.87607e-05,-0.000197732,-17.2045,21.5812,-3.23639,19.59,21.9743,-3.62843,-17.2056,34.4594,213,0.672879,12.1161,0.25,13958
6.52457e-07,-3.49508e-08,-1.73475e-06,-0.000226867,-2.67417e-05,-0.000205149,-1.8547,27.5388,1.33519,14.8434,27.7891,1.12777,-1.89761,28.2956,213,1.69021,11.7641,0.25,13959
8.54375e-07,-7.60657e-07,-1.37231e-06,-0.000241553,-0.000219077,-0.000109571,-14.4277,-11.1266,4.95716,13.6637,9.29071,-11.8512,-18.0366,24.8196,213,-0.025,19.425,0.25,13960
9.54465e-07,9.63404e-07,-1.05992e-06,-0.000236299,-0.000233943,-0.000105765,-14.1987,-13.8527,4.97346,11.9389,7.33514,-13.8704,-16.5427,22.6602,213,-0.025,0.075,0.25,13961
-1.68543e-07,7.77988e-07,-1.70213e-06,-5.74359e-05,-0.000263825,-0.000185764,18.5194,-11.794,-0.32877,15.3939,18.9852,-0.78602,-11.8026,27.02,213,14.772,1.07231,0.25,13962
-1.73903e-07,5.26093e-07,-1.70916e-06,-5.99211e-05,-0.000172691,-0.000224253,22.8425,6.2795,-1.29363,12.3633,23.1607,6.23353,-1.56586,21.8948,213,14.8645,2.21428,0.25,13963
1.42655e-07,-5.12554e-07,-1.7142e-06,-5.2165e-05,-0.000189196,-0.000219155,23.6404,3.51394,-0.886256,12.6392,24.0739,3.39867,-1.20446,23.32,213,5.35152,18.4414,0.25,13964
8.81556e-07,-6.55451e-07,-1.40507e-06,-0.000204905,-0.00018318,-0.000136678,-4.79819,-1.60728,5.22271,7.25181,6.63091,0.0590419,-7.87271,12.5789,213,-0.025,18.9375,0.2125,13965
8.51487e-07,-5.51015e-07,-1.59047e-06,-0.000274789,-0.000174317,-0.000143903,-21.4411,-6.68426,-2.21712,10.7032,-0.107228,-8.72164,-21.5136,18.6558,213,0.367583,18.5281,0.2875,13966
8.79958e-07,7.45215e-07,-1.57326e-06,-0.000270393,-0.000243998,-0.000120829,-24.7408,-20.864,-2.77354,11.5213,-2.18229,-20.9711,-25.2249,21.2377,213,0.367583,0.971886,0.2875,13967
9.26601e-07,8.29072e-07,-1.24783e-06,-0.00018313,-0.000217236,-0.000133743,-2.47343,-7.48278,4.78025,7.02484,5.94953,-3.02533,-8.10016,12.3227,213,-0.025,0.5625,0.2125,13968
1.11753e-07,4.15268e-08,-1.69337e-06,-4.6895e-05,-2.73435e-05,-0.000280144,34.3343,37.2059,0.0758663,18.5715,37.2154,34.3281,0.0725004,35.7867,213,6.71954,8.725,0.25,13969
7.68411e-08,3.463e-08,-1.69432e-06,-3.6923e-05,-2.60206e-05,-0.000285069,36.3944,37.9956,-0.0520245,19.0263,38.0003,36.3901,-0.0523694,37.2736,213,7.55933,8.99951,0.25,13970
7.18235e-08,5.97013e-08,-1.69423e-06,-3.52599e-05,-3.19529e-05,-0.000283577,36.3791,36.8648,-0.0924661,18.4901,36.8876,36.3566,-0.0927094,36.7177,213,7.68606,8.13384,0.25,13971
-1.09962e-06,-1.28281e-07,-1.36718e-06,-0.000281231,-5.25214e-05,-0.000180705,-15.0454,18.5464,-0.280561,17.7776,20.5095,-2.24335,-15.0457,31.1911,213,20.125,14.1075,0.2125,13972
-1.6082e-07,-3.32584e-07,-1.69823e-06,-5.91996e-05,-0.00011158,-0.000238764,27.3714,19.678,0.997815,13.3652,27.6802,19.417,0.949949,23.7047,213,14.7698,17.213,0.25,13973
-1.18121e-07,-3.94989e-07,-1.71829e-06,-4.71319e-05,-0.000135233,-0.000234745,28.4367,15.4969,0.881005,14.0084,28.7682,15.295,0.751406,24.2692,213,14.0667,17.6463,0.25,13974
-6.09887e-07,-1.26019e-07,-1.72026e-06,-0.000210057,-4.3954e-05,-0.000210046,0.119003,24.5154,0.120572,12.5437,24.7161,0.410118,-0.371256,24.706,213,18.274,14.4167,0.25,13975
-4.64064e-07,-1.66087e-07,-1.6981e-06,-0.000157517,-5.78916e-05,-0.000228541,9.71517,24.3477,-0.716523,12.6247,24.4624,9.67079,-0.786887,21.9737,213,17.5183,15.2603,0.25,13976
-1.07843e-06,1.85634e-07,-1.40563e-06,-0.000276304,-6.4545e-05,-0.000178359,-14.7657,16.3364,-0.379961,16.739,18.696,-2.72331,-14.7819,29.3681,213,20.125,5.3925,0.2125,13977
1.09942e-06,-1.28593e-07,-1.3652e-06,-0.000280322,-5.31964e-05,-0.000179968,-14.8211,18.538,-0.0814942,17.6872,20.552,-2.09415,-14.8225,31.0339,213,-0.025,14.1075,0.2125,13978
1.07816e-06,1.85498e-07,-1.40015e-06,-0.000275627,-6.46912e-05,-0.000178334,-14.6142,16.3669,-0.324448,16.7011,18.7596,-2.68874,-14.6426,29.3141,213,-0.025,5.3925,0.2125,13979
3.1855e-07,-2.91398e-09,-1.68e-06,-0.000105438,-2.29758e-05,-0.000256481,22.884,34.9956,0.69951,17.1654,35.013,22.884,0.682122,30.155,213,3.8644,10.4761,0.25,13980
4.17755e-07,5.352e-09,-1.68884e-06,-0.000139132,-2.2832e-05,-0.000243541,16.0088,33.0904,0.673815,16.2318,33.114,16.0086,0.6504,28.1279,213,3.0541,10.0907,0.25,13981
5.77437e-07,-9.42952e-09,-1.72307e-06,-0.000192895,-2.20542e-05,-0.000226844,4.72062,29.8129,-0.26557,15.1674,29.9415,4.7199,-0.39341,28.129,213,2.0596,10.7373,0.25,13982
3.48183e-07,-2.18174e-07,-1.67797e-06,-0.000115047,-7.08422e-05,-0.000237632,17.8625,24.355,-0.142295,12.3885,24.6029,17.6464,-0.174079,22.1344,213,3.34079,16.0573,0.25,13983
5.00119e-07,1.34481e-07,-1.70617e-06,-0.000168353,-5.06746e-05,-0.000225952,8.02757,25.3115,-0.432328,12.9449,25.3909,8.01466,-0.498864,22.855,213,2.39725,6.00402,0.25,13984
1.11281e-06,5.83238e-08,-1.36081e-06,-0.000278892,-3.24938e-05,-0.000181967,-12.7291,23.4606,1.50667,18.7037,24.661,0.323624,-12.7464,32.882,213,-0.025,8.3025,0.2125,13985
1.13114e-06,7.44875e-08,-1.38062e-06,-0.000287059,-3.36156e-05,-0.000189496,-15.5006,21.7239,-1.17115,19.6108,23.7123,-3.15084,-15.5093,34.7325,213,-0.025,7.815,0.25,13986
8.83258e-07,5.79331e-08,-1.65108e-06,-0.00028094,-3.10477e-05,-0.00020333,-15.083,21.6199,-3.68409,18.4993,21.8682,-3.88506,-15.1303,32.8526,213,0.791167,8.10465,0.25,13987
9.19806e-07,4.42102e-08,-1.63223e-06,-0.000297295,-2.72249e-05,-0.000188694,-17.2886,22.378,-1.33777,19.9467,22.6013,-1.5574,-17.2922,34.8046,213,0.716167,8.57715,0.2875,13988
-9.51514e-07,1.06047e-07,-1.60684e-06,-0.000297023,-4.1288e-05,-0.000171815,-16.9599,20.6011,1.42993,19.1128,21.2625,0.771729,-16.9631,33.133,213,19.5523,6.82014,0.2875,13989
-1.08713e-06,1.31613e-07,-1.4069e-06,-0.000266076,-4.79227e-05,-0.00018338,-11.2232,20.8181,0.922867,16.6221,21.852,0.0579401,-11.3922,29.2512,213,20.125,6.3675,0.2125,13990
-7.41339e-07,-6.03143e-08,-1.71307e-06,-0.000254554,-3.18e-05,-0.000191806,-7.73446,24.9825,1.4816,16.5483,25.3605,1.10526,-7.73608,29.6805,213,18.8004,12.6177,0.25,13991
-6.78884e-07,-9.05963e-08,-1.72035e-06,-0.000231889,-3.87913e-05,-0.000205459,-4.21676,24.1445,-0.334764,14.3503,24.4178,-0.542061,-4.28279,27.0251,213,18.5567,13.5349,0.25,13992
-1.62885e-07,1.58328e-07,-1.69028e-06,-5.96707e-05,-5.67213e-05,-0.000263935,30.033,30.4662,0.0317184,15.3699,30.7631,29.7447,0.0231844,30.2435,213,14.4789,5.72865,0.25,13993
-2.2299e-07,1.71032e-07,-1.68639e-06,-8.01738e-05,-5.99541e-05,-0.000255612,25.581,28.5508,-0.186483,14.4375,28.6799,25.4604,-0.194992,27.4073,213,15.3552,5.4705,0.25,13994
-1.65146e-07,2.12439e-07,-1.6887e-06,-5.9369e-05,-7.56462e-05,-0.000255719,29.1046,26.7139,0.265754,14.5003,29.2527,26.5795,0.252048,27.7607,213,14.5612,4.90999,0.25,13995
9.55491e-07,1.05554e-07,-1.606e-06,-0.000301843,-4.07598e-05,-0.000167198,-17.6374,20.7091,2.13854,19.5575,21.464,1.39723,-17.651,33.8784,213,0.547658,6.82014,0.2875,13996
1.08872e-06,1.31976e-07,-1.38945e-06,-0.000266072,-4.70263e-05,-0.000182946,-11.0978,21.0745,1.11133,16.6593,21.9933,0.420034,-11.3253,29.2701,213,-0.025,6.3675,0.2125,13997
-1.57202e-08,-3.95867e-07,-1.71519e-06,-2.27849e-05,-0.000126301,-0.000258784,32.8762,17.6723,-1.78613,17.336,32.8829,17.6686,-1.78918,30.1018,213,10.7401,17.54,0.25,13998
-5.10177e-08,8.55469e-07,-1.67164e-06,-2.98851e-05,-0.000276023,-0.000199615,22.7061,-13.4455,-2.22297,18.2503,23.0497,-2.56111,-13.451,32.4561,213,11.9262,0.886382,0.25,13999
-7.12072e-08,1.09711e-06,-1.41606e-06,-3.47733e-05,-0.000299966,-0.000169354,22.1218,-16.8283,2.3553,20.7338,24.6301,-0.14381,-16.8375,36.1385,213,12.4341,0.075,0.25,14000
-5.85048e-08,-4.31042e-08,-1.69438e-06,-3.4182e-05,-2.81279e-05,-0.000285566,36.8097,37.6989,-0.112218,18.9102,37.7079,36.8009,-0.112475,37.3752,213,12.0357,12.0668,0.25,14001
-9.55033e-08,-3.32432e-08,-1.69348e-06,-4.12238e-05,-2.70229e-05,-0.000282614,35.4964,37.5822,0.0421499,18.7749,37.5904,35.4898,0.0405396,36.5449,213,13.0075,11.7242,0.25,14002
-2.43262e-07,-2.72424e-07,-1.68137e-06,-8.87248e-05,-9.2216e-05,-0.000238984,22.0646,21.5518,-0.00470449,11.5602,23.0932,20.5457,-0.0272175,21.9578,213,15.8091,16.6678,0.25,14003
-2.19069e-07,-3.61491e-07,-1.70452e-06,-8.01341e-05,-0.000120626,-0.000232533,22.0769,16.1298,-0.306622,11.55,22.7133,15.5735,-0.386781,20.4856,213,15.667,17.4853,0.25,14004
-1.11152e-06,5.86672e-08,-1.39269e-06,-0.000277688,-3.28202e-05,-0.000183349,-12.5995,23.3654,1.25648,18.5856,24.5587,0.0761952,-12.6125,32.7269,213,20.125,8.3025,0.2125,14005
-9.1774e-07,4.40817e-08,-1.62553e-06,-0.000293557,-2.78006e-05,-0.000188039,-16.3827,22.6503,-0.884708,19.656,22.9232,-1.15142,-16.3889,34.3308,213,19.3838,8.57715,0.2875,14006
-8.81017e-07,5.8073e-08,-1.64437e-06,-0.000279459,-3.09043e-05,-0.000200207,-14.4218,22.0847,-2.78162,18.4312,22.3936,-3.04341,-14.4689,32.6835,213,19.3088,8.10465,0.25,14007
-1.12551e-06,7.48543e-08,-1.413e-06,-0.000283837,-3.33691e-05,-0.000191879,-14.9259,21.8615,-1.41953,19.3864,23.8414,-3.39393,-14.9314,34.4834,213,20.125,7.815,0.25,14008
9.2771e-07,8.60753e-08,-1.62259e-06,-0.000290452,-3.54162e-05,-0.000189499,-16.4847,20.9737,-1.6573,19.0318,21.5736,-2.25174,-16.4901,33.3108,213,0.622658,7.32264,0.25,14009
1.24975e-07,-2.28571e-07,-1.68592e-06,-5.00504e-05,-7.90324e-05,-0.000260305,30.599,26.3423,-0.282147,15.5175,30.7437,26.2066,-0.291203,29.0335,213,6.1729,16.037,0.25,14010
2.03726e-07,1.30829e-07,-1.68828e-06,-7.33854e-05,-4.93068e-05,-0.000261848,27.6248,31.1614,-0.0556495,15.6497,31.2346,27.5608,-0.0648515,29.6338,213,5.04545,6.22283,0.25,14011
2.40608e-07,9.18586e-08,-1.68577e-06,-8.22714e-05,-3.8617e-05,-0.000261629,26.5087,32.9205,0.165506,16.3941,32.9493,26.4843,0.161076,30.0814,213,4.6118,7.08178,0.25,14012
5.77059e-07,1.53341e-08,-1.72671e-06,-0.00019395,-2.40805e-05,-0.000225962,4.36015,29.3097,-0.341624,14.9559,29.4403,4.35957,-0.471619,27.8128,213,2.06256,9.67109,0.25,14013
6.2729e-07,4.19232e-08,-1.73899e-06,-0.000222,-2.54122e-05,-0.000201182,-0.189801,28.684,2.86783,14.6118,29.0203,2.545,-0.203304,27.951,213,1.81145,8.60645,0.25,14014
8.29924e-08,-2.71064e-07,-1.69394e-06,-3.63223e-05,-9.21948e-05,-0.000256612,33.0134,24.8071,0.65834,16.2169,33.0737,24.7653,0.639826,29.1807,213,7.09594,16.4888,0.25,14015
1.55824e-08,5.43514e-08,-1.69439e-06,-2.81274e-05,-3.02033e-05,-0.000286841,37.9517,37.6468,-0.0467993,19.0009,37.9544,37.6447,-0.0474034,37.8479,213,9.48715,8.33586,0.25,14016
-6.43963e-07,-1.67069e-07,-1.72385e-06,-0.000225508,-5.81879e-05,-0.000199619,-3.95024,20.6249,-0.147786,12.3886,20.8115,-0.31879,-3.96581,23.1701,213,18.4672,15.1993,0.25,14017
-6.70964e-07,-2.22332e-07,-1.71359e-06,-0.000239492,-6.9517e-05,-0.000187881,-7.27283,17.6922,0.307505,12.6433,17.9762,0.0610661,-7.31038,22.5244,213,18.6531,16.0284,0.25,14018
-4.82405e-07,-2.17624e-07,-1.70584e-06,-0.000168846,-7.19293e-05,-0.000215089,6.93755,21.1722,0.145635,10.6864,21.3818,6.86455,0.00899351,18.9017,213,17.7115,16.0429,0.25,14019
-4.14669e-08,-5.64481e-07,-1.70742e-06,-2.42461e-05,-0.000194514,-0.000230225,28.8188,3.81064,-1.43432,15.7813,29.4844,3.78874,-2.07806,29.0765,213,11.9675,18.6069,0.25,14020
-5.30207e-08,-7.54775e-07,-1.62063e-06,-2.63855e-05,-0.00026659,-0.000186895,25.6178,-9.66219,2.04306,19.7806,29.8414,-2.12284,-9.71989,36.3629,213,12.4341,19.425,0.25,14021
3.20116e-07,2.44333e-07,-1.68105e-06,-0.000104818,-8.61674e-05,-0.000234818,19.1514,21.8907,0.0576622,11.1281,22.2814,18.7931,0.0252053,20.7333,213,3.62653,4.37308,0.25,14022
3.42954e-07,3.3403e-07,-1.67696e-06,-0.000110584,-0.000108526,-0.000223815,16.7044,17.0065,0.0734744,9.08312,18.1919,15.5669,0.0256292,17.0064,213,3.34079,3.44267,0.25,14023
3.33911e-08,3.51019e-07,-1.67538e-06,-2.60309e-05,-0.000116762,-0.000250364,33.7747,20.4485,0.825805,16.4999,33.8021,20.4445,0.802314,28.7509,213,8.7248,3.57586,0.25,14024
-9.24611e-07,8.63648e-08,-1.62174e-06,-0.000287338,-3.54107e-05,-0.000190507,-15.8301,21.1718,-1.60798,18.8187,21.8049,-2.23864,-15.8325,33.0111,213,19.4773,7.32264,0.25,14025
1.78022e-08,-1.92174e-07,-1.68624e-06,-2.58158e-05,-6.71532e-05,-0.000272943,36.3527,30.2813,0.0559275,18.1531,36.3578,30.2804,0.0516787,33.6812,213,9.34956,15.4276,0.25,14026
2.08514e-07,6.95131e-08,-1.68812e-06,-7.25453e-05,-3.27299e-05,-0.000268794,28.7269,34.5748,-0.09703,17.3516,34.5967,28.7144,-0.106439,32.1679,213,5.05038,7.73003,0.25,14027
3.03195e-07,-2.23289e-08,-1.68238e-06,-0.000100891,-2.31579e-05,-0.000262888,23.361,34.778,-0.432297,17.6162,34.7892,23.3607,-0.443151,31.1332,213,4.00564,11.3189,0.25,14028
-5.44687e-10,1.93588e-07,-1.69049e-06,-2.51227e-05,-6.99972e-05,-0.000271206,36.4158,29.8249,0.272361,18.0781,36.4222,29.8248,0.266065,33.3505,213,10.0723,5.30952,0.25,14029
-5.20657e-07,-8.66337e-08,-1.70067e-06,-0.000172615,-3.68207e-05,-0.000226456,8.25081,28.1956,0.342977,13.9977,28.2669,8.25095,0.271546,24.9805,213,17.7633,13.5134,0.25,14030
-3.67736e-07,-8.2821e-08,-1.68825e-06,-0.000123712,-3.46433e-05,-0.000247888,18.2047,31.2866,-0.0336517,15.6819,31.3136,18.1943,-0.0502208,27.2825,213,16.7219,13.4266,0.25,14031
-4.36919e-07,-5.65141e-08,-1.69861e-06,-0.000142358,-2.8079e-05,-0.000245521,14.558,31.3428,-0.593972,15.9914,31.3657,14.5581,-0.617009,27.7099,213,17.2244,12.593,0.25,14032
-1.97382e-07,7.65611e-07,-1.69243e-06,-6.76432e-05,-0.000246555,-0.000203588,16.0142,-10.2635,-3.9527,13.3731,16.4676,-4.39115,-10.2785,24.3424,213,15.2333,1.07231,0.2125,14033
-2.31257e-07,5.69331e-07,-1.72637e-06,-7.87603e-05,-0.000201222,-0.000197945,18.1068,0.120298,0.601516,9.16901,18.26,0.646651,-0.0780308,17.9866,213,15.705,1.92189,0.25,14034
-2.63888e-07,8.27563e-07,-1.66315e-06,-8.63715e-05,-0.000278663,-0.000172701,11.3989,-16.844,-1.28084,14.4447,12.0091,-1.85472,-16.8803,25.0257,213,16.0581,0.849583,0.2875,14035
-2.54948e-07,1.02872e-06,-1.41251e-06,-8.25563e-05,-0.000275436,-0.000170814,12.7939,-15.5354,-0.168902,15.2767,15.006,-2.36891,-15.5475,26.5431,213,15.8182,0.075,0.2125,14036
-2.83364e-07,7.9371e-07,-1.67034e-06,-9.01711e-05,-0.000261344,-0.000176912,11.7109,-13.43,-1.02915,12.926,12.36,-1.61613,-13.4921,22.4132,213,16.2899,0.924583,0.25,14037
1.68824e-07,-5.04293e-07,-1.7036e-06,-6.17955e-05,-0.000178083,-0.000229601,21.3881,4.30838,-3.25833,12.5956,21.7588,4.1117,-3.43239,22.3934,213,4.89016,18.4414,0.2125,14038
1.94676e-07,-6.95529e-07,-1.61378e-06,-7.00698e-05,-0.00024759,-0.000187289,16.8577,-9.21552,-0.358893,14.8861,20.4549,-3.85429,-9.31732,27.4515,213,4.28182,19.425,0.2125,14039
2.18151e-07,-3.74518e-07,-1.70957e-06,-7.93008e-05,-0.000121708,-0.000227532,22.6434,16.4149,0.871933,11.1706,23.2037,15.8639,0.862562,19.7236,213,4.41845,17.5918,0.25,14040
2.4619e-07,-5.17055e-07,-1.70502e-06,-8.57386e-05,-0.000179961,-0.000211701,17.1312,3.2922,-1.36952,10.2577,18.3623,2.84461,-2.15304,18.5291,213,3.81011,18.5754,0.25,14041
2.25926e-07,-5.39261e-07,-1.70808e-06,-7.9603e-05,-0.000193177,-0.000210663,17.4676,0.786425,-1.7819,10.3884,18.4322,0.384431,-2.34455,19.5556,213,4.04193,18.6504,0.2875,14042
1.95952e-07,7.69127e-07,-1.68885e-06,-6.70611e-05,-0.000247043,-0.00020325,16.1402,-10.2947,-3.86259,13.4718,16.6337,-4.341,-10.3098,24.5104,213,4.89015,1.05864,0.2125,14043
2.6416e-07,8.27927e-07,-1.66107e-06,-8.69257e-05,-0.000279485,-0.000169077,11.5277,-16.7544,-0.53823,14.4823,12.1801,-1.16064,-16.7844,25.11,213,4.04193,0.849583,0.2875,14044
2.29381e-07,5.72337e-07,-1.72945e-06,-7.85718e-05,-0.000204309,-0.000195769,18.067,-0.400668,0.853703,9.39098,18.1825,0.936915,-0.599417,18.0629,213,4.41844,1.90822,0.25,14045
2.83621e-07,7.94149e-07,-1.66781e-06,-9.03415e-05,-0.000262449,-0.000175953,11.6563,-13.6221,-0.917933,13.0231,12.3691,-1.57584,-13.677,22.5755,213,3.81011,0.924583,0.25,14046
2.54823e-07,1.02901e-06,-1.41223e-06,-8.22385e-05,-0.000275041,-0.000171257,12.8657,-15.4522,-0.208912,15.2831,15.1051,-2.43943,-15.4611,26.5675,213,4.28182,0.075,0.2125,14047
-1.67123e-07,3.78817e-07,-1.6732e-06,-5.88064e-05,-0.000127766,-0.000233266,26.4669,16.3385,0.843164,12.8522,26.5424,16.2681,0.838079,22.4094,213,14.7175,3.20717,0.25,14048
-1.46405e-08,4.61034e-07,-1.69701e-06,-2.51805e-05,-0.000151296,-0.000239314,31.7841,13.261,0.333306,15.7909,31.8497,13.2609,0.26779,27.4934,213,10.6409,2.74863,0.25,14049
-3.05462e-08,3.78631e-07,-1.6847e-06,-2.6195e-05,-0.000123556,-0.000250816,33.058,18.758,0.0667812,16.5192,33.0821,18.7571,0.0436038,28.6962,213,11.27,3.33737,0.25,14050
-1.47189e-08,3.1358e-07,-1.68169e-06,-2.53793e-05,-0.000104685,-0.000257338,34.4082,22.7602,0.339351,17.0449,34.4188,22.76,0.328975,30.0099,213,10.6409,3.90633,0.25,14051
8.39401e-08,5.07676e-07,-1.70631e-06,-3.5144e-05,-0.000171192,-0.000234637,27.9671,7.98508,-1.3334,14.6824,28.0044,7.97473,-1.36038,25.9868,213,7.12658,2.40686,0.25,14052
-7.48975e-07,8.57458e-07,-1.56302e-06,-0.000239253,-0.000256387,-0.000132156,-19.4732,-21.9897,-3.74333,9.66579,-2.91291,-20.0488,-22.2445,18.3326,213,19.2711,0.484385,0.2875,14053
-8.20105e-07,9.29059e-07,-1.31532e-06,-0.000225406,-0.000200562,-0.000125204,-10.2775,-6.62861,4.43967,8.11435,5.13864,-6.51503,-11.09,14.4933,213,19.6636,0.075,0.2125,14054
-8.33392e-07,8.28359e-07,-1.50081e-06,-0.000244686,-0.000239524,-0.000141681,-20.0931,-19.3349,-4.96413,9.58232,-3.13228,-18.9629,-22.2969,17.7343,213,19.6574,0.559385,0.25,14055
-9.46876e-07,9.57852e-07,-1.17675e-06,-0.000238535,-0.000236481,-0.000105889,-14.9849,-14.6832,4.49738,12.6471,7.41412,-14.7047,-17.8801,23.8655,213,20.125,0.075,0.25,14056
-6.86032e-07,-6.09889e-07,-1.65279e-06,-0.00024013,-0.000197899,-0.000151506,-16.0257,-9.82318,-3.00908,8.28951,-0.834478,-10.61,-17.4135,14.4345,213,19.2711,19.0156,0.2875,14057
-7.7898e-07,-6.12588e-07,-1.59206e-06,-0.000254026,-0.000174435,-0.000165365,-18.4679,-6.77797,-5.44584,9.73576,-0.695258,-9.82968,-20.1668,16.8735,213,19.6574,18.9406,0.25,14058
-8.55186e-07,-7.49351e-07,-1.40547e-06,-0.000248489,-0.00021079,-0.000110204,-15.3793,-9.84222,4.93122,14.6889,10.1774,-11.2674,-19.2003,26.3236,213,20.125,19.425,0.25,14059
-7.29986e-07,-6.99268e-07,-1.51086e-06,-0.000229589,-0.000205953,-0.000120684,-11.3644,-7.89278,4.63111,10.5396,7.09649,-7.73995,-13.9826,18.7539,213,19.6636,19.425,0.2125,14060
-1.91804e-07,1.16629e-07,-1.68927e-06,-6.86132e-05,-4.55682e-05,-0.00026531,28.7977,32.1824,-0.0921358,16.1724,32.2452,28.7425,-0.0997083,30.7436,213,14.879,6.53387,0.25,14061
-1.2769e-07,1.31364e-07,-1.69159e-06,-5.00121e-05,-4.9444e-05,-0.000271063,32.3683,32.4517,-0.0985931,16.4372,32.7724,32.0509,-0.101918,32.5196,213,13.8114,6.27205,0.25,14062
3.56249e-07,1.33282e-07,-1.68092e-06,-0.000117573,-4.91583e-05,-0.000245418,18.5541,28.6026,-0.223112,14.4546,28.6682,18.5063,-0.240922,25.4014,213,3.4164,6.0734,0.25,14063
4.25759e-07,9.52828e-08,-1.69573e-06,-0.000138696,-3.80317e-05,-0.000242614,14.7796,29.5646,-0.483415,15.0708,29.6199,14.7626,-0.521729,26.1043,213,2.91395,6.90698,0.25,14064
2.29353e-07,5.53004e-07,-1.72225e-06,-7.89971e-05,-0.000185507,-0.000206335,18.7346,3.09097,0.0318394,9.5781,19.0093,2.99503,-0.146911,17.7945,213,4.42538,2.01007,0.25,14065
-8.73067e-07,7.41543e-07,-1.55281e-06,-0.00026137,-0.00023303,-0.000130829,-22.4816,-18.3192,-3.30836,10.0742,-2.5052,-18.9503,-22.6537,18.5758,213,19.7324,0.971886,0.2875,14066
-9.28799e-07,8.28789e-07,-1.30646e-06,-0.000197629,-0.000220352,-0.000126169,-5.54149,-8.87901,4.95421,7.85773,5.59082,-4.93247,-10.1246,13.8686,213,20.125,0.5625,0.2125,14067
-8.47418e-07,-5.50169e-07,-1.59258e-06,-0.000272307,-0.000170962,-0.000156698,-21.7268,-6.84184,-4.7468,9.74891,-2.35267,-9.11228,-21.8505,17.1482,213,19.7324,18.5281,0.2875,14068
-8.84291e-07,-6.4878e-07,-1.43315e-06,-0.000214334,-0.000176239,-0.000133226,-6.09294,-0.497678,5.81987,7.7498,7.04534,0.63817,-8.45426,13.49,213,20.125,18.9375,0.2125,14069
-5.68838e-07,-5.78505e-08,-1.7086e-06,-0.000191955,-2.91111e-05,-0.00022613,4.35372,28.2714,-0.665764,14.5761,28.3768,4.35805,-0.775453,26.9546,213,18.0177,12.6145,0.25,14070
-3.26098e-07,2.92008e-08,-1.68511e-06,-0.000107613,-2.50679e-05,-0.0002553,22.276,34.3998,0.584399,16.9566,34.4505,22.2723,0.537356,29.7558,213,16.3255,9.09913,0.25,14071
2.57134e-07,2.68241e-08,-1.68142e-06,-8.85973e-05,-2.46772e-05,-0.000263491,26.1172,35.5055,0.429719,17.5458,35.5155,26.1131,0.423855,31.4624,213,4.49222,9.21731,0.25,14072
2.94532e-07,1.39155e-08,-1.67973e-06,-9.71212e-05,-2.27905e-05,-0.000261434,24.4372,35.3545,0.303651,17.5348,35.3646,24.4359,0.294924,31.0814,213,4.10473,9.75299,0.25,14073
3.38587e-07,3.00106e-08,-1.6814e-06,-0.00011129,-2.48299e-05,-0.000254024,21.5338,34.2327,0.569784,16.8685,34.2703,21.5327,0.533316,29.5076,213,3.67482,9.0605,0.25,14074
1.24771e-07,2.16181e-08,-1.69238e-06,-5.04087e-05,-2.45873e-05,-0.000279916,33.7687,37.5612,0.0598213,18.7539,37.5653,33.767,0.0574465,35.7603,213,6.46692,9.48389,0.25,14075
2.24702e-07,1.68514e-07,-1.68632e-06,-8.08109e-05,-5.93332e-05,-0.000254951,25.5476,28.7022,-0.0292415,14.4391,28.8415,25.4159,-0.0367989,27.327,213,4.7321,5.50561,0.25,14076
-3.36792e-08,4.9103e-07,-1.70226e-06,-2.65413e-05,-0.000163646,-0.000238012,30.4244,10.2872,-0.635368,15.5776,30.4734,10.2847,-0.681871,27.3724,213,11.3773,2.54788,0.25,14077
-1.30762e-07,1.86485e-07,-1.69046e-06,-5.11097e-05,-6.64351e-05,-0.000263672,31.2071,28.9562,-0.0130077,15.6646,31.3081,28.8632,-0.021075,30.1811,213,13.9145,5.31403,0.25,14078
1.25361e-07,-1.25064e-07,-1.69177e-06,-4.93891e-05,-4.88615e-05,-0.000270751,32.6016,32.6791,0.0889952,16.5008,33.0863,32.1987,0.0847152,32.5668,213,6.32587,14.3612,0.25,14079
-5.35241e-07,9.74687e-07,-1.46054e-06,-0.000162322,-0.000261305,-0.000141381,-2.30537,-16.8434,0.770287,12.013,6.83564,-8.02376,-17.1904,21.0009,213,18.2023,0.075,0.25,14080
-4.43725e-07,-6.69691e-07,-1.63553e-06,-0.000156301,-0.000226863,-0.000158358,0.774071,-9.58965,0.471916,11.0369,11.6665,-9.60289,-10.4072,21.6827,213,18.2023,19.425,0.25,14081
3.00362e-07,1.77172e-07,-1.6798e-06,-9.88857e-05,-6.11404e-05,-0.00024686,21.7909,27.3347,0.0570828,13.7112,27.465,21.6751,0.0425454,25.0348,213,3.88362,5.29874,0.25,14082
-3.93644e-08,-5.84653e-07,-1.71108e-06,-2.41288e-05,-0.000209776,-0.000223765,28.0243,0.757274,-1.29728,14.9745,28.3462,0.740988,-1.60288,28.8486,213,11.8902,18.6819,0.2875,14083
-4.07688e-08,-7.43055e-07,-1.61496e-06,-2.44234e-05,-0.000273499,-0.00019197,24.9693,-11.6136,0.360846,20.0457,28.472,-3.13606,-11.6194,36.5948,213,11.9727,19.425,0.2125,14084
-3.01081e-08,-7.56663e-07,-1.62265e-06,-2.17878e-05,-0.000261115,-0.000200731,25.9413,-9.20995,-0.341043,19.3029,29.3929,-3.78956,-9.213,36.2001,213,11.5114,19.425,0.25,14085
-3.51824e-07,-2.20811e-07,-1.67739e-06,-0.000116523,-7.17876e-05,-0.000236789,17.498,24.0686,-0.166075,12.2572,24.3168,17.2814,-0.197661,21.8629,213,16.7926,16.0956,0.25,14086
-2.38984e-08,-5.6706e-07,-1.7064e-06,-2.15212e-05,-0.000205232,-0.000228493,28.6339,1.6514,-1.76508,15.6164,29.0509,1.65121,-2.18191,29.5036,213,11.2015,18.6018,0.25,14087
-9.45826e-09,-7.57861e-07,-1.62284e-06,-1.98076e-05,-0.000258952,-0.000195417,27.1161,-8.00832,1.32344,19.6675,31.2968,-2.82739,-8.03819,37.0058,213,10.5114,19.425,0.25,14088
4.14355e-11,-5.2234e-07,-1.71727e-06,-2.04404e-05,-0.000178864,-0.00023537,30.7153,7.44678,-0.852561,16.1577,31.0904,7.44416,-1.22502,28.9705,213,10.05,18.3632,0.25,14089
-9.93683e-08,1.06345e-07,-1.69276e-06,-4.1584e-05,-4.20521e-05,-0.000276726,34.5555,34.4868,0.0190631,17.3871,34.7902,34.2553,0.0159025,34.5099,213,13.1605,6.84194,0.25,14090
5.04796e-08,8.54247e-07,-1.67028e-06,-3.1258e-05,-0.000274871,-0.000201986,22.2622,-13.5184,-2.81351,18.0815,22.6195,-3.14574,-13.5435,32.2469,213,8.1738,0.886382,0.25,14091
7.19281e-08,1.09611e-06,-1.42343e-06,-3.56529e-05,-0.000300294,-0.000163864,22.3929,-16.4763,3.56192,20.7794,25.0732,0.890801,-16.4855,36.1514,213,7.66591,0.075,0.25,14092
2.15264e-07,-4.37187e-08,-1.68949e-06,-7.60942e-05,-2.75e-05,-0.000269432,28.3032,35.4404,-0.0932601,17.773,35.4494,28.2975,-0.0965258,32.5644,213,4.97844,12.1522,0.25,14093
1.91442e-07,-7.66243e-08,-1.69074e-06,-6.94842e-05,-3.41878e-05,-0.000268745,29.3309,34.5151,0.0644869,17.2398,34.5391,29.312,0.059459,32.186,213,5.26705,13.2146,0.25,14094
-3.62426e-08,-1.97631e-08,-1.69448e-06,-2.94608e-05,-2.48127e-05,-0.000288106,38.0168,38.6995,0.0282417,19.3368,38.7016,38.0149,0.0280059,38.3349,213,11.3188,11.1802,0.25,14095
2.18995e-07,-3.64488e-07,-1.70625e-06,-7.93182e-05,-0.000124364,-0.000231629,22.0081,15.3921,-0.362564,11.4755,22.5419,14.9047,-0.409004,20.2433,213,4.42784,17.5093,0.25,14096
1.27805e-07,-1.77873e-07,-1.68744e-06,-5.11274e-05,-6.22067e-05,-0.000264888,31.4844,29.8572,0.0882869,15.804,31.6905,29.6568,0.0825246,30.6418,213,6.19352,15.3156,0.25,14097
-6.8259e-08,-1.10716e-08,-1.69403e-06,-3.63808e-05,-2.39101e-05,-0.000285927,36.6417,38.4733,-0.0105116,19.2429,38.4746,36.641,-0.0110907,37.6024,213,12.2905,10.8375,0.25,14098
8.98255e-09,5.42228e-07,-1.71204e-06,-2.46265e-05,-0.000181893,-0.000221384,30.7333,7.63474,1.83458,14.6121,30.8846,7.65781,1.66025,26.7349,213,9.70211,2.2432,0.25,14099
9.17517e-09,3.711e-07,-1.67444e-06,-2.48873e-05,-0.000125144,-0.000260664,32.3034,17.5782,-2.32624,17.3223,32.3106,17.5787,-2.33397,30.1147,213,9.70211,3.40089,0.25,14100
-2.98393e-07,1.7963e-07,-1.68071e-06,-9.85978e-05,-6.17161e-05,-0.000246613,21.8294,27.2464,0.0896349,13.6511,27.3772,21.7133,0.0749422,24.9571,213,16.2042,5.26412,0.25,14101
-3.46012e-07,3.37851e-07,-1.67573e-06,-0.00011152,-0.000109458,-0.000223365,16.4342,16.7372,0.00703743,8.9897,17.9443,15.2692,-0.0350592,16.8023,213,16.7926,3.40436,0.25,14102
-2.44538e-07,4.17358e-07,-1.67917e-06,-8.57863e-05,-0.000137934,-0.000220405,20.2343,12.5751,0.462188,10.0251,20.4562,12.4092,0.406112,17.4762,213,15.8142,2.83834,0.25,14103
-1.99738e-07,1.29882e-07,-1.6888e-06,-7.16623e-05,-4.91022e-05,-0.000262315,28.0145,31.328,0.0124265,15.6936,31.3909,27.9603,0.00371052,29.8203,213,15.0077,6.2472,0.25,14104
-3.81059e-08,2.77404e-07,-1.68588e-06,-2.79477e-05,-9.62321e-05,-0.000261382,34.203,24.1737,-0.0826275,17.1532,34.2146,24.1712,-0.0917023,30.549,213,11.5009,4.25581,0.25,14105
-3.21145e-07,2.47708e-07,-1.68143e-06,-0.000105563,-8.73757e-05,-0.000234146,18.9223,21.5935,0.0365861,10.9909,21.9898,18.5546,0.00797594,20.4814,213,16.4899,4.33371,0.25,14106
-9.16259e-07,-4.75743e-08,-1.63777e-06,-0.000290745,-2.81305e-05,-0.000190533,-15.9707,22.6008,-1.25201,19.5939,23.2149,-1.86397,-15.9729,34.378,213,19.4271,12.1161,0.25,14107
-7.01657e-07,-3.69735e-08,-1.72381e-06,-0.000241293,-2.70216e-05,-0.000203049,-5.15163,26.3195,0.46539,15.8706,26.5712,0.231936,-5.16993,29.4146,213,18.6272,11.8435,0.25,14108
-8.25194e-08,1.50743e-07,-1.69216e-06,-3.75991e-05,-5.64402e-05,-0.000273244,34.4939,31.7266,-0.116425,17.324,34.5275,31.697,-0.12048,33.323,213,12.7929,5.94702,0.25,14109
-5.33696e-09,1.42474e-07,-1.69282e-06,-2.58761e-05,-5.24115e-05,-0.000278699,37.1781,33.2807,0.0448306,18.5692,37.1807,33.2806,0.0422845,35.3501,213,10.253,6.14612,0.25,14110
2.80563e-07,-5.47158e-09,-1.68182e-06,-9.42198e-05,-2.32603e-05,-0.000262201,25.0189,35.4411,0.346674,17.5527,35.4467,25.0188,0.341179,31.226,213,4.24597,10.5958,0.25,14111
1.56895e-07,1.07502e-06,-1.42739e-06,-5.43678e-05,-0.000278365,-0.000178854,18.5435,-14.3561,0.259496,17.6189,20.8541,-2.02356,-14.3837,30.9666,213,5.74318,0.075,0.25,14112
1.17813e-07,8.67611e-07,-1.65314e-06,-4.50817e-05,-0.000277873,-0.000195457,19.2695,-14.9217,-2.81693,17.2413,19.5556,-3.09772,-14.927,30.3493,213,6.3574,0.787873,0.25,14113
-1.07844e-07,-1.52957e-07,-1.69003e-06,-4.47175e-05,-5.62694e-05,-0.000266989,33.3836,31.6869,0.737374,16.3804,33.4956,31.5775,0.734728,31.8452,213,13.4541,14.8815,0.25,14114
-1.17609e-07,8.68087e-07,-1.65778e-06,-4.59448e-05,-0.000279401,-0.000188375,19.5811,-14.7078,-1.33836,17.298,19.8844,-1.63793,-14.7116,30.2574,213,13.7426,0.787826,0.25,14115
-1.56761e-07,1.07602e-06,-1.42479e-06,-5.44031e-05,-0.000278506,-0.000180073,18.4079,-14.5072,-0.0498616,17.5306,20.5352,-2.15828,-14.526,30.7997,213,14.3568,0.075,0.25,14116
3.49218e-07,-5.0679e-07,-1.71349e-06,-0.000121387,-0.000175276,-0.000210135,9.14752,1.23261,-3.88727,7.84919,11.0723,0.0467273,-4.62612,13.9613,213,2.81011,18.5754,0.25,14117
2.87689e-07,-3.92383e-07,-1.71341e-06,-9.83634e-05,-0.000132538,-0.000219794,17.7729,12.7536,-0.0621812,9.66777,19.1197,11.5605,-0.215881,16.8773,213,3.58487,17.7823,0.25,14118
3.89356e-07,7.70525e-07,-1.67509e-06,-0.0001221,-0.000255949,-0.000182494,4.01966,-15.6393,-4.85068,10.1759,4.62721,-5.37295,-15.7246,17.626,213,2.81011,0.924583,0.25,14119
3.02524e-07,5.98139e-07,-1.72897e-06,-9.59289e-05,-0.000214563,-0.000190482,13.4312,-3.99313,-0.456352,9.10102,14.0311,-0.878398,-4.17096,16.7995,213,3.58487,1.71765,0.25,14120
-6.56807e-07,3.19801e-07,-1.72323e-06,-0.00023354,-9.98828e-05,-0.000175384,-7.51266,12.1183,1.02906,10.2301,12.7992,0.496593,-7.66106,17.8399,213,18.6531,3.47156,0.25,14121
-1.2948e-07,-4.89145e-07,-1.7237e-06,-4.8676e-05,-0.000170407,-0.000235814,24.678,6.7988,-2.80787,13.9516,24.9427,6.68683,-2.96059,24.5453,213,14.4443,18.2892,0.25,14122
-1.149e-07,-7.28814e-07,-1.62405e-06,-4.08874e-05,-0.00025634,-0.000195031,22.33,-9.31466,-0.309904,17.8205,26.2666,-4.1867,-9.37443,33.3511,213,14.3568,19.425,0.25,14123
-2.48045e-07,2.59923e-08,-1.6819e-06,-8.40969e-05,-2.50546e-05,-0.000265003,27.0223,35.6941,0.45171,17.629,35.7053,27.0155,0.447316,31.8159,213,15.5013,9.24964,0.25,14124
3.23632e-07,4.44704e-07,-1.68619e-06,-0.000105023,-0.000149887,-0.000211286,15.3461,8.75673,-0.261318,8.06164,15.7491,8.4665,-0.374131,13.9849,213,3.44701,2.57606,0.25,14125
-4.86842e-08,8.86961e-07,-1.6631e-06,-2.99212e-05,-0.000292882,-0.000186214,22.3742,-16.2482,-0.581379,19.5073,22.7615,-0.963706,-16.2531,34.0499,213,11.8489,0.811382,0.2875,14126
-4.12328e-08,1.10323e-06,-1.41493e-06,-3.02061e-05,-0.000301381,-0.000190858,21.0774,-18.7514,-2.51841,20.9281,23.0985,-4.5332,-18.7577,36.8632,213,11.5114,0.075,0.25,14127
-5.59413e-08,1.07855e-06,-1.40863e-06,-3.21811e-05,-0.000287704,-0.00018751,22.194,-15.336,-0.619934,19.674,24.0114,-2.43665,-15.3366,34.7431,213,11.9727,0.075,0.2125,14128
3.21501e-07,-2.91578e-07,-1.68937e-06,-0.000107729,-9.97029e-05,-0.000229068,17.7242,18.9031,-0.0973757,10.2565,20.3509,16.341,-0.161977,18.8309,213,3.44701,16.9239,0.25,14129
-3.85081e-10,2.61007e-07,-1.68466e-06,-2.47779e-05,-8.6107e-05,-0.000266666,35.4173,26.4096,-0.110043,17.77,35.4236,26.4096,-0.116354,31.9998,213,10.0735,4.46199,0.25,14130
-4.70897e-07,3.25686e-07,-1.69666e-06,-0.000163335,-0.000106228,-0.000205595,5.94369,14.3314,-0.263202,7.59332,14.7832,5.63219,-0.403466,13.2439,213,17.7115,3.45711,0.25,14131
-3.44104e-07,-6.02464e-08,-1.69127e-06,-0.000117347,-2.96994e-05,-0.000252724,19.7444,32.6177,-0.13908,16.3961,32.6359,19.7434,-0.156299,28.6142,213,16.5095,12.7304,0.25,14132
1.30191e-08,1.19301e-07,-1.69303e-06,-2.71119e-05,-4.66256e-05,-0.000280807,37.2248,34.3587,-0.0367618,18.6327,37.2273,34.3576,-0.0381361,35.9167,213,9.56621,6.61137,0.25,14133
2.29687e-07,-2.63055e-08,-1.68732e-06,-8.08091e-05,-2.41067e-05,-0.000264661,27.933,36.2612,0.929803,17.6683,36.2648,27.9311,0.928121,31.9945,213,4.81394,11.4794,0.25,14134
-2.83888e-08,1.70929e-07,-1.69218e-06,-2.81875e-05,-6.16082e-05,-0.000274398,36.165,31.2563,0.0028652,18.086,36.1705,31.2552,-0.00150437,33.982,213,11.1142,5.64807,0.25,14135
4.00424e-08,-5.84097e-07,-1.71115e-06,-2.50765e-05,-0.00020771,-0.000222297,28.1268,1.30249,-0.839902,14.9186,28.5725,1.28143,-1.26459,28.6491,213,8.18005,18.6863,0.2875,14136
4.21879e-08,-5.63695e-07,-1.70747e-06,-2.53606e-05,-0.00019295,-0.000229917,28.7258,4.11116,-1.31844,15.7743,29.4885,4.09014,-2.06012,28.9674,213,8.10278,18.6113,0.25,14137
2.97827e-08,-7.51888e-07,-1.62784e-06,-2.16203e-05,-0.000254086,-0.000199702,26.7347,-7.40865,0.578921,18.8265,30.2374,-2.91684,-7.41563,35.6174,213,8.58864,19.425,0.25,14138
4.0435e-08,-7.38428e-07,-1.62136e-06,-2.41148e-05,-0.000274563,-0.000187724,25.3409,-11.4437,1.31079,20.1854,28.9213,-2.26377,-11.4496,36.6517,213,8.12727,19.425,0.2125,14139
1.09945e-06,9.13425e-08,-1.37037e-06,-0.000271014,-3.74615e-05,-0.000183274,-11.4222,22.8808,1.46457,17.7326,23.9274,0.533464,-11.5377,31.2311,213,-0.025,7.3275,0.2125,14140
-6.29747e-07,2.4404e-07,-1.72599e-06,-0.000219617,-8.17898e-05,-0.000191013,-3.93593,16.3074,0.265232,10.3435,16.6552,0.0134155,-4.03187,18.9903,213,18.4672,4.3007,0.25,14141
-5.5845e-08,-1.03662e-07,-1.693e-06,-3.15947e-05,-4.25639e-05,-0.000280353,36.5695,34.9584,0.0331529,18.2786,36.5899,34.9385,0.0326526,35.7602,213,12.0139,13.8203,0.25,14142
1.14946e-07,-7.29155e-07,-1.62514e-06,-4.14754e-05,-0.000254266,-0.000193773,22.5001,-8.75344,0.131443,17.7735,26.7396,-4.05423,-8.80731,33.4249,213,5.74318,19.425,0.25,14143
9.50778e-08,-5.80492e-07,-1.69946e-06,-3.7924e-05,-0.000201306,-0.000221439,25.7177,1.72096,-1.2361,14.6776,26.9596,1.63851,-2.39554,27.5604,213,6.33116,18.7534,0.25,14144
2.73437e-07,1.38394e-07,-1.68244e-06,-9.28281e-05,-5.11385e-05,-0.000254576,23.4605,29.5836,-0.296213,14.976,29.6442,23.4114,-0.307801,27.3731,213,4.19697,6.01596,0.25,14145
3.51547e-07,5.00347e-08,-1.68406e-06,-0.000115168,-2.80814e-05,-0.000251405,20.5427,33.3335,0.532781,16.4466,33.3844,20.5334,0.49118,28.7124,213,3.54952,8.30372,0.25,14146
2.66807e-07,4.66123e-08,-1.68214e-06,-9.27316e-05,-2.76171e-05,-0.0002598,25.1938,34.7575,0.655654,17.0604,34.7716,25.1845,0.650845,30.4798,213,4.36692,8.46053,0.25,14147
-1.09613e-06,9.11435e-08,-1.40048e-06,-0.000269572,-3.62991e-05,-0.000188083,-11.4166,22.8454,0.552152,17.665,23.8187,-0.32644,-11.5113,31.2754,213,20.125,7.3275,0.2125,14148
-3.49682e-07,-5.06486e-07,-1.71331e-06,-0.000121323,-0.000174965,-0.000209071,9.29172,1.41304,-3.59627,7.80626,11.2029,0.315245,-4.40964,13.8675,213,17.2899,18.5754,0.25,14149
-2.87725e-07,-3.89603e-07,-1.71228e-06,-9.7926e-05,-0.000130087,-0.000219917,18.0957,13.3721,0.178224,9.67959,19.3892,12.2268,0.0300419,16.9535,213,16.5126,17.7715,0.25,14150
-3.89018e-07,7.69266e-07,-1.68128e-06,-0.000122085,-0.000252661,-0.000181392,4.43338,-14.745,-4.27726,9.9699,5.14079,-4.93068,-14.799,17.2687,213,17.2899,0.924583,0.25,14151
-3.01861e-07,5.96464e-07,-1.72606e-06,-9.48958e-05,-0.000209858,-0.000193339,13.8521,-3.03296,-0.606786,8.86054,14.51,-1.08649,-3.21112,16.7601,213,16.5126,1.72849,0.25,14152
-2.33025e-07,9.35552e-08,-1.68672e-06,-7.93087e-05,-3.89264e-05,-0.000262872,27.0757,33.0068,0.114772,16.4653,33.0393,27.0493,0.108708,30.3817,213,15.4078,7.05241,0.25,14153
-1.85878e-07,2.61971e-08,-1.68476e-06,-6.715e-05,-2.52642e-05,-0.000273056,30.3231,36.4751,0.0807032,18.2055,36.4855,30.319,0.0744407,33.7529,213,14.6837,9.26996,0.25,14154
-1.10555e-06,-5.20546e-08,-1.40704e-06,-0.000276741,-2.65903e-05,-0.00019212,-12.6095,24.1314,-0.180836,18.8805,25.0678,-1.03349,-12.6933,33.4898,213,20.125,12.1725,0.2125,14155
7.35371e-09,-3.60026e-07,-1.70611e-06,-2.24497e-05,-0.000114648,-0.000251215,34.7534,21.2117,1.15345,16.8688,34.8245,21.207,1.08699,29.3979,213,9.71687,17.2547,0.25,14156
4.78882e-08,8.86241e-07,-1.66016e-06,-3.07571e-05,-0.000290765,-0.000180642,22.892,-15.2966,0.877589,19.3754,23.4485,0.32688,-15.3024,33.7676,213,8.25108,0.811382,0.2875,14157
5.62605e-08,1.07808e-06,-1.41395e-06,-3.22949e-05,-0.000286911,-0.000181376,22.8141,-14.5826,0.917789,19.5794,24.5743,-0.840635,-14.5844,34.4109,213,8.12727,0.075,0.2125,14158
4.15612e-08,1.10075e-06,-1.414e-06,-2.90389e-05,-0.000300868,-0.000182889,22.1507,-17.7741,-0.445932,20.9485,24.1228,-2.41794,-17.7742,36.7123,213,8.58864,0.075,0.25,14159
5.26562e-08,-7.51387e-07,-1.62621e-06,-2.64293e-05,-0.000259968,-0.000186513,26.2619,-8.03898,2.74968,19.5035,30.9221,-1.86453,-8.08494,36.2988,213,7.66591,19.425,0.25,14160
-2.68216e-07,1.37548e-07,-1.68395e-06,-9.14203e-05,-5.0869e-05,-0.000254977,23.7865,29.7424,-0.235996,15.0215,29.7978,23.7403,-0.24521,27.5189,213,15.8567,6.04081,0.25,14161
6.15656e-08,-5.32134e-08,-1.69434e-06,-3.47378e-05,-2.93124e-05,-0.000284483,36.6667,37.4635,-0.0146148,18.7461,37.4768,36.6543,-0.0154618,37.0878,213,7.97281,12.4119,0.25,14162
-7.76447e-08,-1.30256e-07,-1.69169e-06,-3.71614e-05,-4.85569e-05,-0.000275625,35.1134,33.4396,0.0890179,17.54,35.1658,33.3904,0.0858019,34.2269,213,12.6814,14.4215,0.25,14163
2.74467e-07,6.65653e-08,-1.68332e-06,-9.40842e-05,-3.21241e-05,-0.000258759,24.5447,33.6451,0.358105,16.6568,33.6673,24.5269,0.353699,29.8135,213,4.25934,7.78381,0.25,14164
3.14705e-07,8.8292e-08,-1.68396e-06,-0.000107621,-3.68967e-05,-0.000253617,21.3258,31.7135,-0.117249,15.9386,31.7446,21.31,-0.132536,28.1497,213,3.83123,7.13922,0.25,14165
1.10977e-06,-5.30166e-08,-1.36585e-06,-0.000278839,-2.81277e-05,-0.000185816,-12.6681,24.1551,0.994538,18.9502,25.1714,0.0390463,-12.7289,33.3998,213,-0.025,12.1725,0.2125,14166
4.71298e-08,3.99084e-08,-1.69447e-06,-3.14765e-05,-2.70685e-05,-0.00028632,37.4884,38.1359,0.0582201,19.0431,38.143,37.4827,0.0568445,37.7603,213,8.43047,8.82092,0.25,14167
7.02133e-08,-9.05107e-09,-1.6946e-06,-3.66726e-05,-2.36413e-05,-0.00028596,36.5936,38.5076,-0.0204166,19.2656,38.5093,36.5932,-0.0217641,37.6097,213,7.74415,10.7544,0.25,14168
5.58472e-08,1.39271e-08,-1.69447e-06,-3.24697e-05,-2.51793e-05,-0.000286842,37.3775,38.4483,0.0165536,19.2165,38.449,37.3775,0.0158952,37.9087,213,8.16533,9.81367,0.25,14169
9.40367e-08,1.06187e-08,-1.69389e-06,-4.16577e-05,-2.46387e-05,-0.000284005,35.485,37.9846,-0.109853,19.0486,37.9865,35.484,-0.110798,36.9097,213,7.13815,9.9402,0.25,14170
-2.28536e-08,2.29973e-07,-1.68828e-06,-2.72481e-05,-7.87041e-05,-0.000267556,35.4324,27.8748,0.137176,17.6536,35.4401,27.8715,0.132772,32.1973,213,10.9335,4.81147,0.25,14171
-1.05561e-06,-2.58165e-07,-1.38102e-06,-0.000262406,-8.62346e-05,-0.000171807,-12.8403,13.0349,0.466522,14.0234,15.1825,-1.65699,-12.8644,24.452,213,20.125,16.0425,0.2125,14172
-1.03154e-06,3.49642e-07,-1.35863e-06,-0.000259791,-0.000107668,-0.000163175,-13.4081,8.93497,0.782374,12.6303,11.8455,-2.12123,-13.415,21.9171,213,20.125,3.4575,0.2125,14173
1.05444e-06,-2.58394e-07,-1.38994e-06,-0.000262928,-8.66734e-05,-0.000171929,-13.0182,12.8692,0.347286,14.0698,15.1015,-1.86502,-13.0382,24.5412,213,-0.025,16.0425,0.2125,14174
1.03132e-06,3.49659e-07,-1.36183e-06,-0.000256945,-0.00010741,-0.000166578,-13.0183,8.94479,0.25438,12.2527,11.4855,-2.28475,-13.0199,21.2765,213,-0.025,3.4575,0.2125,14175
-3.84812e-07,-3.86764e-08,-1.69675e-06,-0.000126766,-2.63797e-05,-0.000251935,17.8647,32.6089,-0.519567,16.5757,32.6208,17.8639,-0.530629,28.7675,213,16.8312,11.9557,0.25,14176
-2.46821e-07,7.02987e-08,-1.6854e-06,-8.28339e-05,-3.32919e-05,-0.000263681,26.6795,33.956,0.117679,16.9321,33.9791,26.6591,0.114938,30.8623,213,15.5468,7.69106,0.25,14177
-2.42757e-07,4.82497e-08,-1.68356e-06,-8.22635e-05,-2.81138e-05,-0.000265246,27.1543,35.1076,0.27884,17.4219,35.1212,27.142,0.277465,31.6185,213,15.4665,8.4157,0.25,14178
4.68726e-07,4.05496e-08,-1.70188e-06,-0.000151737,-2.51203e-05,-0.000262349,11.0075,29.6043,-5.23864,17.4278,29.6146,10.9994,-5.24091,30.2091,213,2.68329,8.64093,0.25,14179
4.97038e-07,6.13672e-08,-1.70868e-06,-0.00016561,-3.0187e-05,-0.000253737,8.00474,27.8949,-4.93892,16.4527,27.9217,8.02272,-4.98369,28.7045,213,2.47582,7.88878,0.25,14180
-2.97044e-07,1.03454e-06,-1.41222e-06,-9.2658e-05,-0.000270788,-0.000166997,11.1572,-15.0056,0.23869,14.6454,14.2654,-2.84957,-15.0255,25.4866,213,16.2795,0.075,0.25,14181
2.96952e-07,1.03454e-06,-1.40929e-06,-9.20555e-05,-0.000269845,-0.000166448,11.4415,-14.6713,0.515141,14.6339,14.5788,-2.60447,-14.689,25.4745,213,3.82045,0.075,0.25,14182
2.31628e-07,-7.02549e-07,-1.61353e-06,-7.97264e-05,-0.000244556,-0.000184701,15.0623,-9.14704,-0.355829,14.9909,20.6967,-5.85216,-9.28514,28.4213,213,3.82045,19.425,0.25,14183
-1.73018e-08,5.97587e-07,-1.72992e-06,-2.55573e-05,-0.000199995,-0.00023663,27.3927,1.77221,-3.60862,15.5863,27.4749,1.779,-3.69762,28.8271,213,10.7482,1.95915,0.25,14184
1.76547e-08,2.89656e-07,-1.6775e-06,-2.58343e-05,-9.6491e-05,-0.000260548,34.7647,24.387,0.291055,17.2429,34.7704,24.3876,0.284715,30.6432,213,9.35418,4.14454,0.25,14185
-1.94353e-07,-6.94411e-07,-1.61464e-06,-7.0373e-05,-0.000248757,-0.000186111,16.7859,-9.41427,-0.213175,15.0599,20.5979,-3.91757,-9.52185,27.7454,213,15.8182,19.425,0.2125,14186
-2.31303e-07,-7.01238e-07,-1.61517e-06,-8.01277e-05,-0.000243825,-0.000185287,14.9794,-9.0637,-0.465815,14.7858,20.399,-5.77667,-9.17249,28.0283,213,16.2795,19.425,0.25,14187
2.211e-07,1.53483e-08,-1.68417e-06,-7.88823e-05,-2.30591e-05,-0.000269428,28.0485,36.2476,0.0621657,18.0985,36.2538,28.0475,0.0569157,32.8712,213,4.93273,9.70881,0.25,14188
2.02277e-07,4.89651e-08,-1.68698e-06,-7.08636e-05,-2.83407e-05,-0.000271805,29.2599,35.5055,-0.253293,17.8894,35.5198,29.2513,-0.258997,33.0928,213,5.15797,8.40675,0.25,14189
-3.06791e-07,9.29334e-08,-1.68641e-06,-0.000104792,-3.79705e-05,-0.000254553,21.8178,31.6323,-0.178305,15.9239,31.6586,21.8025,-0.189312,28.2407,213,16.2135,7.02522,0.25,14190
-9.66874e-07,-4.89757e-07,-1.42929e-06,-0.000240227,-0.000155145,-0.000139887,-10.9672,1.52927,3.77032,8.65222,6.25809,-0.879335,-11.0464,15.0625,213,20.125,17.9775,0.2125,14191
-9.56431e-07,6.32302e-07,-1.41927e-06,-0.000227826,-0.000186333,-0.000132883,-10.247,-4.15269,3.69784,7.78669,5.1211,-5.37067,-10.4523,13.7555,213,20.125,1.5225,0.2125,14192
-7.00991e-07,7.07435e-08,-1.72062e-06,-0.000241741,-3.36698e-05,-0.000201156,-5.7036,24.8568,0.257306,15.4743,25.1856,-0.012213,-5.76292,28.5115,213,18.6362,7.63776,0.25,14193
-7.36507e-07,9.95119e-08,-1.70201e-06,-0.000252588,-3.90513e-05,-0.000193852,-8.13097,23.2322,0.495897,15.8582,23.5819,0.149775,-8.13457,28.4924,213,18.8047,6.85575,0.25,14194
9.54363e-07,6.32507e-07,-1.42336e-06,-0.000221538,-0.000189106,-0.000136551,-9.33777,-4.57429,3.14479,7.25237,5.13521,-6.53295,-9.36954,13.315,213,-0.025,1.5225,0.2125,14195
9.65608e-07,-4.90577e-07,-1.42237e-06,-0.000233159,-0.000159245,-0.00014628,-10.249,0.607168,2.51137,8.35911,6.42514,-3.26252,-10.2931,14.5392,213,-0.025,17.9775,0.2125,14196
-3.19734e-07,5.14687e-08,-1.6868e-06,-0.000106911,-2.85433e-05,-0.000254591,22.1862,33.6965,0.495726,16.6579,33.7601,22.1741,0.444207,29.2948,213,16.2907,8.26518,0.25,14197
4.67052e-07,9.70404e-07,-1.42889e-06,-0.000142059,-0.000244312,-0.000155964,2.78997,-12.2285,0.747581,10.2266,8.05843,-4.35456,-12.3948,17.8475,213,2.35909,0.075,0.2125,14198
3.80696e-07,-6.67661e-07,-1.61037e-06,-0.000128252,-0.000237629,-0.000164447,5.94013,-10.1247,0.623887,11.6702,13.0792,-6.37863,-10.2613,21.6617,213,2.35909,19.425,0.2125,14199
-3.80785e-07,-6.66639e-07,-1.61469e-06,-0.000128005,-0.000236666,-0.000166255,5.92043,-10.0392,0.302434,11.5452,12.9079,-6.54176,-10.1825,21.5025,213,17.7409,19.425,0.2125,14200
-4.67395e-07,9.69194e-07,-1.4281e-06,-0.00014155,-0.000246943,-0.000158495,2.42969,-13.0499,-0.0591343,10.3476,7.52978,-5.04366,-13.1655,18.0603,213,17.7409,0.075,0.2125,14201
-1.13226e-06,-1.28811e-08,-1.37197e-06,-0.000238342,-2.86399e-05,-0.000226746,-6.80846,23.9915,-5.10531,16.5167,25.8465,-6.58187,-7.18688,32.7351,213,20.1625,10.7212,0.2125,14202
1.13408e-06,-1.26839e-08,-1.32852e-06,-0.000238094,-2.90719e-05,-0.000226588,-6.77446,23.9256,-5.08454,16.3519,25.7431,-6.71598,-6.96056,32.5821,213,-0.0625,10.7212,0.2125,14203
1.12735e-06,4.3756e-08,-1.33293e-06,-0.000233089,-3.09141e-05,-0.000222479,-5.35971,24.3347,-3.80133,15.7208,25.8034,-4.99161,-5.63815,31.1233,213,-0.0625,8.77875,0.2125,14204
-1.12711e-06,4.38771e-08,-1.36726e-06,-0.000232202,-3.15661e-05,-0.000222918,-5.24845,24.2199,-3.88492,15.7026,25.6742,-4.85672,-5.73097,30.9773,213,20.1625,8.77875,0.2125,14205
-8.59441e-11,-7.44797e-07,-1.61622e-06,-1.98341e-05,-0.00026986,-0.000199063,25.7495,-10.9732,-0.574721,20.0818,29.1896,-4.01407,-10.9739,37.1755,213,10.05,19.425,0.2125,14206
9.18647e-09,-7.56063e-07,-1.62439e-06,-1.97993e-05,-0.000253832,-0.000205332,26.67,-7.70354,-0.580128,18.8375,29.9558,-3.85013,-7.71929,35.8972,213,9.58864,19.425,0.25,14207
3.4323e-10,1.08753e-06,-1.40099e-06,-2.75537e-05,-0.000292353,-0.000194292,22.2377,-16.6547,-2.25201,20.6035,24.5518,-4.56547,-16.6553,36.6879,213,10.05,0.075,0.2125,14208
1.31832e-08,1.10606e-06,-1.4064e-06,-2.70011e-05,-0.000304573,-0.000186691,21.9388,-18.8296,-1.51571,21.2903,23.7467,-3.31924,-18.8339,37.3254,213,9.58864,0.075,0.25,14209
-1.23836e-08,1.10882e-06,-1.41012e-06,-2.78808e-05,-0.000308751,-0.000170499,22.8503,-18.4026,1.90322,21.973,25.5337,-0.770464,-18.4123,38.304,213,10.5114,0.075,0.25,14210
2.69912e-07,-6.84066e-07,-1.60214e-06,-9.42084e-05,-0.000240775,-0.000171141,13.2025,-8.32443,1.90296,13.6862,18.9812,-3.80897,-8.39123,25.3933,213,3.35909,19.425,0.2125,14211
-1.82977e-07,1.04901e-06,-1.41591e-06,-6.24082e-05,-0.000269365,-0.000181238,17.2294,-13.1674,-0.223695,16.5573,19.9237,-2.89457,-13.1908,29.3535,213,14.8182,0.075,0.2125,14212
3.45793e-10,8.20214e-07,-1.70198e-06,-2.51389e-05,-0.000275748,-0.000187378,25.0163,-11.792,1.18735,18.5588,25.3236,0.882063,-11.794,32.6787,213,10.05,1.06179,0.2875,14213
1.15438e-10,7.92656e-07,-1.70639e-06,-2.5262e-05,-0.000259793,-0.000200694,25.2334,-9.21344,-0.533139,17.359,25.5021,-0.799255,-9.21598,31.3683,213,10.05,1.13679,0.25,14214
1.8315e-07,1.04855e-06,-1.41881e-06,-6.23753e-05,-0.000270268,-0.000180546,17.2177,-13.3165,-0.138681,16.6047,19.8682,-2.76443,-13.3413,29.3852,213,5.28182,0.075,0.2125,14215
1.35253e-07,-7.124e-07,-1.61621e-06,-4.98758e-05,-0.000241299,-0.000190475,22.0014,-6.1138,1.35096,16.2501,26.3583,-2.97772,-6.142,31.0393,213,5.28182,19.425,0.2125,14216
-3.53066e-07,8.0636e-07,-1.66475e-06,-0.000110664,-0.000270946,-0.000162092,7.27326,-16.2681,-0.280083,12.3223,8.33099,-1.29234,-16.3136,21.5128,213,16.9808,0.849583,0.2875,14217
-4.5006e-08,-6.91185e-08,-1.69423e-06,-3.05995e-05,-3.37705e-05,-0.000283984,37.2912,36.8254,0.0752489,18.6221,37.3175,36.8009,0.0734239,36.9885,213,11.6388,12.9038,0.25,14218
8.90503e-08,-6.04618e-07,-1.70127e-06,-3.60745e-05,-0.000219563,-0.000212775,25.2657,-1.6841,-0.687167,13.9371,26.0776,-1.38658,-1.79659,27.6715,213,6.48571,18.8284,0.2875,14219
-3.4246e-07,1.00043e-06,-1.40333e-06,-0.000108338,-0.000257091,-0.000163102,9.03285,-12.8152,0.989431,12.437,12.0494,-2.0177,-12.8247,21.6032,213,16.7409,0.075,0.2125,14220
1.16347e-07,-1.39739e-08,-1.69338e-06,-4.7399e-05,-2.35197e-05,-0.000281497,34.4441,37.9514,0.0608834,18.946,37.9525,34.4434,0.0605259,36.265,213,6.64067,10.9581,0.25,14221
1.11808e-07,-3.46185e-08,-1.69381e-06,-4.61559e-05,-2.65795e-05,-0.000281191,34.4855,37.3608,-0.0352169,18.7013,37.3668,34.48,-0.0358083,36.0461,213,6.7152,11.7842,0.25,14222
1.65141e-07,-2.30733e-08,-1.69122e-06,-6.09793e-05,-2.3857e-05,-0.000276993,31.5697,37.022,-0.157347,18.5963,37.0292,31.5686,-0.163473,34.7853,213,5.72991,11.3415,0.25,14223
-3.96123e-07,7.13108e-08,-1.69817e-06,-0.000125383,-3.30752e-05,-0.000256179,17.1746,30.7323,-2.03599,16.3955,30.7509,17.1601,-2.04012,28.536,213,16.9574,7.59935,0.25,14224
5.94312e-11,-5.39609e-07,-1.72274e-06,-2.03238e-05,-0.00019234,-0.00022816,30.1576,4.8927,-0.368295,15.4664,30.3621,4.89062,-0.570693,28.596,213,10.05,18.4382,0.2875,14225
-3.11506e-07,-5.27913e-07,-1.71102e-06,-0.000108127,-0.000192446,-0.000198707,11.7978,-0.586529,-1.50604,7.5529,12.6388,-0.466495,-2.46704,14.2115,213,16.9808,18.6504,0.2875,14226
-2.26391e-07,-5.38253e-07,-1.70929e-06,-7.97616e-05,-0.000193117,-0.000210421,17.4578,0.808745,-1.73276,10.4681,18.5521,0.365813,-2.38415,19.7057,213,16.0581,18.6504,0.2875,14227
-2.46648e-07,-5.15789e-07,-1.70606e-06,-8.57697e-05,-0.000180252,-0.000211588,17.1071,3.22992,-1.37247,10.2468,18.3348,2.78852,-2.15877,18.5223,213,16.2899,18.5754,0.25,14228
-2.69806e-07,-6.83089e-07,-1.60446e-06,-9.42639e-05,-0.000240412,-0.000171592,13.181,-8.2845,1.82343,13.6315,18.8996,-3.81625,-8.36344,25.2979,213,16.7409,19.425,0.2125,14229
-1.71054e-07,-4.9679e-07,-1.72526e-06,-6.25919e-05,-0.000180399,-0.00022837,21.0953,3.79242,-3.25328,12.3316,21.346,3.60568,-3.31722,22.0331,213,15.2124,18.3642,0.2875,14230
1.51541e-07,-3.08629e-09,-1.69085e-06,-5.68311e-05,-2.36966e-05,-0.000277568,32.5279,37.3946,0.107262,18.6467,37.3977,32.5278,0.104326,35.1126,213,5.96944,10.5018,0.25,14231
3.11024e-07,-5.28547e-07,-1.71066e-06,-0.000108342,-0.000192496,-0.000199073,11.7075,-0.652644,-1.61862,7.55616,12.5035,-0.458461,-2.60882,14.1601,213,3.1192,18.6504,0.2875,14232
3.53317e-07,8.07214e-07,-1.65881e-06,-0.000110492,-0.000270274,-0.000165549,7.05429,-16.4136,-1.03209,12.287,8.11217,-2.04179,-16.4618,21.3883,213,3.1192,0.849583,0.2875,14233
-1.34973e-07,-7.11089e-07,-1.61607e-06,-4.94584e-05,-0.000244529,-0.000188961,21.9412,-6.70983,1.45177,16.5221,26.302,-2.87669,-6.74215,31.291,213,14.8182,19.425,0.2125,14234
7.22246e-08,-1.37682e-07,-1.69087e-06,-3.58553e-05,-5.20884e-05,-0.000274794,35.1749,32.7906,0.0807911,17.5665,35.2109,32.7575,0.0778561,33.9729,213,7.56374,14.5634,0.25,14235
-1.12492e-06,9.7233e-10,-1.38004e-06,-0.000290925,-2.78687e-05,-0.000185786,-15.5458,23.0905,-0.103509,20.2525,24.9561,-1.96598,-15.5489,35.7068,213,20.125,10.2375,0.2125,14236
1.12581e-06,1.33884e-09,-1.34456e-06,-0.000290377,-2.83939e-05,-0.000185332,-15.4208,23.0579,0.00756277,20.0919,24.7592,-1.68994,-15.4246,35.376,213,-0.025,10.2375,0.2125,14237
-8.15668e-08,9.26078e-09,-1.69347e-06,-3.85325e-05,-2.46758e-05,-0.000284658,36.1716,38.2068,0.0220263,19.0936,38.2083,36.1709,0.0211648,37.2103,213,12.6462,10.0058,0.25,14238
-5.30013e-07,7.17565e-08,-1.7174e-06,-0.000186325,-3.32209e-05,-0.000209933,6.83656,29.3238,3.36923,13.0777,29.4248,6.83541,3.26936,24.5673,213,17.8292,7.56487,0.25,14239
-1.12253e-06,2.87408e-08,-1.37805e-06,-0.000282946,-2.96819e-05,-0.000185119,-13.7355,23.4628,0.632959,19.3588,24.9747,-0.871484,-13.7429,34.1522,213,20.125,9.2625,0.2125,14240
1.12227e-06,2.90487e-08,-1.34714e-06,-0.000283064,-2.87623e-05,-0.000184282,-13.5997,23.751,0.90896,19.3849,25.1609,-0.491844,-13.6088,34.1557,213,-0.025,9.2625,0.2125,14241
-6.52924e-08,-7.40873e-07,-1.61382e-06,-2.89434e-05,-0.000258172,-0.000190229,25.4782,-8.18979,1.78937,18.4275,28.6624,-1.39193,-8.19269,33.9692,213,12.8955,19.425,0.2125,14242
6.73879e-08,-2.98831e-08,-1.69467e-06,-3.51991e-05,-2.67461e-05,-0.000285273,36.7218,37.9633,-0.00782891,18.9874,37.9663,36.7195,-0.00854508,37.3671,213,7.81868,11.5804,0.25,14243
-5.58049e-07,9.97891e-08,-1.71306e-06,-0.000194399,-3.88499e-05,-0.000213169,4.06748,26.9138,1.31062,12.9824,27.0787,4.09936,1.11383,24.6083,213,17.9978,6.78286,0.25,14244
2.40248e-08,5.08319e-09,-1.69459e-06,-2.91826e-05,-2.45668e-05,-0.000288551,38.0651,38.743,-0.0296713,19.3864,38.743,38.0651,-0.0297147,38.4383,213,9.19983,10.1748,0.25,14245
-8.52538e-08,6.80864e-08,-1.69356e-06,-3.89607e-05,-3.41448e-05,-0.000281099,35.5163,36.2236,-0.0477981,18.1571,36.2651,35.4761,-0.0490559,35.9261,213,12.7826,7.86516,0.25,14246
4.1334e-08,-8.18728e-08,-1.69357e-06,-2.98232e-05,-3.72271e-05,-0.000283358,37.2132,36.1257,-0.0247685,18.6253,37.2249,36.1148,-0.0256034,36.7081,213,8.57705,13.2617,0.25,14247
-1.87189e-07,-4.79049e-07,-1.71798e-06,-6.76421e-05,-0.000167532,-0.000224811,21.4168,6.74545,-1.66731,12.0311,22.058,6.4412,-2.00424,21.1447,213,15.4443,18.2892,0.25,14248
1.80154e-07,-5.21416e-09,-1.68863e-06,-6.53731e-05,-2.38015e-05,-0.000274207,30.7792,36.885,0.106721,18.3913,36.8872,30.7791,0.104595,34.1409,213,5.50069,10.5924,0.25,14249
-6.28769e-08,2.88692e-07,-1.68706e-06,-3.2853e-05,-0.000100143,-0.000258112,32.9642,23.081,-0.120685,16.5614,32.9879,23.0714,-0.134812,29.4447,213,12.3232,4.12308,0.25,14250
-7.02802e-08,-1.85202e-07,-1.68919e-06,-3.42326e-05,-6.70802e-05,-0.000271674,34.4552,29.6308,-0.418989,17.4588,34.4938,29.5971,-0.423861,32.745,213,12.5427,15.3698,0.25,14251
-1.24855e-07,4.57818e-07,-1.68944e-06,-4.86307e-05,-0.000148385,-0.000236041,26.7261,12.0747,-0.799766,13.8503,26.8221,12.0576,-0.878602,24.0069,213,13.9615,2.68308,0.25,14252
3.42101e-07,1.00029e-06,-1.39965e-06,-0.000108221,-0.000255077,-0.000164265,9.14047,-12.429,0.909082,12.1448,11.8541,-1.79809,-12.4354,21.0893,213,3.35909,0.075,0.2125,14253
-3.21369e-07,-2.94651e-07,-1.68798e-06,-0.000107414,-0.000100589,-0.000226874,17.9222,18.9245,0.376415,10.1596,20.626,16.2904,0.306726,18.5357,213,16.6548,16.9541,0.25,14254
-3.23139e-07,4.50479e-07,-1.68409e-06,-0.000104658,-0.000154618,-0.000206929,15.3988,8.06089,0.377772,7.80472,15.857,7.73296,0.247535,13.5219,213,16.6548,2.54595,0.25,14255
4.01265e-07,6.90464e-08,-1.69222e-06,-0.000129936,-3.23958e-05,-0.000247252,16.9782,31.3044,-0.25262,15.8121,31.3445,16.9652,-0.279674,27.4248,213,3.12141,7.65913,0.25,14256
-6.71165e-07,1.40364e-07,-1.71868e-06,-0.00023183,-5.10453e-05,-0.000194692,-4.34163,22.2111,1.11299,13.4391,22.4707,0.919226,-4.40743,24.6503,213,18.5618,5.93328,0.25,14257
-6.14837e-07,9.36794e-07,-1.46143e-06,-0.000182265,-0.000229767,-0.000135602,-3.6105,-10.5875,3.24308,7.85291,4.91559,-5.08028,-10.7902,13.7694,213,18.6636,0.075,0.2125,14258
-5.22387e-07,-6.57041e-07,-1.62896e-06,-0.000182257,-0.000220634,-0.000135947,-2.78724,-8.42382,4.01459,9.35835,9.9583,-8.39638,-8.7584,18.5383,213,18.6636,19.425,0.2125,14259
-1.90959e-08,-6.53966e-09,-1.6945e-06,-2.80021e-05,-2.49828e-05,-0.000288733,38.2929,38.7364,-0.00197013,19.3694,38.7366,38.2928,-0.00213631,38.5188,213,10.7266,10.6491,0.25,14260
1.63523e-08,-5.14022e-07,-1.71949e-06,-2.05015e-05,-0.00018613,-0.000232444,30.2949,5.96827,-0.834167,15.7556,30.4864,5.96743,-1.02481,28.662,213,9.25551,18.3165,0.25,14261
1.31041e-08,1.90632e-09,-1.69459e-06,-2.84134e-05,-2.46603e-05,-0.0002888,38.2179,38.7692,-0.0263944,19.3979,38.7693,38.2179,-0.026503,38.5231,213,9.57973,10.3054,0.25,14262
-3.02418e-08,8.56303e-07,-1.671e-06,-2.69889e-05,-0.000281714,-0.000192027,23.5796,-13.8331,-0.660397,19.1462,24.4586,-1.53861,-13.8338,33.8625,213,11.2096,0.897354,0.25,14263
2.02e-08,7.80852e-07,-1.71136e-06,-2.4187e-05,-0.000260448,-0.000191188,26.3191,-8.38175,1.79083,17.6991,27.0105,1.10536,-8.38766,31.735,213,9.24075,1.1814,0.25,14264
6.4489e-07,-2.11885e-07,-1.65459e-06,-0.000211959,-6.93972e-05,-0.00354679,25.1576,26.2215,0.270864,13.3727,26.6149,25.1654,-0.130383,26.0508,213,1.50802,15.9295,0.1625,14265
7.8991e-07,-2.86876e-07,-1.58631e-06,-0.000238759,-9.25844e-05,-0.00362038,23.9778,25.0686,-1.25815,13.9427,25.8283,24.017,-2.05704,27.0252,213,0.779009,16.6797,0.1625,14266
8.10827e-07,-2.46062e-07,-1.6015e-06,-0.000245676,-8.27583e-05,-0.00358086,24.2626,25.4784,-0.626878,13.7713,26.1899,24.2768,-1.35261,26.6376,213,0.779009,16.1997,0.16875,14267
7.94153e-07,-2.43173e-07,-1.5575e-06,-0.000238244,-8.16925e-05,-0.00360033,24.2311,25.3994,-0.859103,13.739,26.0002,24.2489,-1.47776,26.6455,213,0.779009,16.1997,0.15625,14268
-2.95331e-07,5.80236e-07,-1.66486e-06,-9.41157e-05,-0.000189125,-0.0036041,25.5677,24.8587,-0.626206,13.6464,26.1188,24.8554,-1.17396,26.6835,213,16.4954,1.75782,0.1625,14269
-3.82424e-07,7.30576e-07,-1.6272e-06,-0.000123776,-0.000222749,-0.00364247,24.5403,23.8017,-1.71859,13.783,25.1827,23.8239,-2.38323,26.9123,213,17.2727,0.95391,0.1625,14270
-3.23525e-07,7.33188e-07,-1.59564e-06,-0.000105004,-0.000223898,-0.00353064,25.7069,24.8196,0.142407,13.4373,26.3545,24.8346,-0.520134,26.1478,213,16.7727,0.95391,0.15625,14271
-3.27696e-07,7.4971e-07,-1.63931e-06,-0.000105417,-0.000229278,-0.00354097,25.576,24.6516,-0.0624665,13.5813,26.3299,24.6678,-0.832584,26.3708,213,16.7727,0.95391,0.16875,14272
2.82872e-07,-3.83887e-07,-1.65096e-06,-9.8368e-05,-0.000119568,-0.00361112,25.9981,25.8399,-0.216476,13.3703,26.2943,25.7735,-0.446344,26.4841,213,3.59953,17.7639,0.1625,14273
3.44592e-07,-4.82375e-07,-1.65203e-06,-0.000124217,-0.000148355,-0.00376596,24.1443,23.9641,-3.03289,14.1484,24.7422,23.888,-3.55468,27.8796,213,2.82476,18.5569,0.1625,14274
2.86353e-07,-4.7483e-07,-1.6234e-06,-0.000102382,-0.000132362,-0.00361144,25.8323,25.6086,-0.35472,14.0207,26.793,25.5415,-1.24833,27.437,213,3.32476,18.5569,0.15625,14275
2.91322e-07,-4.95078e-07,-1.6677e-06,-0.000101838,-0.000145591,-0.00361349,25.7196,25.393,-0.486797,14.1373,26.7832,25.3342,-1.49152,27.5787,213,3.32476,18.5569,0.16875,14276
3.83075e-07,7.33803e-07,-1.62008e-06,-0.000124091,-0.000226113,-0.003621,24.679,23.9176,-1.41735,13.7141,25.3328,23.9419,-2.09543,26.7599,213,2.82476,0.943071,0.1625,14277
3.24009e-07,7.3595e-07,-1.58858e-06,-0.000105065,-0.000224683,-0.00354737,25.5671,24.6744,-0.121764,13.4737,26.1892,24.6888,-0.758194,26.2294,213,3.32476,0.943071,0.15625,14278
2.96233e-07,5.83904e-07,-1.66895e-06,-9.41769e-05,-0.000191987,-0.00359261,25.6351,24.9052,-0.472576,13.5478,26.1311,24.9011,-0.96447,26.502,213,3.59953,1.73614,0.1625,14279
3.28205e-07,7.52351e-07,-1.63235e-06,-0.0001063,-0.00023084,-0.00353823,25.5717,24.6423,-0.0396909,13.5294,26.2864,24.6603,-0.772388,26.2835,213,3.32476,0.943071,0.16875,14280
-7.92796e-07,3.46797e-07,-1.59866e-06,-0.000238456,-0.000111606,-0.00355782,24.3277,25.2743,-0.443664,13.5602,25.9623,24.3541,-1.15814,26.3532,213,19.3337,3.26412,0.16875,14281
-7.72892e-07,4.01653e-07,-1.59349e-06,-0.000229067,-0.000125584,-0.00360523,23.9854,24.7577,-1.20983,13.7403,25.4899,24.0341,-1.99067,26.7823,213,19.3337,2.78412,0.1625,14282
-7.76273e-07,3.4256e-07,-1.55496e-06,-0.000233152,-0.000110096,-0.00359229,24.1479,25.0663,-0.920256,13.5799,25.6362,24.1814,-1.52363,26.4624,213,19.3337,3.26412,0.15625,14283
-6.33808e-07,3.12337e-07,-1.66674e-06,-0.000204376,-0.000101126,-0.00345625,25.7407,26.5112,1.47292,13.0818,27.0681,25.7523,0.904482,25.5311,213,18.6175,3.49824,0.1625,14284
-7.92176e-07,-2.89773e-07,-1.58517e-06,-0.000240105,-9.2871e-05,-0.00360778,24.0547,25.1535,-1.07716,13.9269,25.9447,24.0954,-1.90908,26.9767,213,19.3337,16.7159,0.1625,14285
-8.13967e-07,-2.48645e-07,-1.60001e-06,-0.000246947,-8.35934e-05,-0.00356511,24.3613,25.5803,-0.401149,13.7322,26.3152,24.3744,-1.14915,26.5472,213,19.3337,16.2359,0.16875,14286
-6.48739e-07,-2.17145e-07,-1.65529e-06,-0.000213623,-7.057e-05,-0.00355429,25.0632,26.1308,0.13283,13.4138,26.5423,25.0699,-0.285368,26.1226,213,18.6175,16.0018,0.1625,14287
-7.97216e-07,-2.45792e-07,-1.55608e-06,-0.000239867,-8.23333e-05,-0.00359972,24.2058,25.3814,-0.867719,13.7235,25.972,24.2226,-1.47503,26.6154,213,19.3337,16.2359,0.15625,14288
1.72839e-08,-4.93307e-07,-1.67925e-06,-2.09299e-05,-0.000148249,-0.00369198,26.3215,25.3713,-1.07439,14.1951,26.8187,25.3713,-1.57157,27.6949,213,9.21687,18.2415,0.16875,14289
2.78925e-08,-4.84144e-07,-1.65714e-06,-2.23677e-05,-0.000127375,-0.00377387,25.8155,25.0318,-2.18082,14.3561,26.1737,25.0313,-2.5385,28.1584,213,8.71687,18.2415,0.1625,14290
1.69909e-08,-4.77073e-07,-1.63396e-06,-2.10864e-05,-0.000142009,-0.00370448,26.2694,25.367,-1.21856,14.1802,26.7057,25.367,-1.65479,27.7154,213,9.21687,18.2415,0.15625,14291
1.50264e-08,-3.418e-07,-1.63677e-06,-2.23352e-05,-0.000112826,-0.0036026,27.2894,26.6141,0.571073,13.4713,27.4016,26.614,0.458967,26.5576,213,9.38374,17.1329,0.1625,14292
7.83219e-07,-9.30764e-10,-1.63584e-06,-0.000242653,-2.34947e-05,-0.00361051,24.5439,26.1794,-0.589357,13.931,26.7259,24.5443,-1.13618,26.8378,213,1.06733,10.358,0.1625,14293
7.73275e-07,-1.24538e-08,-1.61423e-06,-0.000238494,-2.37608e-05,-0.00360413,24.6564,26.2589,-0.460336,13.8961,26.7954,24.6565,-0.996875,26.7869,213,1.06733,10.838,0.15625,14294
7.88747e-07,-1.26085e-08,-1.6587e-06,-0.000244809,-2.46801e-05,-0.00359738,24.6054,26.2482,-0.413787,13.9457,26.8628,24.6055,-1.02851,26.834,213,1.06733,10.838,0.16875,14295
5.66907e-07,-1.40641e-08,-1.65729e-06,-0.000178207,-2.20255e-05,-0.00363356,25.3648,26.5303,-0.42143,13.7897,26.8442,25.3648,-0.735258,26.8703,213,2.08465,10.966,0.1625,14296
-7.70386e-07,4.77404e-08,-1.63096e-06,-0.000238681,-2.75356e-05,-0.00360305,24.6321,26.2078,-0.475153,13.9035,26.7687,24.6343,-1.03827,26.8036,213,18.9943,8.41091,0.1625,14297
-5.49337e-07,3.19083e-08,-1.65819e-06,-0.000179368,-2.29315e-05,-0.0036374,25.3092,26.4767,-0.496953,13.7214,26.7112,25.3092,-0.731472,26.7692,213,17.9385,8.99183,0.1625,14298
-7.80326e-07,3.50901e-08,-1.64737e-06,-0.000243967,-2.69178e-05,-0.00357806,24.7538,26.3736,-0.127443,13.8496,26.9726,24.754,-0.726636,26.6593,213,18.9943,8.89091,0.16875,14299
-7.6522e-07,3.47645e-08,-1.60302e-06,-0.000237417,-2.58582e-05,-0.00358065,24.8425,26.4213,-0.10697,13.7878,26.9449,24.8425,-0.630604,26.5867,213,18.9943,8.89091,0.15625,14300
1.82951e-07,-4.75535e-07,-1.65033e-06,-6.61652e-05,-0.000156887,-0.00375619,25.0476,24.3706,-2.48986,14.0936,25.3786,24.3583,-2.80865,27.6912,213,4.65834,18.3664,0.1625,14301
1.50997e-07,-4.71039e-07,-1.62986e-06,-5.61746e-05,-0.000137593,-0.00367644,25.9867,25.3791,-1.0302,14.0295,26.5155,25.3637,-1.54361,27.5013,213,5.15834,18.3664,0.15625,14302
1.59805e-07,-3.50059e-07,-1.64463e-06,-5.83186e-05,-0.000115724,-0.00360356,26.705,26.2766,0.247926,13.3606,26.8421,26.2665,0.120881,26.4381,213,5.26668,17.3827,0.1625,14303
1.53356e-07,-4.88198e-07,-1.67484e-06,-5.61492e-05,-0.000145827,-0.00367183,25.9583,25.2891,-1.02435,14.1083,26.5821,25.2754,-1.63447,27.5864,213,5.15834,18.3664,0.16875,14304
-2.1034e-07,7.23084e-07,-1.64892e-06,-7.16671e-05,-0.000225601,-0.00365016,25.2588,24.1101,-1.44632,13.8526,25.7537,24.1203,-1.95146,26.9257,213,15.4651,1.14731,0.1625,14305
-1.71903e-07,5.31667e-07,-1.65307e-06,-5.82308e-05,-0.000172852,-0.0036471,25.9081,25.0527,-0.874476,13.8157,26.3318,25.0542,-1.29965,27.0153,213,14.8803,2.14462,0.1625,14306
-1.75878e-07,7.22006e-07,-1.62839e-06,-6.15198e-05,-0.000224339,-0.00361495,25.7041,24.489,-0.814052,13.7804,26.2219,24.4961,-1.33894,26.7397,213,14.9651,1.14731,0.15625,14307
-1.7824e-07,7.37147e-07,-1.67297e-06,-6.20687e-05,-0.000228793,-0.00361518,25.6586,24.4144,-0.85719,13.8368,26.2336,24.4222,-1.44,26.8138,213,14.9651,1.14731,0.16875,14308
7.72003e-07,3.67528e-08,-1.61341e-06,-0.000237401,-2.61386e-05,-0.00358982,24.7678,26.3444,-0.25026,13.8538,26.9008,24.7679,-0.806797,26.7051,213,1.07029,8.81181,0.15625,14309
7.78731e-07,4.99598e-08,-1.63931e-06,-0.000238269,-2.82477e-05,-0.00363308,24.3947,25.962,-0.939742,14.0301,26.5401,24.3968,-1.51997,27.0522,213,1.07029,8.33181,0.1625,14310
7.87512e-07,3.70986e-08,-1.65784e-06,-0.000244374,-2.7167e-05,-0.00358473,24.6927,26.3137,-0.235326,13.9068,26.9459,24.693,-0.867735,26.7584,213,1.07029,8.81181,0.16875,14311
5.63819e-07,3.52916e-08,-1.66157e-06,-0.00018161,-2.3515e-05,-0.0036568,25.1163,26.2961,-0.818022,13.8388,26.5778,25.1164,-1.09978,26.9766,213,2.09057,8.83361,0.1625,14312
7.58018e-07,2.27312e-07,-1.61671e-06,-0.000233486,-7.47316e-05,-0.00371545,23.4466,24.6314,-2.53819,14.1067,25.1439,23.4652,-3.06935,27.4125,213,0.991717,4.52705,0.1625,14313
7.57475e-07,1.92289e-07,-1.59543e-06,-0.00023202,-6.46864e-05,-0.00363666,24.1736,25.4223,-1.23419,13.8542,25.9434,24.1835,-1.76514,26.8718,213,0.991717,5.00705,0.15625,14314
5.68839e-07,1.86923e-07,-1.6606e-06,-0.000185365,-6.08113e-05,-0.00353439,25.7333,26.6628,0.740582,13.3253,27.0243,25.7389,0.373569,26.0318,213,1.93343,5.0641,0.1625,14315
7.72807e-07,1.94747e-07,-1.63984e-06,-0.00023778,-6.60637e-05,-0.00363377,24.097,25.3784,-1.24625,13.9327,25.994,24.1065,-1.87138,26.9712,213,0.991717,5.00705,0.16875,14316
-2.48759e-08,-5.38786e-07,-1.66886e-06,-2.17208e-05,-0.000157084,-0.00368178,26.3201,25.3099,-0.993845,14.6151,27.2783,25.3097,-1.95181,28.2972,213,11.2401,18.5268,0.16875,14317
-2.44527e-08,-5.17815e-07,-1.6239e-06,-2.155e-05,-0.000143616,-0.0036933,26.3382,25.4273,-1.06289,14.5717,27.2095,25.427,-1.93392,28.2943,213,11.2401,18.5268,0.15625,14318
-1.40759e-08,-5.32235e-07,-1.64517e-06,-2.07253e-05,-0.000165272,-0.00376228,25.6322,24.5535,-2.28984,14.5055,26.1771,24.5527,-2.83392,28.2339,213,10.7401,18.5268,0.1625,14319
-3.08615e-08,-4.10804e-07,-1.65434e-06,-2.28316e-05,-0.000131146,-0.0036065,27.1056,26.2973,0.361825,13.5249,27.2587,26.2971,0.208939,26.582,213,11.4303,17.7037,0.1625,14320
-8.38626e-07,-3.04758e-09,-1.58088e-06,-0.000256599,-2.38295e-05,-0.00361926,24.2572,25.9943,-0.837237,13.972,26.5505,24.2571,-1.39342,26.8708,213,19.2501,10.4374,0.1625,14321
-6.49776e-07,-1.80438e-08,-1.66961e-06,-0.000207365,-2.27642e-05,-0.00363832,24.8723,26.2499,-0.731832,13.8932,26.6522,24.8723,-1.13412,26.9405,213,18.4502,11.1247,0.1625,14322
-8.43578e-07,-1.50779e-08,-1.60851e-06,-0.000258409,-2.5509e-05,-0.00357439,24.5718,26.3099,-0.174344,13.937,27.0044,24.5726,-0.86964,26.7412,213,19.2501,10.9174,0.16875,14323
-8.26848e-07,-1.47332e-08,-1.56436e-06,-0.000251701,-2.45294e-05,-0.00357785,24.6554,26.3507,-0.166593,13.8436,26.9353,24.6561,-0.751884,26.6209,213,19.2501,10.9174,0.15625,14324
5.82136e-07,5.75793e-07,-1.70976e-06,-0.000186953,-0.000177297,-0.00361379,24.1557,24.2278,-1.41767,13.5725,24.9982,24.1143,-2.14669,26.7139,213,1.52949,1.61349,0.1625,14325
6.70304e-07,6.66309e-07,-1.68246e-06,-0.000204411,-0.000195647,-0.00354023,24.3248,24.3902,-0.56937,13.7813,25.6842,24.34,-1.87851,26.9158,213,1.04179,1.1194,0.1625,14326
7.88501e-07,5.84535e-07,-1.60082e-06,-0.000228024,-0.000173308,-0.00353908,24.1476,24.5559,-0.561748,13.9082,25.8505,24.2571,-1.96587,27.0549,213,0.545897,1.5947,0.1625,14327
6.91752e-07,4.96351e-07,-1.6608e-06,-0.00021743,-0.00015636,-0.00364398,23.6133,24.069,-1.95797,13.6262,24.6516,23.6735,-2.60077,26.7767,213,1.03359,2.08879,0.1625,14328
7.02003e-07,-3.53361e-07,-1.64564e-06,-0.000226834,-0.000114981,-0.00359504,24.1847,25.0194,-0.951134,13.4946,25.497,24.2482,-1.49221,26.387,213,1.03359,17.4112,0.1625,14329
7.9656e-07,-4.33518e-07,-1.57138e-06,-0.000243052,-0.000128576,-0.00360553,23.744,24.5983,-1.34913,13.8387,25.4116,23.8473,-2.26577,26.9293,213,0.545897,17.9053,0.1625,14330
6.499e-07,-4.70651e-07,-1.66001e-06,-0.00021846,-0.000116681,-0.00368251,23.6065,24.3661,-2.2446,14.0602,25.0515,23.7454,-3.0689,27.4906,213,1.04179,18.3806,0.1625,14331
5.77892e-07,-3.95135e-07,-1.69599e-06,-0.000198696,-0.000114623,-0.00356607,24.8503,25.4777,-0.27942,13.349,25.9228,24.901,-0.775247,26.2021,213,1.52949,17.8865,0.1625,14332
-7.63828e-07,2.27494e-07,-1.6114e-06,-0.000235668,-7.50799e-05,-0.003701,23.5249,24.7233,-2.33574,14.0402,25.2243,23.5442,-2.85609,27.2792,213,19.1345,4.52064,0.1625,14333
-7.63389e-07,1.92449e-07,-1.5891e-06,-0.000233571,-6.46811e-05,-0.00362503,24.242,25.5024,-1.06735,13.8285,26.0402,24.2537,-1.61681,26.8084,213,19.1345,5.00064,0.15625,14334
-7.75641e-07,2.25475e-08,-1.62367e-06,-0.000243997,-2.48689e-05,-0.00363661,24.3054,25.9407,-1.01265,13.9908,26.4549,24.3054,-1.52679,26.9712,213,18.9943,9.37091,0.1625,14335
-7.82511e-07,-1.59317e-07,-1.61503e-06,-0.000238124,-5.55087e-05,-0.00372986,23.4135,24.7763,-2.64425,14.2869,25.3501,23.4192,-3.22372,27.659,213,19.1406,14.9733,0.1625,14336
-7.81082e-07,-1.33186e-07,-1.59435e-06,-0.000238622,-4.83851e-05,-0.0036172,24.3555,25.7752,-0.85776,13.8562,26.3121,24.3611,-1.4003,26.7903,213,19.1406,14.4933,0.15625,14337
8.39795e-09,7.35476e-07,-1.65911e-06,-2.43782e-05,-0.000224817,-0.00367678,25.7818,24.286,-1.47495,14.1701,26.3235,24.286,-2.01667,27.3783,213,9.70211,1.2564,0.1625,14338
2.11992e-08,7.42384e-07,-1.68075e-06,-2.58053e-05,-0.000230653,-0.00363447,26.049,24.5203,-0.8813,14.0652,26.649,24.5205,-1.48144,27.1289,213,9.20211,1.2564,0.16875,14339
7.72593e-07,1.64877e-07,-1.61882e-06,-0.000237059,-5.60447e-05,-0.00371801,23.5195,24.8704,-2.45777,14.1954,25.3993,23.5243,-2.99151,27.5013,213,0.991717,5.48705,0.1625,14340
6.87306e-09,-4.86832e-07,-1.65608e-06,-2.02786e-05,-0.000159997,-0.00375247,25.7587,24.716,-2.09348,14.2471,26.0798,24.7159,-2.41446,27.8374,213,9.71687,18.2415,0.1625,14341
7.79977e-07,-2.42054e-08,-1.64249e-06,-0.000241654,-2.50802e-05,-0.0036543,24.1995,25.8157,-1.26803,14.0438,26.3167,24.2013,-1.77086,27.0919,213,1.06733,11.318,0.1625,14342
-1.4851e-07,7.35857e-07,-1.65357e-06,-5.21045e-05,-0.000222796,-0.0036662,25.455,24.1811,-1.51588,14.0015,25.9685,24.1862,-2.03444,27.1557,213,14.4651,1.14731,0.1625,14343
7.81923e-07,2.44439e-08,-1.63647e-06,-0.000243328,-2.46375e-05,-0.00362353,24.4212,26.0532,-0.804197,13.9859,26.6104,24.4212,-1.36137,26.9439,213,1.07029,9.29181,0.1625,14344
-7.78907e-07,1.95002e-07,-1.63343e-06,-0.000239794,-6.58256e-05,-0.00362415,24.1441,25.4424,-1.11228,13.9186,26.0782,24.1551,-1.75911,26.9273,213,19.1345,5.00064,0.16875,14345
-5.78248e-07,1.87491e-07,-1.65866e-06,-0.000188349,-6.11882e-05,-0.00355787,25.4983,26.4472,0.352614,13.3976,26.7946,25.5042,-0.000615136,26.1738,213,18.219,5.05128,0.1625,14346
-1.24518e-07,-4.73018e-07,-1.65987e-06,-4.67829e-05,-0.000122279,-0.00378436,25.3969,24.8335,-2.49548,14.2594,25.7174,24.8189,-2.80135,28.0803,213,14.3755,18.2739,0.1625,14347
-1.51137e-07,-4.74918e-07,-1.68006e-06,-5.56099e-05,-0.000142799,-0.00368295,25.9025,25.2518,-1.16727,13.9843,26.3593,25.237,-1.60931,27.4247,213,14.8755,18.2739,0.16875,14348
7.89106e-07,-1.12261e-07,-1.63065e-06,-0.00023938,-4.19001e-05,-0.00367448,23.9411,25.4148,-1.69398,14.1604,26.0202,23.9423,-2.30063,27.3412,213,0.982182,13.9992,0.1625,14349
7.91246e-07,-1.34282e-07,-1.64544e-06,-0.000243466,-4.84059e-05,-0.00361088,24.3309,25.7866,-0.799084,13.8801,26.3714,24.336,-1.38891,26.8006,213,0.982182,14.4792,0.16875,14350
2.10175e-07,7.94085e-08,-1.62229e-06,-7.36291e-05,-3.52909e-05,-0.00365029,26.7366,27.0227,0.0450927,13.5134,27.0465,26.7381,0.0197552,26.8739,213,4.96655,7.40337,0.1625,14351
1.6357e-07,9.62393e-08,-1.62489e-06,-5.96242e-05,-4.04682e-05,-0.00365942,26.8387,26.9816,-0.0254274,13.5215,26.9992,26.8394,-0.0437345,26.9634,213,5.64436,6.98767,0.1625,14352
1.89428e-07,1.23658e-07,-1.62368e-06,-6.85664e-05,-4.69972e-05,-0.00364907,26.7313,26.8923,0.0111512,13.4667,26.9182,26.7316,-0.0151019,26.8405,213,5.20577,6.33942,0.1625,14353
2.42524e-07,1.03299e-07,-1.62002e-06,-8.36861e-05,-4.11483e-05,-0.00364294,26.5936,26.9111,0.0320431,13.4685,26.9391,26.5954,0.00220816,26.7667,213,4.52797,6.75511,0.1625,14354
-5.92867e-07,-1.24592e-07,-1.65711e-06,-0.000191385,-4.30527e-05,-0.00359613,25.292,26.3989,-0.11659,13.6173,26.7543,25.3004,-0.480405,26.5376,213,18.2312,14.4365,0.1625,14355
-7.9676e-07,-1.35002e-07,-1.63871e-06,-0.000245048,-4.91182e-05,-0.00361274,24.2862,25.7484,-0.845771,13.9401,26.3891,24.2908,-1.49105,26.8925,213,19.1406,14.4933,0.16875,14356
1.76963e-07,7.40489e-07,-1.66864e-06,-6.16482e-05,-0.000229245,-0.00361032,25.7,24.4493,-0.782602,13.8266,26.2809,24.4582,-1.3724,26.7885,213,5.15833,1.13364,0.16875,14357
1.47454e-07,7.39301e-07,-1.64674e-06,-5.18197e-05,-0.000223646,-0.003669,25.4304,24.1481,-1.56348,14.0335,25.9642,24.1535,-2.10275,27.2069,213,5.65833,1.13364,0.1625,14358
-7.78829e-07,1.6511e-07,-1.61098e-06,-0.000238982,-5.54243e-05,-0.00370823,23.5724,24.9422,-2.31752,14.1722,25.4813,23.5788,-2.86304,27.4426,213,19.1345,5.48064,0.1625,14359
1.26348e-07,-4.85961e-07,-1.65359e-06,-4.77528e-05,-0.00016036,-0.00378037,25.1117,24.2714,-2.74359,14.228,25.4165,24.2627,-3.03961,27.8971,213,5.65834,18.3664,0.1625,14360
1.67371e-07,3.87604e-07,-1.61101e-06,-5.83898e-05,-0.000131164,-0.0036077,26.5486,26.0056,0.0612799,13.3366,26.6401,26.0084,-0.0330391,26.363,213,5.33368,3.10108,0.1625,14361
2.38207e-07,3.00936e-07,-1.6145e-06,-8.47268e-05,-0.000101682,-0.00361061,26.3539,26.2274,0.0413242,13.2261,26.4293,26.2162,-0.0228791,26.3463,213,4.39389,3.77713,0.1625,14362
1.67606e-07,2.76711e-07,-1.61916e-06,-5.98025e-05,-9.40101e-05,-0.00362871,26.6549,26.3996,0.0212129,13.3604,26.6978,26.4009,-0.0229598,26.5735,213,5.40069,4.08489,0.1625,14363
-7.94938e-07,-1.12494e-07,-1.62283e-06,-0.000243933,-4.20524e-05,-0.00361799,24.3178,25.8244,-0.861711,13.8998,26.3809,24.3183,-1.41877,26.8279,213,19.1406,14.0133,0.1625,14364
-6.00345e-07,6.20559e-09,-1.66859e-06,-0.000193065,-2.33893e-05,-0.00358379,25.5199,26.7861,0.215942,13.6695,27.1704,25.5202,-0.168648,26.5524,213,18.1943,10.0583,0.1625,14365
1.22601e-07,7.20376e-08,-1.62638e-06,-4.98059e-05,-3.32505e-05,-0.00367012,26.9622,27.0857,-0.0550651,13.5802,27.0953,26.9627,-0.0651558,27.0944,213,6.42082,7.68352,0.1625,14366
7.91114e-08,8.67071e-08,-1.62676e-06,-3.62159e-05,-3.65798e-05,-0.00367496,27.1066,27.1038,-0.0482477,13.5884,27.1214,27.0962,-0.0554632,27.1643,213,7.43649,7.31541,0.1625,14367
1.09452e-07,1.13724e-07,-1.62632e-06,-4.48891e-05,-4.4561e-05,-0.00366778,26.9667,26.9692,-0.0697959,13.5385,26.9946,26.954,-0.0824775,27.0568,213,6.66003,6.61957,0.1625,14368
1.81311e-07,5.90526e-08,-1.62375e-06,-6.38249e-05,-2.95238e-05,-0.00365723,26.8781,27.1341,0.0616492,13.5534,27.1509,26.8789,0.044073,26.9718,213,5.40514,8.05162,0.1625,14369
-3.15391e-07,2.44819e-07,-1.61863e-06,-0.000104173,-8.58569e-05,-0.00361435,26.1504,26.2871,-0.0449157,13.2522,26.3794,26.1382,-0.12496,26.3846,213,16.477,4.32208,0.1625,14370
-4.10504e-07,1.80486e-07,-1.62703e-06,-0.000141998,-6.1698e-05,-0.00361818,25.7294,26.3287,-0.212211,13.401,26.4533,25.7412,-0.348626,26.4531,213,17.1967,5.15136,0.1625,14371
-2.91065e-07,1.77997e-07,-1.61707e-06,-9.69875e-05,-6.116e-05,-0.00362578,26.3662,26.6336,0.0319377,13.3494,26.6804,26.3699,-0.0184694,26.5449,213,16.1743,5.25143,0.1625,14372
-4.74011e-08,-8.71472e-08,-1.62652e-06,-3.02891e-05,-3.85023e-05,-0.00367374,27.1922,27.1309,0.00222599,13.5996,27.1969,27.1309,-0.00240708,27.1663,213,11.7534,13.4412,0.1625,14373
-3.67726e-08,-5.61091e-08,-1.627e-06,-2.89106e-05,-3.01e-05,-0.00368213,27.2135,27.2046,-0.0493483,13.6342,27.2169,27.2033,-0.0515279,27.2617,213,11.3783,12.5247,0.1625,14374
-2.57712e-08,-1.03724e-07,-1.62593e-06,-2.81218e-05,-4.18004e-05,-0.00367411,27.1965,27.0944,-0.0123018,13.6101,27.2021,27.0945,-0.0180002,27.1665,213,11.0258,13.8451,0.1625,14375
-1.60083e-08,-6.94016e-08,-1.62679e-06,-2.72713e-05,-3.35712e-05,-0.00367921,27.2344,27.1874,-0.0188625,13.6295,27.2373,27.1872,-0.0216306,27.2339,213,10.6507,12.9286,0.1625,14376
-6.98627e-07,4.99118e-07,-1.66557e-06,-0.000217326,-0.000158124,-0.00366238,23.455,23.8968,-2.25437,13.7529,24.5454,23.5125,-2.96049,27.0043,213,19.0929,2.06616,0.1625,14377
-6.78932e-07,5.74692e-07,-1.66779e-06,-0.000206103,-0.000174359,-0.00367383,23.4082,23.6451,-2.4703,13.7443,24.3,23.4715,-3.18854,27.0838,213,19.0929,1.58616,0.15625,14378
-7.07916e-07,-3.55082e-07,-1.64943e-06,-0.000226423,-0.000116768,-0.00362531,23.9368,24.7552,-1.42796,13.6747,25.304,24.0055,-2.04541,26.7238,213,19.0929,17.4338,0.1625,14379
-6.80248e-07,-4.10849e-07,-1.64178e-06,-0.000216312,-0.000123638,-0.00369615,23.4762,24.1678,-2.49271,13.7119,24.5169,23.5414,-2.90695,26.9493,213,19.0929,17.9138,0.15625,14380
2.09292e-08,7.27234e-07,-1.63599e-06,-2.58429e-05,-0.000224244,-0.00363355,26.1065,24.6259,-0.816647,14.008,26.6529,24.626,-1.3631,27.0595,213,9.20211,1.2564,0.15625,14381
1.75159e-08,5.17848e-07,-1.63747e-06,-2.35692e-05,-0.000167234,-0.00362082,26.6945,25.6224,-0.150679,13.6797,26.9516,25.6224,-0.407814,26.7196,213,9.35422,2.36281,0.1625,14382
7.75855e-07,-1.32434e-07,-1.60109e-06,-0.000237684,-4.81679e-05,-0.00362355,24.3214,25.7357,-0.946243,13.864,26.2563,24.3263,-1.4717,26.8151,213,0.982182,14.4792,0.15625,14383
5.84425e-07,-1.22568e-07,-1.66071e-06,-0.000190388,-4.27962e-05,-0.00356826,25.5303,26.6318,0.322366,13.5211,26.9929,25.5408,-0.04926,26.3462,213,1.91436,14.4084,0.1625,14384
-7.95693e-09,-3.7557e-07,-1.64738e-06,-2.25363e-05,-0.000117726,-0.00361731,27.1308,26.4204,0.304068,13.5471,27.2645,26.4204,0.170334,26.6821,213,10.407,17.4183,0.1625,14385
3.12593e-07,-1.55847e-07,-1.61545e-06,-0.000105774,-5.6737e-05,-0.00363065,26.2274,26.5934,-0.0776219,13.3895,26.6463,26.2296,-0.132765,26.5732,213,3.71936,15.1146,0.1625,14386
4.48325e-07,-1.61404e-07,-1.63433e-06,-0.000149949,-5.75269e-05,-0.00362203,25.6096,26.2994,-0.301384,13.4475,26.4455,25.6117,-0.449586,26.488,213,2.65073,15.2195,0.1625,14387
2.84766e-07,-1.10875e-07,-1.6204e-06,-9.70143e-05,-4.20589e-05,-0.00364236,26.3858,26.7959,-0.0719945,13.4771,26.8379,26.3882,-0.116376,26.7323,213,4.05164,14.1985,0.1625,14388
4.09833e-07,-1.14974e-07,-1.6268e-06,-0.000139908,-4.30173e-05,-0.00361685,25.9203,26.6434,-0.0269881,13.4435,26.7496,25.9244,-0.137283,26.4839,213,2.983,14.3034,0.1625,14389
1.65583e-07,-2.51016e-07,-1.62e-06,-5.9762e-05,-8.82959e-05,-0.00362762,26.7095,26.4965,0.0837188,13.3716,26.7736,26.4856,0.0304502,26.6004,213,5.34037,16.4001,0.1625,14390
1.68408e-07,-1.78157e-07,-1.61787e-06,-6.17304e-05,-6.16068e-05,-0.00365231,26.695,26.6959,-0.100368,13.4454,26.7627,26.6558,-0.127988,26.8374,213,5.41406,15.4175,0.1625,14391
1.15772e-07,-2.13349e-07,-1.621e-06,-4.71558e-05,-7.47805e-05,-0.00365595,26.786,26.5799,-0.145229,13.4949,26.8169,26.5768,-0.172964,26.8706,213,6.33711,15.8693,0.1625,14392
1.07031e-08,2.85204e-08,-1.62685e-06,-2.78448e-05,-2.6027e-05,-0.00368347,27.2516,27.2652,-0.0292018,13.6475,27.2653,27.252,-0.029676,27.2883,213,9.65764,9.23439,0.1625,14393
1.81335e-08,3.78764e-09,-1.6269e-06,-2.85083e-05,-2.401e-05,-0.00368401,27.2531,27.2867,-0.0267281,13.6569,27.2869,27.2531,-0.0269116,27.2969,213,9.3925,10.2271,0.1625,14394
3.95526e-08,1.70625e-08,-1.62692e-06,-2.96501e-05,-2.52597e-05,-0.00368278,27.2354,27.2682,-0.0267157,13.6485,27.2691,27.2355,-0.027769,27.2801,213,8.66016,9.68231,0.1625,14395
3.14111e-08,4.30851e-08,-1.62694e-06,-2.85874e-05,-2.746e-05,-0.00368308,27.2319,27.2403,-0.0404649,13.6419,27.2419,27.2318,-0.0419241,27.2788,213,8.9253,8.68955,0.1625,14396
-2.63079e-07,-1.91375e-07,-1.6121e-06,-9.39168e-05,-6.67425e-05,-0.00364156,26.2441,26.4469,-0.23088,13.3909,26.502,26.2378,-0.279727,26.6506,213,15.9382,15.6837,0.1625,14397
-2.33772e-07,-2.6887e-07,-1.61818e-06,-8.61947e-05,-9.05638e-05,-0.00362072,26.3393,26.3067,-0.0377366,13.2809,26.4566,26.2569,-0.105248,26.4626,213,15.7404,16.6525,0.1625,14398
-1.97238e-07,-1.67199e-07,-1.61833e-06,-7.15046e-05,-5.89234e-05,-0.00361927,26.8278,26.9217,0.352012,13.3174,26.9599,26.8164,0.325212,26.5632,213,15.0966,15.2601,0.1625,14399
-1.75378e-07,-2.35735e-07,-1.6165e-06,-6.38715e-05,-8.14979e-05,-0.00363403,26.6493,26.5178,0.0063442,13.374,26.71,26.5014,-0.0379458,26.6443,213,14.8988,16.2289,0.1625,14400
1.74514e-07,7.25258e-07,-1.62408e-06,-6.11917e-05,-0.000224858,-0.00362103,25.6569,24.4355,-0.90913,13.8031,26.1724,24.4447,-1.43383,26.7842,213,5.15833,1.13364,0.15625,14401
1.6913e-07,5.37403e-07,-1.65337e-06,-5.78393e-05,-0.000176295,-0.00363219,26.005,25.1211,-0.669214,13.7661,26.4309,25.1273,-1.1013,26.9041,213,5.26667,2.11727,0.1625,14402
-4.17029e-07,-1.12598e-07,-1.6263e-06,-0.000144325,-4.21368e-05,-0.00361588,25.8669,26.6295,-0.0402303,13.4424,26.7344,25.8722,-0.150469,26.4643,213,17.1642,14.2447,0.1625,14403
-4.56369e-07,-1.64526e-07,-1.63547e-06,-0.00015422,-5.73953e-05,-0.00361481,25.6021,26.3247,-0.223184,13.4328,26.4813,25.6066,-0.384265,26.4391,213,17.5054,15.2719,0.1625,14404
2.67575e-07,1.3516e-07,-1.61814e-06,-9.16106e-05,-5.04437e-05,-0.00363912,26.4282,26.7354,-0.045739,13.4275,26.7701,26.4326,-0.0848846,26.6879,213,4.21462,6.03789,0.1625,14405
-2.17321e-07,2.21433e-07,-1.62082e-06,-7.81206e-05,-7.71826e-05,-0.00362774,26.5141,26.5211,0.024406,13.3149,26.6072,26.475,-0.0226201,26.564,213,15.3803,4.69092,0.1625,14406
-2.35758e-07,3.02594e-07,-1.61288e-06,-8.42707e-05,-0.000102477,-0.00359987,26.4398,26.3039,0.204015,13.1777,26.5031,26.297,0.14764,26.253,213,15.683,3.76156,0.1625,14407
4.09758e-07,4.56871e-10,-1.62395e-06,-0.00013921,-2.21708e-05,-0.00363068,25.9867,26.8601,-0.0690401,13.5518,26.9474,25.9867,-0.156318,26.6364,213,3.07915,10.3194,0.1625,14408
4.08183e-07,2.49273e-08,-1.62561e-06,-0.000139118,-2.33096e-05,-0.00363636,25.934,26.7982,-0.164823,13.5656,26.8821,25.9343,-0.24901,26.6698,213,3.08211,9.25318,0.1625,14409
2.92791e-07,1.54772e-08,-1.61458e-06,-9.71851e-05,-2.25537e-05,-0.00363588,26.5892,27.1461,0.180979,13.526,27.1895,26.5893,0.137505,26.7569,213,4.07365,9.67275,0.1625,14410
2.3612e-07,-2.73402e-07,-1.62018e-06,-8.65071e-05,-9.46632e-05,-0.0036181,26.3228,26.2619,-0.0324203,13.2717,26.4391,26.2173,-0.104198,26.4331,213,4.32688,16.7067,0.1625,14411
2.37109e-07,4.19611e-07,-1.62004e-06,-8.35279e-05,-0.000140144,-0.00360059,26.1468,25.7243,-0.099904,13.266,26.2847,25.7337,-0.247272,26.2608,213,4.32688,2.79332,0.1625,14412
3.3357e-07,3.2603e-07,-1.61519e-06,-0.000107877,-0.000108955,-0.00360086,26.0172,26.0092,-0.0498537,13.1667,26.183,25.9441,-0.150509,26.2149,213,3.38709,3.46936,0.1625,14413
-4.45261e-07,2.48685e-07,-1.63624e-06,-0.000151627,-8.58051e-05,-0.00361349,25.4272,25.9184,-0.407583,13.2977,26.0512,25.4309,-0.544083,26.2906,213,17.4994,4.22201,0.1625,14414
7.24215e-08,2.09421e-07,-1.62386e-06,-3.52911e-05,-7.30901e-05,-0.00364842,27.0417,26.7596,0.0780558,13.505,27.0644,26.7605,0.0544553,26.8593,213,7.50936,4.99628,0.1625,14415
9.11642e-08,1.6143e-07,-1.62584e-06,-4.07877e-05,-5.81419e-05,-0.00366236,26.9652,26.8356,-0.0614871,13.5305,26.9822,26.8358,-0.0787473,26.9881,213,7.0492,5.70753,0.1625,14416
9.83502e-08,2.46333e-07,-1.62131e-06,-4.07501e-05,-8.46648e-05,-0.00363788,26.9495,26.6218,0.105305,13.454,26.9809,26.6229,0.0728142,26.7309,213,6.80389,4.50122,0.1625,14417
1.20845e-07,1.90774e-07,-1.6242e-06,-4.72868e-05,-6.85072e-05,-0.00365368,26.8517,26.6934,-0.0616894,13.4827,26.8773,26.6941,-0.0879838,26.8741,213,6.34373,5.21247,0.1625,14418
-1.53925e-07,-3.28463e-07,-1.63525e-06,-5.60351e-05,-0.000116745,-0.00357881,26.9283,26.4752,0.638958,13.2804,27.072,26.4592,0.51127,26.2597,213,14.701,17.1977,0.1625,14419
-1.48887e-07,-4.59251e-07,-1.63492e-06,-5.54817e-05,-0.000136792,-0.00368637,25.925,25.3182,-1.17115,13.963,26.3474,25.3033,-1.57864,27.4189,213,14.8755,18.2739,0.15625,14420
-1.8095e-07,7.72934e-08,-1.62317e-06,-6.58373e-05,-3.46532e-05,-0.00365648,26.8124,27.0451,0.0165405,13.5333,27.0635,26.8136,-0.00310829,26.9426,213,14.716,7.4886,0.1625,14421
-2.34089e-07,1.01818e-07,-1.62125e-06,-8.03298e-05,-4.06573e-05,-0.0036492,26.5995,26.8956,-0.0338146,13.4937,26.9236,26.6016,-0.0638854,26.8279,213,15.4794,6.80482,0.1625,14422
-1.47353e-07,9.7587e-08,-1.62492e-06,-5.55635e-05,-4.07919e-05,-0.00366072,26.8883,26.9985,-0.0158726,13.5225,27.0136,26.8885,-0.0312599,26.9826,213,14.1872,6.97006,0.1625,14423
-1.92587e-07,1.26142e-07,-1.62364e-06,-6.90753e-05,-4.76186e-05,-0.00365223,26.6935,26.8536,-0.0464937,13.4766,26.8796,26.6944,-0.0734767,26.861,213,14.9506,6.28627,0.1625,14424
-2.41474e-07,4.22424e-07,-1.61994e-06,-8.46248e-05,-0.000140658,-0.00359799,26.1465,25.7284,-0.0725645,13.2474,26.2805,25.7363,-0.214386,26.227,213,15.83,2.76867,0.1625,14425
-3.40061e-07,3.33875e-07,-1.61368e-06,-0.00011021,-0.000111734,-0.00360488,25.9274,25.916,-0.152272,13.1684,26.0881,25.8516,-0.248612,26.2193,213,16.7797,3.39273,0.1625,14426
1.46155e-07,1.45981e-07,-1.62526e-06,-5.36405e-05,-5.27937e-05,-0.0036584,26.8411,26.8474,-0.0600769,13.4838,26.8867,26.8226,-0.0808497,26.9355,213,5.88357,5.92373,0.1625,14427
6.76992e-08,1.24835e-08,-1.62694e-06,-3.50936e-05,-2.45032e-05,-0.00368159,27.167,27.2461,-0.0456365,13.6482,27.2484,27.1671,-0.0479965,27.2558,213,7.78903,9.8609,0.1625,14428
1.1236e-07,7.32569e-09,-1.62607e-06,-4.59961e-05,-2.41946e-05,-0.00367616,27.0447,27.2074,-0.0461278,13.6329,27.2135,27.0447,-0.0522198,27.1817,213,6.68556,10.0647,0.1625,14429
4.75526e-08,-7.07854e-09,-1.62699e-06,-3.04593e-05,-2.35261e-05,-0.00368377,27.2288,27.2806,-0.0347089,13.6587,27.2816,27.2288,-0.035738,27.291,213,8.39503,10.6751,0.1625,14430
8.62774e-08,-1.18388e-08,-1.62701e-06,-4.05593e-05,-2.32831e-05,-0.00367798,27.1212,27.2501,-0.0237142,13.6409,27.254,27.1213,-0.0277115,27.2156,213,7.29155,10.8788,0.1625,14431
-8.15991e-08,5.21808e-07,-1.64045e-06,-3.54638e-05,-0.000176305,-0.00362371,26.4166,25.3655,-0.361371,13.556,26.5824,25.3679,-0.52964,26.5257,213,12.9685,2.28886,0.1625,14432
-1.19103e-07,4.61618e-07,-1.62921e-06,-4.69221e-05,-0.000152992,-0.00362721,26.3974,25.6058,-0.321144,13.4983,26.5351,25.6084,-0.461438,26.5453,213,13.8783,2.62642,0.1625,14433
-8.54369e-08,6.80209e-07,-1.66442e-06,-3.58615e-05,-0.00021153,-0.00363217,26.0641,24.7532,-0.773967,14.1376,26.7822,24.754,-1.49287,27.3175,213,13.0606,1.46951,0.1625,14434
-1.23005e-07,6.02671e-07,-1.6677e-06,-4.66526e-05,-0.000193942,-0.00361676,26.1596,25.0604,-0.483001,13.8029,26.6361,25.0705,-0.969633,26.8572,213,13.9705,1.80706,0.1625,14435
4.09348e-07,1.77874e-07,-1.62448e-06,-0.000141693,-6.09213e-05,-0.00362786,25.6635,26.2663,-0.352687,13.4308,26.381,25.6767,-0.480655,26.5166,213,2.91735,5.19239,0.1625,14436
4.37129e-07,2.44833e-07,-1.63488e-06,-0.000149026,-8.49659e-05,-0.00360958,25.5049,25.983,-0.320103,13.2977,26.1259,25.5113,-0.469418,26.2934,213,2.66026,4.26673,0.1625,14437
2.94255e-07,1.73425e-07,-1.61601e-06,-9.78039e-05,-5.97016e-05,-0.00362637,26.3606,26.6449,0.027983,13.3561,26.6906,26.3645,-0.0216576,26.5507,213,3.90127,5.32067,0.1625,14438
3.13977e-07,2.38598e-07,-1.61822e-06,-0.000103662,-8.43924e-05,-0.00361472,26.167,26.3108,-0.0350048,13.2544,26.3971,26.1574,-0.111706,26.3898,213,3.64418,4.39502,0.1625,14439
6.29429e-07,-3.53889e-08,-1.67049e-06,-0.000199509,-2.6149e-05,-0.00361265,25.17,26.4637,-0.301251,13.8211,26.9023,25.17,-0.739882,26.818,213,1.74424,11.8173,0.1625,14440
8.64916e-07,-4.86301e-08,-1.59067e-06,-0.000259012,-2.7748e-05,-0.00365551,23.9016,25.6274,-1.44539,14.2807,26.3708,23.9033,-2.19048,27.4109,213,0.72691,12.1693,0.1625,14441
7.00389e-07,-6.04858e-08,-1.66751e-06,-0.000222593,-3.1133e-05,-0.00347126,25.8962,27.325,1.65245,13.5908,28.0789,25.8975,0.897275,26.1592,213,1.40382,12.6686,0.1625,14442
9.0197e-08,3.26426e-08,-1.6268e-06,-3.9707e-05,-2.53393e-05,-0.00367929,27.1076,27.2149,-0.0533945,13.6382,27.2189,27.1078,-0.0576088,27.2211,213,7.18303,9.04673,0.1625,14443
-9.21409e-09,1.48233e-08,-1.62682e-06,-2.68693e-05,-2.42845e-05,-0.00368331,27.2817,27.301,-0.00513492,13.6532,27.3011,27.2818,-0.00529407,27.2967,213,10.39,9.77922,0.1625,14444
8.60785e-07,8.25953e-08,-1.5863e-06,-0.000253632,-3.51613e-05,-0.0035914,24.434,26.0643,-0.474731,14.0583,26.8514,24.4373,-1.26512,26.9906,213,0.717496,7.35805,0.1625,14445
6.27068e-07,6.1847e-08,-1.66669e-06,-0.000206661,-3.10649e-05,-0.00364321,24.7786,26.089,-0.867319,13.9403,26.5512,24.7786,-1.3295,27.038,213,1.73778,7.85985,0.1625,14446
6.97803e-07,9.61166e-08,-1.65006e-06,-0.000223154,-3.75863e-05,-0.00355974,25.1349,26.5197,0.234971,13.7096,27.0859,25.137,-0.333318,26.4986,213,1.38499,6.88609,0.1625,14447
5.63988e-07,3.88977e-07,-1.65889e-06,-0.000187457,-0.000127558,-0.00361917,24.4996,24.9467,-1.11018,13.5002,25.4241,24.4883,-1.57635,26.545,213,1.7626,2.83905,0.1625,14448
5.06525e-07,4.98468e-07,-1.66279e-06,-0.000162503,-0.000157549,-0.00354424,25.2401,25.2771,0.00325609,13.3754,26.0702,25.1309,-0.680624,26.2938,213,2.01718,2.10758,0.1625,14449
5.76071e-07,-2.67141e-07,-1.66272e-06,-0.000194361,-8.56651e-05,-0.00366172,24.3882,25.1994,-1.48756,13.6933,25.5454,24.3957,-1.84106,26.8301,213,1.7626,16.6609,0.1625,14450
5.08316e-07,-3.3641e-07,-1.67385e-06,-0.00017227,-0.000101923,-0.00354231,25.5461,26.0711,0.396564,13.3191,26.5446,25.5627,-0.0935467,26.161,213,2.01718,17.3924,0.1625,14451
-4.00933e-08,4.74304e-08,-1.62674e-06,-3.06199e-05,-2.84481e-05,-0.00368106,27.2088,27.225,-0.0332799,13.6313,27.2273,27.2085,-0.0352719,27.2532,213,11.4707,8.53582,0.1625,14452
-3.7538e-08,2.51617e-08,-1.62667e-06,-3.05713e-05,-2.50397e-05,-0.00368201,27.229,27.2703,-0.0205518,13.6464,27.2712,27.2292,-0.0216955,27.2719,213,11.3771,9.36658,0.1625,14453
-1.41681e-08,6.03848e-08,-1.62678e-06,-2.69477e-05,-3.05507e-05,-0.00368163,27.2441,27.2173,-0.0295905,13.6386,27.2459,27.2173,-0.0313679,27.263,213,10.5772,8.1177,0.1625,14454
-1.16784e-08,3.62139e-08,-1.6268e-06,-2.67572e-05,-2.74488e-05,-0.00368368,27.2554,27.2502,-0.0350659,13.6459,27.2561,27.2502,-0.035735,27.2889,213,10.4836,8.94846,0.1625,14455
1.17116e-07,4.58401e-07,-1.62897e-06,-4.58157e-05,-0.000149033,-0.00362494,26.4637,25.6935,-0.246167,13.5045,26.6129,25.6943,-0.396102,26.5616,213,6.26336,2.64799,0.1625,14456
3.40228e-07,-2.13558e-07,-1.61343e-06,-0.000112262,-6.96287e-05,-0.00365426,25.8381,26.1563,-0.594718,13.4445,26.2263,25.8359,-0.662588,26.6959,213,3.38709,16.0306,0.1625,14457
-3.82277e-07,4.3077e-08,-1.63007e-06,-0.000130164,-2.61872e-05,-0.00363878,26.0298,26.8057,-0.153965,13.5658,26.8915,26.0302,-0.240164,26.7114,213,16.848,8.53697,0.1625,14458
-4.71529e-07,6.09674e-08,-1.64781e-06,-0.000154493,-2.9949e-05,-0.00366966,25.3806,26.3101,-0.851998,13.6946,26.4234,25.3811,-0.965826,26.8832,213,17.5147,7.87113,0.1625,14459
3.61757e-07,7.32698e-08,-1.62397e-06,-0.000120866,-3.29568e-05,-0.00365165,26.0172,26.6733,-0.3319,13.562,26.732,26.0186,-0.391976,26.7744,213,3.39494,7.51459,0.1625,14460
4.23407e-07,4.3693e-08,-1.63045e-06,-0.000142155,-2.62299e-05,-0.00365022,25.7542,26.6193,-0.425393,13.6282,26.725,25.7546,-0.531434,26.7844,213,2.95681,8.4964,0.1625,14461
3.15951e-07,5.40324e-08,-1.61839e-06,-0.000105189,-2.85556e-05,-0.00362315,26.5194,27.0913,0.265967,13.4687,27.1472,26.5197,0.209738,26.6293,213,3.82305,8.15919,0.1625,14462
3.43869e-07,-8.32663e-08,-1.62225e-06,-0.000116633,-3.52378e-05,-0.00363197,26.2203,26.8277,-0.013527,13.4784,26.8847,26.2218,-0.0720433,26.6315,213,3.53924,13.492,0.1625,14463
4.11551e-07,-6.05559e-08,-1.62654e-06,-0.000136121,-2.88582e-05,-0.00364452,25.8714,26.6719,-0.310688,13.5708,26.7511,25.8722,-0.390606,26.7131,213,3.02685,12.7856,0.1625,14464
4.92093e-07,-8.77585e-08,-1.63612e-06,-0.000160638,-3.64713e-05,-0.00362078,25.622,26.5486,-0.199954,13.5324,26.7046,25.6264,-0.360281,26.5422,213,2.47061,13.597,0.1625,14465
-2.61303e-08,-1.45023e-07,-1.6241e-06,-2.75164e-05,-5.38459e-05,-0.0036662,27.173,26.9765,0.018598,13.5872,27.183,26.9765,0.00861223,27.0717,213,11.0627,14.7078,0.1625,14466
2.253e-09,-1.19553e-07,-1.62482e-06,-2.47557e-05,-4.76179e-05,-0.00367379,27.2047,27.0341,-0.0269575,13.6232,27.2121,27.0341,-0.0343128,27.1578,213,9.95998,14.1952,0.1625,14467
1.32059e-09,-1.65971e-07,-1.62242e-06,-2.43978e-05,-5.90029e-05,-0.00367153,27.1379,26.8796,-0.0795263,13.6212,27.1504,26.8796,-0.0920356,27.1081,213,9.99692,15.0579,0.1625,14468
2.2312e-07,2.19921e-07,-1.62163e-06,-7.96912e-05,-7.668e-05,-0.00362913,26.4828,26.5053,-0.00556178,13.3204,26.5861,26.4511,-0.0546569,26.5735,213,4.65098,4.70278,0.1625,14469
4.84887e-07,-3.62613e-08,-1.63694e-06,-0.000158143,-2.58212e-05,-0.00362762,25.6905,26.678,-0.201083,13.5811,26.8195,25.6907,-0.342755,26.6158,213,2.55575,11.8758,0.1625,14470
3.90573e-07,-1.8566e-08,-1.62168e-06,-0.000133465,-2.29245e-05,-0.00364481,25.9571,26.782,-0.247013,13.6014,26.8689,25.9572,-0.334023,26.7587,213,3.22039,11.1622,0.1625,14471
2.79148e-07,-3.70876e-09,-1.6162e-06,-9.27867e-05,-2.29698e-05,-0.00364391,26.59,27.111,0.0890789,13.5475,27.1475,26.59,0.0525579,26.8205,213,4.21489,10.5156,0.1625,14472
2.65257e-07,-2.33889e-08,-1.61946e-06,-8.88027e-05,-2.31912e-05,-0.00363746,26.7006,27.1903,0.21812,13.5184,27.2226,26.7007,0.185772,26.7797,213,4.35613,11.3584,0.1625,14473
3.49796e-07,1.30224e-07,-1.61677e-06,-0.000116867,-4.83489e-05,-0.00366354,25.8624,26.3737,-0.605314,13.5485,26.432,25.8638,-0.665029,26.8175,213,3.43405,6.09534,0.1625,14474
-6.17322e-07,5.93025e-08,-1.66368e-06,-0.000204458,-3.00112e-05,-0.00363463,24.8889,26.1907,-0.709439,13.8402,26.5809,24.8889,-1.0996,26.8745,213,18.3216,7.94402,0.1625,14475
-6.94386e-07,9.57273e-08,-1.64551e-06,-0.000222003,-3.81769e-05,-0.00354726,25.2469,26.6187,0.431499,13.6357,27.1595,25.2494,-0.111843,26.3683,213,18.7047,6.89622,0.1625,14476
-8.58652e-07,8.24762e-08,-1.58398e-06,-0.000253726,-3.49072e-05,-0.00357691,24.5494,26.1824,-0.25053,14.0238,26.9878,24.5534,-1.05988,26.9132,213,19.3773,7.36311,0.1625,14477
-6.25282e-08,-5.70465e-08,-1.627e-06,-3.44641e-05,-2.98815e-05,-0.00367951,27.1506,27.1848,-0.0512433,13.6214,27.1882,27.1505,-0.0545823,27.224,213,12.1933,12.5697,0.1625,14478
-6.67377e-08,-3.30985e-08,-1.62685e-06,-3.5349e-05,-2.6731e-05,-0.00368017,27.1567,27.221,-0.0434164,13.6349,27.2236,27.1569,-0.0462374,27.2366,213,12.2913,11.728,0.1625,14479
-4.0165e-08,-3.22062e-08,-1.62695e-06,-2.94368e-05,-2.6742e-05,-0.00368206,27.2326,27.2527,-0.0258379,13.6405,27.2539,27.2326,-0.0270574,27.2703,213,11.4763,11.683,0.1625,14480
-2.46541e-07,-6.68099e-08,-1.62436e-06,-8.58252e-05,-3.17963e-05,-0.00365102,26.5707,26.9739,-0.0352325,13.5349,27.0034,26.5723,-0.0663243,26.8568,213,15.5936,12.9667,0.1625,14481
-3.01023e-07,-4.58601e-08,-1.62576e-06,-0.00010484,-2.63332e-05,-0.00364769,26.3478,26.9337,-0.0913813,13.5578,26.9785,26.3486,-0.137018,26.8061,213,16.1499,12.2552,0.1625,14482
-2.09209e-07,-3.65909e-08,-1.62213e-06,-7.11843e-05,-2.47903e-05,-0.00366066,26.7752,27.1214,-0.0119646,13.5885,27.1431,26.7754,-0.0338242,26.9949,213,15.09,11.8805,0.1625,14483
-5.31041e-07,9.59731e-08,-1.6509e-06,-0.000181006,-3.85349e-05,-0.0036225,25.2785,26.3417,-0.404326,13.5469,26.5138,25.282,-0.57993,26.4993,213,17.8977,6.82333,0.1625,14484
-4.64182e-08,2.73515e-07,-1.62162e-06,-2.88682e-05,-9.55046e-05,-0.00364822,26.9644,26.4672,-0.0456674,13.5449,27.004,26.4677,-0.0857806,26.8257,213,11.8084,4.24567,0.1625,14485
-1.5414e-08,3.06593e-07,-1.61705e-06,-2.49244e-05,-0.000104153,-0.00363997,27.022,26.4307,0.0440326,13.5299,27.0628,26.4308,0.00304916,26.7494,213,10.6644,3.92934,0.1625,14486
-2.93176e-08,3.69308e-07,-1.62001e-06,-2.534e-05,-0.000122998,-0.00363326,26.9194,26.1906,-0.00536724,13.53,26.9869,26.1909,-0.0731457,26.6709,213,11.2318,3.37368,0.1625,14487
-1.15361e-07,7.70969e-08,-1.62571e-06,-4.65975e-05,-3.49285e-05,-0.00367005,26.9988,27.0859,-0.0418595,13.5734,27.0955,26.9986,-0.0512219,27.0984,213,13.5363,7.53994,0.1625,14488
-9.6198e-08,1.01997e-07,-1.6262e-06,-4.0576e-05,-4.06643e-05,-0.00366807,27.0617,27.061,-0.00913807,13.5521,27.0843,27.0492,-0.0198749,27.0866,213,13.12,6.9075,0.1625,14489
-1.23833e-07,1.26327e-07,-1.62554e-06,-4.87649e-05,-4.78346e-05,-0.00366243,26.9235,26.9305,-0.0441017,13.5098,26.9598,26.9099,-0.0597479,26.9946,213,13.7709,6.33762,0.1625,14490
-6.55269e-07,-8.99213e-08,-1.65907e-06,-0.000210051,-3.78576e-05,-0.00358892,25.103,26.3881,-0.112395,13.8052,26.9395,25.1102,-0.670966,26.7428,213,18.5138,13.5548,0.1625,14491
-8.72486e-07,-7.96143e-08,-1.57315e-06,-0.000258587,-3.65804e-05,-0.00364488,23.9224,25.5791,-1.34848,14.1987,26.3121,23.9262,-2.08525,27.2827,213,19.4232,13.1315,0.1625,14492
-7.21126e-07,-6.06994e-08,-1.65479e-06,-0.000227063,-3.20165e-05,-0.00350287,25.5697,27.0253,1.12339,13.6261,27.6983,25.574,0.44611,26.2546,213,18.7965,12.673,0.1625,14493
-7.20774e-08,2.84297e-07,-1.6219e-06,-3.35193e-05,-9.90072e-05,-0.00364417,26.8972,26.4085,-0.0479568,13.5181,26.9422,26.4095,-0.0939399,26.7738,213,12.6307,4.11294,0.1625,14494
-1.0651e-07,2.35373e-07,-1.62286e-06,-4.47212e-05,-8.09723e-05,-0.00364192,26.8857,26.6151,0.0409459,13.4514,26.9139,26.6168,0.011108,26.7554,213,13.4856,4.62403,0.1625,14495
-6.53251e-08,2.0097e-07,-1.62418e-06,-3.21532e-05,-6.89131e-05,-0.0036566,27.0583,26.784,0.0102297,13.5451,27.079,26.7849,-0.0113044,26.9444,213,12.385,5.11765,0.1625,14496
-2.6873e-07,3.39273e-08,-1.61721e-06,-8.83553e-05,-2.60456e-05,-0.00363739,26.6855,27.1505,0.200149,13.5168,27.1921,26.6855,0.158548,26.7838,213,15.7923,8.91606,0.1625,14497
-3.89183e-07,2.22771e-08,-1.62809e-06,-0.000132175,-2.36458e-05,-0.00364572,25.964,26.7739,-0.256542,13.5981,26.8567,25.9642,-0.33953,26.7611,213,16.8828,9.37091,0.1625,14498
-2.73723e-07,1.35704e-08,-1.61601e-06,-9.02596e-05,-2.26264e-05,-0.00363624,26.6924,27.1971,0.229807,13.5279,27.2414,26.6924,0.185527,26.7856,213,15.8271,9.75,0.1625,14499
2.30041e-08,-1.75121e-08,-1.62698e-06,-2.86018e-05,-2.46133e-05,-0.00368357,27.2504,27.2802,-0.0254797,13.6534,27.2807,27.2505,-0.0260636,27.2917,213,9.22386,11.0991,0.1625,14500
-8.16856e-09,5.68139e-07,-1.6613e-06,-2.5118e-05,-0.000183636,-0.00362512,26.5066,25.3236,-0.359084,13.7791,26.8528,25.3237,-0.705335,26.8263,213,10.4003,2.07876,0.1625,14501
-2.87982e-07,-2.39836e-08,-1.62156e-06,-9.94621e-05,-2.35478e-05,-0.00365018,26.4329,26.9994,-0.0649525,13.5767,27.0439,26.4331,-0.109566,26.8532,213,15.9965,11.3779,0.1625,14502
-3.92064e-07,-1.21634e-08,-1.63008e-06,-0.000127692,-2.20521e-05,-0.00368354,25.7458,26.5341,-0.790422,13.7241,26.5958,25.746,-0.852359,27.0333,213,16.9031,10.8754,0.1625,14503
-4.10044e-07,-3.27841e-08,-1.63548e-06,-0.00013264,-2.49435e-05,-0.00365694,25.8576,26.6613,-0.443115,13.6317,26.7405,25.8583,-0.522975,26.8332,213,17.0565,11.7527,0.1625,14504
5.37714e-07,-5.96009e-08,-1.64336e-06,-0.000174799,-2.92943e-05,-0.00365585,25.1828,26.2687,-0.795203,13.7298,26.4659,25.184,-0.993666,26.8416,213,2.21533,12.7271,0.1625,14505
6.4017e-07,-8.86978e-08,-1.66248e-06,-0.000207619,-3.75699e-05,-0.00357869,25.2239,26.4929,0.0666234,13.7484,27.0251,25.2299,-0.471588,26.6445,213,1.65909,13.5385,0.1625,14506
4.92795e-07,6.73448e-07,-1.67482e-06,-0.000154854,-0.000208382,-0.00362669,24.301,23.9015,-1.60829,13.6462,24.97,23.9467,-2.32245,26.7954,213,2.03359,1.12879,0.1625,14507
3.8014e-07,-3.56877e-07,-1.65779e-06,-0.000137691,-0.000109884,-0.00358846,25.6493,25.8568,-0.102731,13.2381,26.1262,25.6272,-0.350058,26.2303,213,2.80835,17.5781,0.1625,14508
1.86035e-08,1.57823e-07,-1.62487e-06,-2.7303e-05,-5.70876e-05,-0.003668,27.1363,26.9141,-0.0330326,13.598,27.1496,26.9142,-0.0464318,27.0791,213,9.33662,5.82477,0.1625,14509
-1.06211e-08,1.39574e-07,-1.62624e-06,-2.55299e-05,-5.12177e-05,-0.0036714,27.1832,26.9915,-0.0247529,13.6138,27.193,26.9915,-0.0345714,27.1274,213,10.4584,6.15821,0.1625,14510
7.35459e-09,1.17004e-07,-1.62611e-06,-2.65834e-05,-4.55661e-05,-0.00367418,27.1897,27.0481,-0.0311871,13.6171,27.1963,27.0481,-0.0377829,27.1603,213,9.77165,6.62345,0.1625,14511
3.33884e-09,-8.37533e-08,-1.62642e-06,-2.57002e-05,-3.62539e-05,-0.00367636,27.2599,27.1811,0.0161128,13.625,27.263,27.1811,0.0130172,27.2091,213,9.92303,13.3324,0.1625,14512
-5.79224e-08,-1.25912e-07,-1.62504e-06,-3.1113e-05,-4.71131e-05,-0.00366894,27.1493,27.0299,0.00130765,13.5835,27.1589,27.0296,-0.00801813,27.1025,213,12.1285,14.3577,0.1625,14513
2.09013e-07,1.59879e-07,-1.6224e-06,-7.61891e-05,-5.64973e-05,-0.00364423,26.577,26.724,-0.0501895,13.4216,26.7579,26.5781,-0.0851901,26.7536,213,4.89242,5.6222,0.1625,14514
1.1098e-07,-6.90009e-08,-1.62663e-06,-4.60726e-05,-3.27813e-05,-0.00367177,27.0102,27.1094,-0.0472172,13.5864,27.1172,27.0108,-0.0556563,27.1198,213,6.6608,12.9767,0.1625,14515
1.4145e-07,-4.89495e-08,-1.62613e-06,-5.33484e-05,-2.91277e-05,-0.00366918,26.9478,27.1286,-0.0360022,13.5923,27.1384,26.9483,-0.046287,27.0901,213,6.07487,12.3389,0.1625,14516
1.44843e-07,-8.9709e-08,-1.62597e-06,-5.37147e-05,-3.67855e-05,-0.00366186,26.9395,27.0658,0.0130041,13.5402,27.0794,26.9399,-0.00100954,27.0109,213,5.96166,13.5953,0.1625,14517
1.36717e-07,-1.68128e-08,-1.62552e-06,-5.15667e-05,-2.28334e-05,-0.00367354,26.9905,27.2049,-0.0391522,13.632,27.2149,26.9906,-0.049201,27.1526,213,6.18808,11.0826,0.1625,14518
-3.4691e-07,-2.18631e-07,-1.61385e-06,-0.000114698,-7.26249e-05,-0.00364214,25.873,26.187,-0.451131,13.396,26.2663,25.8683,-0.525672,26.5952,213,16.7797,16.1073,0.1625,14519
-6.92765e-08,3.5403e-08,-1.62636e-06,-3.47174e-05,-2.56136e-05,-0.00367828,27.1902,27.2582,-0.000532979,13.6324,27.2612,27.1904,-0.00367767,27.2295,213,12.3642,8.95394,0.1625,14520
8.45698e-08,5.69725e-08,-1.62704e-06,-3.76143e-05,-3.10086e-05,-0.00367789,27.1059,27.1552,-0.0603142,13.6127,27.1601,27.1059,-0.0652243,27.1983,213,7.30976,8.18107,0.1625,14521
1.57088e-07,2.02512e-07,-1.62393e-06,-5.69306e-05,-7.23897e-05,-0.00364585,26.7346,26.6192,-0.0483657,13.4263,26.7706,26.6167,-0.0819178,26.7759,213,5.64213,5.00431,0.1625,14522
-2.62957e-07,5.70086e-08,-1.61904e-06,-8.77256e-05,-2.92059e-05,-0.00363773,26.6674,27.1041,0.174874,13.4994,27.1388,26.6676,0.139975,26.7663,213,15.7574,8.08211,0.1625,14523
-1.60673e-07,2.73555e-07,-1.61919e-06,-5.7232e-05,-9.19579e-05,-0.00362724,26.7223,26.4632,0.0804805,13.3635,26.7647,26.4635,0.0377225,26.5777,213,14.5862,4.1304,0.1625,14524
-7.94638e-08,3.9833e-07,-1.62394e-06,-3.45991e-05,-0.000129702,-0.00362984,26.7508,26.0411,-0.079315,13.499,26.8341,26.0423,-0.163833,26.6109,213,12.8764,3.10822,0.1625,14525
-4.29803e-07,-5.6228e-08,-1.63383e-06,-0.000138242,-2.785e-05,-0.00366658,25.6718,26.4957,-0.659071,13.6566,26.5746,25.6723,-0.738492,26.8733,213,17.2098,12.63,0.1625,14526
3.04598e-07,3.3469e-08,-1.61609e-06,-0.000101178,-2.55385e-05,-0.00363067,26.5454,27.1099,0.205985,13.5012,27.1589,26.5459,0.15653,26.7011,213,3.94835,8.91597,0.1625,14527
-4.05569e-07,1.0006e-07,-1.63335e-06,-0.000131061,-3.88446e-05,-0.00366151,25.7354,26.4236,-0.611187,13.6232,26.5292,25.7357,-0.717142,26.8584,213,17.0908,6.75044,0.1625,14528
1.83054e-08,-1.84136e-07,-1.62035e-06,-2.58052e-05,-6.47222e-05,-0.00366356,27.1341,26.8436,-0.0133318,13.5897,27.1501,26.8436,-0.029375,27.0275,213,9.32243,15.3549,0.1625,14529
2.63362e-08,-1.35991e-07,-1.62352e-06,-2.7536e-05,-5.16564e-05,-0.00366892,27.1685,26.9885,-0.0059244,13.5959,27.1772,26.9885,-0.0145554,27.0979,213,9.04006,14.5352,0.1625,14530
4.49447e-08,-1.51223e-07,-1.62259e-06,-2.87243e-05,-5.7101e-05,-0.0036612,27.1682,26.9565,0.0602032,13.5656,27.1798,26.9565,0.0486095,27.0202,213,8.36558,14.8322,0.1625,14531
3.56625e-08,-2.04009e-07,-1.61961e-06,-2.66106e-05,-7.18585e-05,-0.00365537,27.13,26.7924,0.0497453,13.5627,27.1526,26.7924,0.0271172,26.9472,213,8.64795,15.6519,0.1625,14532
-4.72748e-07,-2.15509e-07,-1.64427e-06,-0.00016378,-7.09407e-05,-0.00360934,25.3909,26.0838,-0.322202,13.3894,26.2685,25.3942,-0.510193,26.3524,213,17.6986,16.0545,0.1625,14533
-6.22622e-07,-1.64947e-07,-1.66376e-06,-0.000204011,-5.75284e-05,-0.00352955,25.5107,26.6039,0.69324,13.3559,27.0011,25.5175,0.289318,26.0017,213,18.4243,15.2191,0.1625,14534
8.52315e-07,1.20922e-07,-1.58146e-06,-0.000251254,-4.40273e-05,-0.00368532,23.6555,25.202,-1.97189,14.372,25.9854,23.6589,-2.75863,27.6543,213,0.717496,6.39805,0.1625,14535
-6.06601e-07,2.4213e-07,-1.66698e-06,-0.000195725,-8.08015e-05,-0.00350086,25.6812,26.5389,1.01604,13.2231,26.9963,25.6899,0.549983,25.8179,213,18.4183,4.27476,0.1625,14536
-4.62765e-07,3.21926e-07,-1.63523e-06,-0.000160933,-0.000105542,-0.00361274,25.1335,25.5468,-0.626281,13.2658,25.7294,25.1268,-0.802201,26.2355,213,17.6986,3.44549,0.1625,14537
4.0545e-08,-3.85776e-07,-1.65192e-06,-2.67684e-05,-0.000133353,-0.00359032,27.1558,26.3604,0.562182,13.4304,27.2901,26.3589,0.429387,26.4074,213,8.29293,17.5201,0.1625,14538
2.20841e-07,-1.41183e-07,-1.61924e-06,-7.97607e-05,-5.23326e-05,-0.00363273,26.6462,26.8509,0.131503,13.3923,26.884,26.6453,0.0993042,26.6661,213,4.73285,14.808,0.1625,14539
-7.30638e-08,-3.4161e-07,-1.64049e-06,-3.23241e-05,-0.000113511,-0.00363705,26.8571,26.2512,-0.043879,13.5402,26.9469,26.2509,-0.133381,26.7391,213,12.8729,17.1919,0.1625,14540
-1.07243e-07,-3.859e-07,-1.6523e-06,-4.43111e-05,-0.000136288,-0.00360391,26.7547,26.0683,0.190585,13.4528,26.9247,26.0698,0.0190516,26.4886,213,13.8486,17.5976,0.1625,14541
-7.22254e-08,-4.44775e-07,-1.65536e-06,-3.25746e-05,-0.000139017,-0.00367255,26.3695,25.5752,-0.794433,13.8719,26.6588,25.5765,-1.08498,27.2188,213,12.9962,17.9975,0.1625,14542
6.31565e-07,1.35499e-07,-1.66521e-06,-0.000207954,-5.13131e-05,-0.00349948,25.7378,26.9067,1.17411,13.293,27.3277,25.7492,0.741698,25.833,213,1.65921,5.97509,0.1625,14543
5.01784e-08,1.77307e-07,-1.62452e-06,-2.94851e-05,-6.24481e-05,-0.00366092,27.1164,26.8704,0.016145,13.5679,27.1339,26.871,-0.00192742,27.0053,213,8.21483,5.49134,0.1625,14544
-1.57026e-07,1.53908e-07,-1.62486e-06,-5.73867e-05,-5.48775e-05,-0.0036557,26.7883,26.8071,-0.0647362,13.4673,26.8453,26.7745,-0.0891987,26.8992,213,14.4218,5.76773,0.1625,14545
-1.37361e-07,5.64491e-08,-1.62437e-06,-5.22069e-05,-2.89262e-05,-0.00366464,27.003,27.1767,0.0445211,13.5768,27.1871,27.0035,0.0335842,27.0622,213,13.9526,8.17238,0.1625,14546
-5.74278e-09,1.89457e-07,-1.6247e-06,-2.46745e-05,-6.84199e-05,-0.0036569,27.175,26.8485,0.0688489,13.571,27.1929,26.8485,0.0509275,26.9714,213,10.2777,5.32161,0.1625,14547
-3.09533e-08,2.26471e-07,-1.62259e-06,-2.78189e-05,-7.758e-05,-0.00365241,27.0895,26.7182,0.0403812,13.5476,27.1125,26.7183,0.0172433,26.9003,213,11.241,4.80133,0.1625,14548
-3.66173e-08,1.68501e-07,-1.62577e-06,-2.8829e-05,-6.04614e-05,-0.00366532,27.1074,26.8713,-0.0305884,13.5843,27.1225,26.8716,-0.0460496,27.044,213,11.4217,5.63793,0.1625,14549
4.83834e-07,6.10573e-08,-1.64357e-06,-0.000156709,-3.01074e-05,-0.0036493,25.5067,26.4515,-0.557351,13.6344,26.581,25.5076,-0.687758,26.7482,213,2.5287,7.85181,0.1625,14550
4.13464e-07,9.53032e-08,-1.63038e-06,-0.000135606,-3.83044e-05,-0.00363779,25.8578,26.584,-0.277881,13.5463,26.6997,25.8571,-0.39284,26.6812,213,2.96683,6.87,0.1625,14551
-8.23802e-08,6.49214e-08,-1.62657e-06,-3.79305e-05,-3.29249e-05,-0.00367643,27.0975,27.1349,-0.0554503,13.601,27.1411,27.0969,-0.0609941,27.18,213,12.7421,7.93072,0.1625,14552
-5.83e-08,6.27498e-08,-1.62681e-06,-3.27398e-05,-3.22566e-05,-0.00367904,27.162,27.1656,-0.0491834,13.6135,27.1741,27.1571,-0.0527867,27.2184,213,12.0608,8.01931,0.1625,14553
-7.02165e-08,9.92118e-08,-1.62675e-06,-3.58267e-05,-3.94042e-05,-0.00367476,27.0917,27.065,-0.0644796,13.5866,27.1014,27.0626,-0.0718098,27.1538,213,12.4386,6.99609,0.1625,14554
-4.7559e-08,9.63191e-08,-1.62698e-06,-3.06533e-05,-3.90747e-05,-0.00367451,27.1759,27.1131,-0.0170535,13.6028,27.1823,27.1129,-0.0233083,27.171,213,11.7573,7.08467,0.1625,14555
-3.27682e-07,5.3366e-10,-1.62007e-06,-0.000109879,-2.24881e-05,-0.00364894,26.2908,26.943,-0.120127,13.5837,26.9951,26.2908,-0.172223,26.8221,213,16.3651,10.3127,0.1625,14556
-2.40495e-07,-1.07161e-08,-1.61752e-06,-8.18352e-05,-2.36655e-05,-0.00363676,26.8097,27.2438,0.280356,13.5116,27.2737,26.8097,0.250526,26.7942,213,15.4585,10.8152,0.1625,14557
-3.44492e-07,1.35006e-07,-1.61892e-06,-0.000115484,-4.97144e-05,-0.00366847,25.8338,26.3246,-0.681078,13.5623,26.3832,25.8356,-0.741453,26.855,213,16.6326,6.00094,0.1625,14558
1.80049e-07,-3.64359e-08,-1.62446e-06,-6.59878e-05,-2.60201e-05,-0.00366624,26.8012,27.0994,-0.0663863,13.6003,27.1166,26.8015,-0.0839808,27.0445,213,5.43661,11.8932,0.1625,14559
-5.05055e-07,-1.51365e-08,-1.65016e-06,-0.000167408,-2.2252e-05,-0.00362008,25.636,26.7193,-0.13018,13.6275,26.9222,25.6358,-0.332806,26.6351,213,17.6766,11.0001,0.1625,14560
-1.34114e-09,2.54067e-07,-1.61946e-06,-2.4337e-05,-8.54048e-05,-0.00365319,27.0748,26.6191,-0.00617861,13.5685,27.1028,26.6191,-0.0341773,26.8984,213,10.097,4.485,0.1625,14561
-2.1424e-07,-1.01e-07,-1.62405e-06,-7.75751e-05,-3.91917e-05,-0.00365779,26.5854,26.8719,-0.132569,13.5299,26.8984,26.5878,-0.161464,26.9059,213,15.2347,13.9218,0.1625,14562
-1.57058e-07,-9.74025e-08,-1.62616e-06,-5.70498e-05,-3.87366e-05,-0.00366146,26.8758,27.0125,-0.022744,13.5332,27.0276,26.8768,-0.0388136,26.9913,213,14.3722,13.7906,0.1625,14563
-1.8189e-07,-6.34391e-08,-1.62531e-06,-6.44147e-05,-3.14978e-05,-0.00366264,26.8105,27.0561,-0.0419458,13.5675,27.0742,26.8113,-0.0607867,27.0045,213,14.7311,12.8356,0.1625,14564
-1.32168e-08,-1.99079e-07,-1.62211e-06,-2.47656e-05,-7.04341e-05,-0.00366057,27.1285,26.7877,-0.00439655,13.5838,27.1458,26.7877,-0.0217448,26.9903,213,10.5903,15.5718,0.1625,14565
-2.75843e-08,-2.37354e-07,-1.62413e-06,-2.52259e-05,-8.02566e-05,-0.00366106,27.0396,26.6289,-0.0935355,13.5944,27.0675,26.6287,-0.121221,26.972,213,11.1837,16.0858,0.1625,14566
-4.21073e-08,-1.74455e-07,-1.62327e-06,-2.85443e-05,-6.35797e-05,-0.00366275,27.1074,26.8459,-0.0135398,13.5759,27.1229,26.8458,-0.028896,27.0143,213,11.6561,15.2218,0.1625,14567
6.43772e-08,-2.78037e-08,-1.62724e-06,-3.41211e-05,-2.61222e-05,-0.00368193,27.1665,27.2262,-0.0559387,13.6433,27.2283,27.1667,-0.0582393,27.2558,213,7.87749,11.5165,0.1625,14568
-1.80132e-07,-1.09517e-08,-1.61985e-06,-6.45485e-05,-2.38925e-05,-0.00366121,26.8801,27.1835,0.0393721,13.588,27.1994,26.8802,0.0234222,27.0178,213,14.6409,10.8355,0.1625,14569
8.39974e-08,-5.35842e-07,-1.64153e-06,-3.38884e-05,-0.00016584,-0.00377687,25.3094,24.3247,-2.62335,14.6988,26.0424,24.3237,-3.35529,28.5771,213,6.62606,18.6287,0.1625,14570
-5.61611e-08,1.18964e-08,-1.62661e-06,-3.25726e-05,-2.47952e-05,-0.00368214,27.1992,27.2572,-0.0363974,13.6484,27.2588,27.1993,-0.0380518,27.2671,213,11.9693,9.89765,0.1625,14571
-8.4877e-08,9.82765e-09,-1.626e-06,-3.90376e-05,-2.43238e-05,-0.0036779,27.137,27.2468,-0.0186419,13.6363,27.2503,27.137,-0.0221858,27.216,213,12.7684,9.97631,0.1625,14572
4.256e-08,-2.77205e-08,-1.62712e-06,-3.01539e-05,-2.62068e-05,-0.00368376,27.2124,27.2418,-0.0533407,13.6487,27.2429,27.2124,-0.054459,27.2821,213,8.54916,11.5065,0.1625,14573
1.83765e-08,-3.90741e-08,-1.62708e-06,-2.78772e-05,-2.72069e-05,-0.00368239,27.2503,27.2553,-0.0222181,13.6397,27.2562,27.2505,-0.0232575,27.2766,213,9.37799,11.9306,0.1625,14574
3.73462e-08,-5.05905e-08,-1.62699e-06,-2.94219e-05,-2.88054e-05,-0.00368078,27.2266,27.2312,-0.0223549,13.6294,27.2344,27.2254,-0.0243858,27.2543,213,8.7033,12.3379,0.1625,14575
3.18322e-07,9.90471e-08,-1.61886e-06,-0.000109579,-3.94169e-05,-0.00363596,26.2641,26.7877,-0.0521745,13.4743,26.8413,26.2655,-0.107214,26.6653,213,3.7474,6.81256,0.1625,14576
2.48147e-08,-2.65541e-07,-1.62228e-06,-2.48379e-05,-9.27577e-05,-0.0036259,27.2252,26.7184,0.351621,13.4778,27.2663,26.7181,0.310748,26.6857,213,9.01584,16.3924,0.1625,14577
4.219e-08,-2.94832e-07,-1.62854e-06,-2.78636e-05,-0.000100123,-0.00370585,26.4863,25.9471,-0.961381,13.7842,26.5468,25.9469,-1.02161,27.2734,213,8.32195,16.727,0.1625,14578
5.49725e-08,-2.28403e-07,-1.62173e-06,-3.05252e-05,-7.92152e-05,-0.00363997,27.1335,26.7702,0.1974,13.4962,27.1615,26.7703,0.169221,26.7989,213,7.95405,15.9865,0.1625,14579
-4.34115e-08,-1.11409e-08,-1.62681e-06,-3.02887e-05,-2.37286e-05,-0.00368324,27.2341,27.283,-0.0267165,13.6559,27.284,27.2342,-0.0277848,27.2869,213,11.5743,10.8414,0.1625,14580
-9.26864e-08,-5.80449e-08,-1.62666e-06,-3.97752e-05,-3.01142e-05,-0.00367528,27.1005,27.1726,-0.0301163,13.6076,27.1789,27.1004,-0.0363612,27.1761,213,13.0083,12.6146,0.1625,14581
-2.83073e-08,1.16669e-07,-1.62683e-06,-2.80649e-05,-4.53609e-05,-0.00367523,27.1603,27.0312,-0.0573565,13.616,27.1675,27.0313,-0.0646087,27.1642,213,11.1078,6.62144,0.1625,14582
-5.65301e-08,1.4121e-07,-1.62642e-06,-3.14694e-05,-5.35805e-05,-0.00367029,27.0819,26.9169,-0.0734752,13.5886,27.0926,26.9174,-0.084661,27.0901,213,12.0711,6.10116,0.1625,14583
7.39996e-08,-3.32249e-07,-1.64086e-06,-3.21128e-05,-0.00011135,-0.00361308,27.0675,26.4762,0.343828,13.4408,27.1468,26.4754,0.265301,26.5522,213,7.23113,17.1142,0.1625,14584
7.6408e-08,-2.53672e-07,-1.62639e-06,-3.38323e-05,-8.68395e-05,-0.00368179,26.6906,26.295,-0.532923,13.6484,26.7272,26.2951,-0.56961,27.0833,213,7.26015,16.3211,0.1625,14585
-5.0661e-07,-8.56989e-08,-1.63706e-06,-0.000165968,-3.63773e-05,-0.00362862,25.4785,26.4456,-0.362147,13.5664,26.6067,25.4813,-0.526064,26.5879,213,17.7205,13.5333,0.1625,14586
7.04217e-08,-4.3245e-07,-1.65464e-06,-3.03359e-05,-0.0001404,-0.00364066,26.6459,25.8245,-0.296846,13.7201,26.8977,25.8184,-0.542495,26.9168,213,7.20211,17.9073,0.1625,14587
-2.90091e-07,-1.04755e-07,-1.62112e-06,-9.87533e-05,-3.96081e-05,-0.00364021,26.3955,26.8369,-0.0332499,13.4773,26.8777,26.3983,-0.0768527,26.7181,213,16.0973,14.0529,0.1625,14588
6.15252e-07,-1.61752e-07,-1.66108e-06,-0.000203931,-5.71645e-05,-0.00354888,25.3616,26.4569,0.399247,13.3976,26.8228,25.3673,0.0276248,26.0979,213,1.71119,15.1689,0.1625,14589
4.66884e-07,-2.10361e-07,-1.64365e-06,-0.0001617,-6.93308e-05,-0.00360344,25.4825,26.1718,-0.202133,13.3685,26.3509,25.4875,-0.386208,26.316,213,2.44755,15.9801,0.1625,14590
2.88445e-08,6.74222e-08,-1.62688e-06,-2.80401e-05,-3.33962e-05,-0.00367996,27.218,27.178,-0.0351074,13.6293,27.2208,27.178,-0.0378917,27.2373,213,9.00509,7.88913,0.1625,14591
5.38529e-08,6.33438e-08,-1.627e-06,-3.25779e-05,-3.22888e-05,-0.00367926,27.1625,27.1646,-0.0515568,13.6132,27.1714,27.1591,-0.0550224,27.2203,213,8.1809,8.00248,0.1625,14592
2.30378e-08,2.12891e-07,-1.62158e-06,-2.70116e-05,-7.44458e-05,-0.00366446,27.0312,26.6772,-0.113954,13.5957,27.0543,26.6772,-0.137045,27.0048,213,9.1559,4.98817,0.1625,14593
-5.9731e-09,4.38681e-07,-1.62789e-06,-2.45259e-05,-0.000144611,-0.0036257,26.8205,25.9243,-0.0539683,13.5526,26.9358,25.9245,-0.169426,26.614,213,10.293,2.86824,0.1625,14594
-3.20186e-08,4.79585e-07,-1.63791e-06,-2.54275e-05,-0.000157778,-0.00364085,26.5821,25.5944,-0.398663,13.6472,26.7389,25.5945,-0.555534,26.7406,213,11.3391,2.58419,0.1625,14595
-1.48685e-07,-2.53725e-08,-1.62363e-06,-5.69866e-05,-2.44231e-05,-0.00366765,26.9412,27.1843,-0.00398218,13.6049,27.195,26.9413,-0.014807,27.0839,213,14.1313,11.4396,0.1625,14596
-9.72135e-08,-3.4905e-08,-1.62628e-06,-4.10305e-05,-2.67982e-05,-0.00367477,27.1115,27.2177,-0.00591687,13.6176,27.2235,27.1116,-0.0117712,27.1795,213,13.0904,11.8067,0.1625,14597
-1.01495e-07,-1.45549e-08,-1.62555e-06,-4.27199e-05,-2.3553e-05,-0.00367543,27.106,27.2491,-0.00372065,13.6314,27.2541,27.106,-0.00868754,27.189,213,13.1726,10.9987,0.1625,14598
-1.51226e-07,-1.70327e-07,-1.62086e-06,-5.79709e-05,-6.02139e-05,-0.00364456,26.8254,26.8087,0.0598463,13.4219,26.8783,26.7811,0.0345568,26.7953,213,14.3853,15.2688,0.1625,14599
3.13756e-07,4.37266e-07,-1.62512e-06,-0.000102629,-0.000144768,-0.00359739,25.8416,25.5271,-0.238691,13.1927,25.9985,25.5186,-0.387034,26.1489,213,3.49331,2.60275,0.1625,14600
2.24601e-07,5.61674e-07,-1.66798e-06,-7.72558e-05,-0.000186979,-0.00359259,25.9355,25.1166,-0.298402,13.5401,26.3581,25.1175,-0.721974,26.4816,213,4.4331,1.92671,0.1625,14601
3.13355e-07,-2.86172e-07,-1.62569e-06,-0.000105397,-9.85713e-05,-0.00362624,25.9365,25.9875,-0.338375,13.3043,26.168,25.8582,-0.440524,26.455,213,3.49331,16.8972,0.1625,14602
2.13831e-07,-3.68143e-07,-1.64609e-06,-7.84642e-05,-0.000113561,-0.00361373,26.3314,26.0695,-0.0511567,13.3798,26.5356,26.0382,-0.224045,26.5144,213,4.4331,17.5733,0.1625,14603
-8.4277e-11,-2.82727e-08,-1.62699e-06,-2.71377e-05,-2.51625e-05,-0.0036843,27.2628,27.2775,-0.0294542,13.6537,27.2776,27.2631,-0.0298109,27.3001,213,10.0527,11.5232,0.1625,14604
-8.5086e-07,1.2102e-07,-1.57768e-06,-0.000252976,-4.40927e-05,-0.00367408,23.7177,25.2765,-1.81294,14.2881,26.0173,23.7228,-2.55884,27.5008,213,19.3773,6.40311,0.1625,14605
7.57258e-08,-1.32226e-07,-1.62476e-06,-3.64901e-05,-5.04784e-05,-0.00366186,27.096,26.9916,0.0410523,13.5383,27.1071,26.9911,0.0304199,27.0189,213,7.44299,14.5048,0.1625,14606
6.37865e-08,-1.79763e-07,-1.62194e-06,-3.36311e-05,-6.44545e-05,-0.0036566,27.0709,26.8409,0.0338533,13.5358,27.0883,26.8407,0.0166545,26.9487,213,7.72536,15.3245,0.1625,14607
9.93461e-08,-1.57548e-07,-1.62401e-06,-4.13945e-05,-5.68075e-05,-0.00365562,27.0198,26.9048,0.047909,13.5025,27.0377,26.9022,0.0326189,26.9376,213,6.80278,14.9971,0.1625,14608
-4.84077e-07,1.37775e-07,-1.64257e-06,-0.000162832,-5.16409e-05,-0.00358964,25.7148,26.5446,0.141642,13.401,26.7428,25.7174,-0.0592264,26.3044,213,17.6549,5.90086,0.1625,14609
-3.48644e-08,6.20305e-07,-1.66919e-06,-2.59776e-05,-0.000197798,-0.00363785,26.2801,24.9979,-0.67415,13.9221,26.725,24.998,-1.11917,27.0221,213,11.4465,1.79471,0.1625,14610
-1.0623e-07,2.42528e-08,-1.62479e-06,-4.55286e-05,-2.45257e-05,-0.00367402,27.0663,27.223,-0.012041,13.6231,27.2285,27.0664,-0.0176673,27.1655,213,13.278,9.37229,0.1625,14611
-2.60091e-08,1.86616e-09,-1.62679e-06,-2.87589e-05,-2.44661e-05,-0.00368438,27.2427,27.2747,-0.0380339,13.6567,27.275,27.2427,-0.0383604,27.2972,213,10.9822,10.3103,0.1625,14612
7.95399e-09,3.63819e-07,-1.61018e-06,-2.48179e-05,-0.000123714,-0.00363248,26.9279,26.1899,0.00508755,13.5284,26.9949,26.19,-0.0619582,26.6635,213,9.72559,3.42391,0.1625,14613
-4.86867e-08,-2.48725e-07,-1.62534e-06,-2.9448e-05,-8.37479e-05,-0.00366544,26.9122,26.507,-0.222056,13.5969,26.9419,26.5071,-0.251923,26.9791,213,11.9667,16.236,0.1625,14614
2.41646e-07,-4.92492e-07,-1.64331e-06,-8.52887e-05,-0.000157131,-0.00372934,24.9642,24.428,-2.23026,14.2348,25.6207,24.3901,-2.84889,27.8747,213,3.82476,18.5569,0.1625,14615
2.77071e-07,7.56057e-07,-1.61303e-06,-9.0013e-05,-0.0002274,-0.00361661,25.2282,24.2029,-1.08966,13.8098,25.8742,24.2126,-1.74537,26.8274,213,3.82476,0.943071,0.1625,14616
5.48391e-08,-1.10004e-07,-1.62529e-06,-3.08084e-05,-4.31082e-05,-0.00367036,27.1745,27.0827,0.0136969,13.5884,27.1827,27.0823,0.00586776,27.1268,213,8.08321,14.0125,0.1625,14617
-2.40324e-07,-1.32907e-07,-1.62035e-06,-8.5648e-05,-4.96704e-05,-0.00363507,26.5582,26.8267,0.0699196,13.4132,26.861,26.5592,0.034596,26.6768,213,15.5969,14.6565,0.1625,14618
4.56348e-07,3.14655e-07,-1.63495e-06,-0.000158119,-0.000103165,-0.00361446,25.182,25.5921,-0.611646,13.2745,25.7681,25.1754,-0.781,26.2577,213,2.44755,3.51994,0.1625,14619
5.9958e-07,2.3885e-07,-1.66771e-06,-0.000195458,-7.90082e-05,-0.00348854,25.7972,26.6663,1.22201,13.167,27.1078,25.8039,0.773801,25.7069,213,1.72073,4.31731,0.1625,14620
6.28954e-07,3.04822e-07,-1.66536e-06,-0.000204898,-9.87222e-05,-0.0034551,25.7608,26.5532,1.50556,13.0331,27.0575,25.7708,0.991228,25.4473,213,1.50802,3.57052,0.1625,14621
-5.23652e-08,3.84306e-07,-1.62348e-06,-3.0667e-05,-0.000127102,-0.00363156,26.8184,26.0987,-0.053928,13.508,26.8897,26.0998,-0.126279,26.6298,213,12.0541,3.24095,0.1625,14622
2.39829e-07,5.64953e-08,-1.61842e-06,-8.51526e-05,-2.90235e-05,-0.00364722,26.6332,27.052,0.050545,13.5295,27.0805,26.6337,0.0215501,26.8383,213,4.61409,8.1054,0.1625,14623
-5.12513e-07,5.02491e-07,-1.67567e-06,-0.000171174,-0.000161919,-0.003571,24.8598,24.9289,-0.512054,13.4258,25.678,24.7724,-1.1737,26.4105,213,18.1358,2.06232,0.1625,14624
-6.91908e-07,5.85746e-07,-1.71282e-06,-0.000208636,-0.00018114,-0.00367764,23.2852,23.4904,-2.6029,13.8094,24.2293,23.3329,-3.3895,27.1817,213,19.0929,1.58616,0.16875,14625
-6.92335e-07,-4.17546e-07,-1.6872e-06,-0.000218665,-0.000128624,-0.0037418,23.0386,23.7105,-3.25345,13.8275,24.0488,23.0532,-3.60632,27.171,213,19.0929,17.9138,0.16875,14626
-5.15523e-07,-3.412e-07,-1.67597e-06,-0.000180536,-0.000106787,-0.00352604,25.5093,26.0597,0.542907,13.1985,26.4863,25.5363,0.0893203,25.935,213,18.1358,17.4377,0.1625,14627
1.07968e-07,-3.91213e-07,-1.65226e-06,-4.32549e-05,-0.000123292,-0.00359797,26.9211,26.3238,0.393413,13.4239,27.0841,26.3179,0.236287,26.473,213,6.2344,17.645,0.1625,14628
-1.59324e-07,2.06291e-07,-1.62412e-06,-5.69886e-05,-7.35242e-05,-0.00364193,26.7558,26.6324,0.00244584,13.4116,26.7913,26.6312,-0.0319036,26.7435,213,14.504,4.94906,0.1625,14629
-1.04918e-07,1.76918e-07,-1.62512e-06,-4.42966e-05,-6.26841e-05,-0.00365944,26.8982,26.761,-0.0804622,13.5107,26.9194,26.7613,-0.102021,26.9427,213,13.4034,5.44269,0.1625,14630
-7.97309e-07,2.95874e-07,-1.57276e-06,-0.000241772,-9.32698e-05,-0.00371809,23.1512,24.2594,-2.79148,14.159,24.8809,23.1753,-3.43703,27.5048,213,19.3337,3.74412,0.1625,14631
8.14576e-07,-2.08202e-07,-1.57987e-06,-0.000242538,-6.83602e-05,-0.00371739,23.3425,24.6423,-2.58919,14.3248,25.3447,23.3556,-3.30477,27.7086,213,0.779009,15.7197,0.1625,14632
2.81629e-08,-9.65144e-08,-1.6257e-06,-2.83276e-05,-3.97917e-05,-0.00367509,27.2014,27.1159,-0.0132409,13.6125,27.2066,27.1159,-0.01842,27.1798,213,9.00312,13.6725,0.1625,14633
1.69013e-08,2.82586e-07,-1.61301e-06,-2.61625e-05,-9.46093e-05,-0.00362564,27.1923,26.6815,0.33052,13.4581,27.2193,26.6818,0.303203,26.6514,213,9.37766,4.16755,0.1625,14634
3.61059e-08,3.1458e-07,-1.61306e-06,-2.63268e-05,-0.00010588,-0.00364721,26.9293,26.3356,-0.0922703,13.5648,26.983,26.3363,-0.146656,26.8122,213,8.65836,3.8501,0.1625,14635
2.63563e-08,4.04711e-07,-1.61262e-06,-2.52438e-05,-0.000135798,-0.00363768,26.7843,25.9593,-0.174221,13.5984,26.9033,25.9597,-0.293584,26.7376,213,9.00629,3.10645,0.1625,14636
-8.18263e-07,-2.11147e-07,-1.57886e-06,-0.000246281,-6.8823e-05,-0.00370501,23.3794,24.7037,-2.43202,14.2183,25.3467,23.3942,-3.08984,27.5123,213,19.3337,15.7559,0.1625,14637
4.62989e-08,-7.72589e-08,-1.6265e-06,-3.03299e-05,-3.56799e-05,-0.00367762,27.1832,27.1433,-0.0353806,13.6134,27.1875,27.143,-0.0394067,27.2047,213,8.39325,13.1752,0.1625,14638
1.98607e-08,-6.62389e-08,-1.62672e-06,-2.77151e-05,-3.29292e-05,-0.00368013,27.2253,27.1864,-0.0315194,13.6307,27.2276,27.1864,-0.0338386,27.2409,213,9.31317,12.8352,0.1625,14639
8.12393e-09,5.16416e-08,-1.62682e-06,-2.77187e-05,-2.92404e-05,-0.0036821,27.239,27.2276,-0.0325103,13.6371,27.2404,27.2275,-0.0338094,27.2678,213,9.75127,8.40363,0.1625,14640
-2.76847e-07,7.54263e-07,-1.6167e-06,-8.95977e-05,-0.00023257,-0.00362184,25.1521,24.0851,-1.20792,13.7916,25.7575,24.0976,-1.82574,26.7918,213,16.2727,0.95391,0.1625,14641
-9.98606e-08,-1.11078e-07,-1.626e-06,-4.35971e-05,-4.33053e-05,-0.00366821,26.9931,26.9953,-0.0562226,13.5447,27.021,26.9795,-0.0683527,27.0686,213,13.2504,14.0742,0.1625,14642
-7.42926e-08,-8.80593e-08,-1.62662e-06,-3.55197e-05,-3.83245e-05,-0.0036759,27.096,27.0751,-0.0710213,13.5921,27.1069,27.0705,-0.0773604,27.1661,213,12.5684,13.4862,0.1625,14643
2.76977e-07,7.62347e-08,-1.61871e-06,-9.55917e-05,-3.43325e-05,-0.00364131,26.4773,26.9344,0.0166724,13.4964,26.9715,26.4782,-0.0212666,26.7495,213,4.17551,7.45715,0.1625,14644
-1.35072e-07,-1.30944e-07,-1.62501e-06,-5.16371e-05,-5.00173e-05,-0.00366355,26.8531,26.8652,-0.101494,13.5119,26.9039,26.8329,-0.119974,26.9884,213,14.0231,14.5341,0.1625,14645
-4.45853e-08,8.00293e-07,-1.62601e-06,-2.84613e-05,-0.000242551,-0.00365048,25.7869,24.1892,-1.2431,14.1317,26.403,24.1903,-1.86035,27.2245,213,11.7482,0.972354,0.1625,14646
-3.05151e-08,7.92359e-07,-1.60304e-06,-2.68062e-05,-0.00024071,-0.00361329,26.1218,24.5255,-0.642946,14.0471,26.786,24.5267,-1.30827,27.0355,213,11.2482,0.972354,0.15625,14647
-3.58686e-08,-5.29905e-07,-1.64565e-06,-2.27535e-05,-0.000169971,-0.00379503,25.3041,24.2054,-2.8472,14.5895,25.8178,24.2057,-3.36116,28.4072,213,11.7401,18.5268,0.1625,14648
4.16999e-07,-2.67145e-07,-1.63925e-06,-0.000144915,-8.95123e-05,-0.00357878,25.7764,26.1899,0.150613,13.1859,26.3526,25.7834,-0.019149,26.0918,213,2.70213,16.7115,0.1625,14649
8.50331e-09,-2.39869e-07,-1.62107e-06,-2.36947e-05,-8.56478e-05,-0.00363982,27.1888,26.7265,0.202835,13.5225,27.2183,26.7265,0.173329,26.8025,213,9.69033,16.0954,0.1625,14650
-8.33411e-07,-2.70489e-08,-1.59658e-06,-0.00025537,-2.53865e-05,-0.0036128,24.315,26.0313,-0.740416,13.9925,26.6365,24.3181,-1.34863,26.9009,213,19.2501,11.3974,0.1625,14651
4.28028e-08,2.36776e-07,-1.61928e-06,-2.80644e-05,-8.2714e-05,-0.00364295,27.12,26.7122,0.143245,13.5147,27.1461,26.7126,0.116732,26.8153,213,8.43659,4.67072,0.1625,14652
-1.23613e-08,9.48059e-08,-1.62674e-06,-2.64473e-05,-4.03622e-05,-0.00367841,27.1996,27.0958,-0.0538111,13.6314,27.2043,27.0958,-0.0585522,27.2088,213,10.5178,7.13796,0.1625,14653
8.51513e-07,-6.25558e-08,-1.56883e-06,-0.000253554,-3.21277e-05,-0.00356787,24.6457,26.2982,-0.0879777,13.8236,26.9281,24.6468,-0.718987,26.58,213,0.72691,12.6493,0.15625,14654
8.69219e-07,-6.33137e-08,-1.61265e-06,-0.000257283,-3.21281e-05,-0.00356121,24.6412,26.3214,-0.0149978,13.9167,27.0692,24.6426,-0.76422,26.703,213,0.72691,12.6493,0.16875,14655
-3.16422e-07,4.4103e-07,-1.62314e-06,-0.00010392,-0.000145905,-0.00360085,25.7852,25.4719,-0.311267,13.2033,25.9458,25.4608,-0.460836,26.1675,213,16.6376,2.57528,0.1625,14656
2.04447e-07,-1.00048e-07,-1.62371e-06,-7.45483e-05,-3.94964e-05,-0.00365422,26.6579,26.9195,-0.0560332,13.5127,26.9436,26.6594,-0.0816941,26.8844,213,5.00665,13.8969,0.1625,14657
9.35686e-08,-9.96542e-08,-1.62625e-06,-4.20443e-05,-4.02084e-05,-0.00366784,27.0445,27.0582,-0.0136954,13.5495,27.0755,27.0369,-0.0234295,27.0797,213,7.02243,13.8039,0.1625,14658
-5.81523e-08,6.50588e-07,-1.66489e-06,-3.09835e-05,-0.00020657,-0.00361904,26.2826,24.9722,-0.493974,13.8983,26.7926,24.9722,-1.00398,26.9326,213,12.2536,1.63211,0.1625,14659
2.09136e-07,-2.4817e-09,-1.62003e-06,-7.48188e-05,-2.33915e-05,-0.00365039,26.8118,27.1956,0.128414,13.554,27.216,26.8118,0.107976,26.9082,213,5.04289,10.4714,0.1625,14660
2.19564e-07,1.69752e-08,-1.61802e-06,-7.84905e-05,-2.2983e-05,-0.00365754,26.7018,27.1161,-0.0074608,13.5873,27.1417,26.7018,-0.0330104,26.9574,213,4.90165,9.62857,0.1625,14661
1.62655e-07,1.83646e-08,-1.62272e-06,-5.9263e-05,-2.35124e-05,-0.00366041,26.9708,27.2376,0.0966301,13.5826,27.2497,26.9708,0.0844465,27.0269,213,5.72964,9.58439,0.1625,14662
-3.10446e-08,8.09626e-07,-1.6474e-06,-2.73318e-05,-0.000247748,-0.00359043,26.2392,24.5943,-0.351123,14.0522,26.9956,24.5955,-1.10872,26.9844,213,11.2482,0.972354,0.16875,14663
2.31306e-07,3.564e-08,-1.61759e-06,-8.13839e-05,-2.60751e-05,-0.00364852,26.7043,27.117,0.0838311,13.5435,27.1439,26.7044,0.0568271,26.87,213,4.73939,8.86219,0.1625,14664
1.6753e-09,-5.33195e-08,-1.627e-06,-2.64885e-05,-3.06559e-05,-0.00368226,27.2454,27.2143,-0.0364978,13.6424,27.2468,27.2143,-0.0379139,27.2685,213,9.98786,12.4278,0.1625,14665
-2.10046e-07,-3.55256e-07,-1.64166e-06,-7.75572e-05,-0.000113058,-0.00361046,26.3752,26.1103,0.0102776,13.3805,26.5873,26.0823,-0.173804,26.5122,213,15.5982,17.47,0.1625,14666
1.49518e-07,8.34098e-10,-1.62396e-06,-5.56625e-05,-2.35199e-05,-0.00366829,26.9637,27.2035,0.0037284,13.6111,27.2148,26.9637,-0.00752497,27.0976,213,5.95886,10.3335,0.1625,14667
1.22948e-07,2.54391e-08,-1.62552e-06,-4.95421e-05,-2.46039e-05,-0.00366999,27.0358,27.2219,0.0175919,13.6102,27.2299,27.0359,0.00955757,27.1238,213,6.45634,9.31556,0.1625,14668
6.73923e-08,-5.2519e-07,-1.61969e-06,-2.98236e-05,-0.000146151,-0.00363191,26.6775,25.8094,-0.203762,14.5913,27.8292,25.8072,-1.35333,28.2259,213,7.12606,18.6287,0.15625,14669
-7.00823e-08,-5.54896e-07,-1.66422e-06,-3.06764e-05,-0.000164132,-0.00362012,26.6153,25.6194,-0.171591,14.7589,27.9818,25.6171,-1.53588,28.4093,213,13.0231,18.6738,0.16875,14670
-6.88621e-08,-5.31395e-07,-1.61964e-06,-3.03387e-05,-0.000147753,-0.00367146,26.3433,25.4671,-0.82924,14.6916,27.4503,25.4638,-1.93295,28.4421,213,13.0231,18.6738,0.15625,14671
-5.49919e-08,-5.48301e-07,-1.63933e-06,-2.74065e-05,-0.000170065,-0.00381543,25.0699,24.0053,-3.19888,14.9731,25.9101,24.0023,-4.03615,29.0394,213,12.5231,18.6738,0.1625,14672
-8.76606e-07,-4.85675e-08,-1.57903e-06,-0.000261072,-2.72158e-05,-0.00362963,24.0793,25.8245,-1.05915,14.247,26.6286,24.0814,-1.86536,27.3096,213,19.4232,12.1715,0.1625,14673
-8.63146e-07,-6.23386e-08,-1.55553e-06,-0.000256033,-3.19482e-05,-0.00359352,24.4057,26.0779,-0.500947,13.9157,26.7037,24.4067,-1.1277,26.7569,213,19.4232,12.6515,0.15625,14674
-8.80886e-07,-6.31091e-08,-1.59962e-06,-0.000260935,-3.26576e-05,-0.00358373,24.4022,26.1058,-0.394793,14.0513,26.9062,24.4034,-1.1964,26.9385,213,19.4232,12.6515,0.16875,14675
-3.89189e-07,5.39583e-07,-1.6539e-06,-0.000132052,-0.000173785,-0.00358586,25.25,24.9386,-0.524643,13.3526,25.728,24.9131,-0.977157,26.3072,213,17.3156,1.91007,0.1625,14676
-1.82901e-08,-4.15188e-08,-1.627e-06,-2.8044e-05,-2.78438e-05,-0.0036833,27.2354,27.2369,-0.0426181,13.6412,27.2388,27.2344,-0.0435836,27.2802,213,10.7155,12.024,0.1625,14677
-1.00184e-07,4.55733e-08,-1.62575e-06,-4.34926e-05,-2.75296e-05,-0.00367289,27.0828,27.2019,-0.00227579,13.6079,27.2075,27.0832,-0.00833838,27.1539,213,13.1584,8.56316,0.1625,14678
-5.6966e-07,3.96011e-07,-1.6658e-06,-0.000190982,-0.00012816,-0.00362774,24.3727,24.8415,-1.27477,13.5918,25.3809,24.3612,-1.80262,26.6883,213,18.3766,2.78028,0.1625,14679
-5.81825e-07,-2.72274e-07,-1.66311e-06,-0.00019726,-8.68398e-05,-0.00368387,24.1586,24.9827,-1.86087,13.8039,25.3626,24.1632,-2.2453,27.0281,213,18.3766,16.7197,0.1625,14680
1.30457e-07,-1.68053e-07,-1.62229e-06,-5.12881e-05,-5.94894e-05,-0.00365444,26.8556,26.7944,-0.0335278,13.4712,26.8879,26.7829,-0.0543617,26.8899,213,6.10842,15.2073,0.1625,14681
1.92035e-07,-2.00401e-08,-1.62263e-06,-7.03898e-05,-2.31193e-05,-0.00365702,26.8296,27.1823,0.0636719,13.5777,27.2006,26.8298,0.045211,26.9719,213,5.2721,11.2205,0.1625,14682
4.44218e-08,4.49915e-07,-1.63434e-06,-2.86378e-05,-0.000146614,-0.00363884,26.6371,25.7567,-0.304707,13.5912,26.7568,25.758,-0.4257,26.6971,213,8.30714,2.77076,0.1625,14683
-5.50087e-08,4.98878e-07,-1.63818e-06,-3.06719e-05,-0.000162226,-0.00363891,26.4815,25.4998,-0.445622,13.6238,26.6417,25.5,-0.605971,26.6951,213,12.1614,2.45146,0.1625,14684
6.86617e-08,-5.48259e-07,-1.66413e-06,-3.02526e-05,-0.000162401,-0.00361976,26.6384,25.6522,-0.149049,14.7015,27.947,25.6506,-1.45605,28.3248,213,7.12606,18.6287,0.16875,14685
-4.96029e-08,-3.27781e-07,-1.63746e-06,-2.8405e-05,-0.000111675,-0.00363273,26.9662,26.3448,0.0682068,13.5207,27.038,26.3446,-0.0034255,26.7015,213,12.09,17.0449,0.1625,14686
-7.27645e-08,-2.60153e-07,-1.62519e-06,-3.34327e-05,-8.896e-05,-0.00366202,26.8367,26.4223,-0.242307,13.5772,26.8742,26.4226,-0.28015,26.9314,213,12.7497,16.3862,0.1625,14687
1.72037e-07,3.75822e-08,-1.62268e-06,-6.16732e-05,-2.67408e-05,-0.00365911,26.9184,27.1791,0.071924,13.568,27.1933,26.9188,0.0572923,26.9998,213,5.56739,8.81801,0.1625,14688
1.2952e-07,2.61825e-07,-1.62072e-06,-5.05351e-05,-8.87616e-05,-0.00363042,26.8256,26.5403,0.109999,13.3955,26.8623,26.5424,0.0712073,26.6326,213,6.10229,4.29306,0.1625,14689
7.54584e-07,-4.9193e-07,-1.55339e-06,-0.000237694,-0.000124319,-0.0038806,21.6792,22.5253,-5.50663,14.4786,22.9209,21.8133,-6.03629,28.4196,213,0.545897,18.3853,0.15625,14690
7.69442e-07,-5.02918e-07,-1.5997e-06,-0.000240599,-0.000135124,-0.00378669,22.2934,23.0806,-4.16993,14.4337,23.8189,22.4337,-5.04857,28.2004,213,0.545897,18.3853,0.16875,14691
7.82753e-07,6.81531e-07,-1.61451e-06,-0.000225445,-0.000197981,-0.00363839,23.2042,23.4091,-2.26562,14.1107,24.6261,23.3167,-3.5952,27.5899,213,0.545897,1.1147,0.16875,14692
7.67129e-07,6.65599e-07,-1.5698e-06,-0.00022316,-0.00019045,-0.00370682,22.7565,23.0006,-3.24091,14.186,23.9902,22.9078,-4.38179,27.8466,213,0.545897,1.1147,0.15625,14693
-2.15091e-07,1.66242e-07,-1.62197e-06,-7.77483e-05,-5.82648e-05,-0.00364622,26.5233,26.6687,-0.107092,13.4232,26.7032,26.5249,-0.143195,26.7577,213,15.298,5.50958,0.1625,14694
-2.48107e-07,7.75349e-08,-1.6203e-06,-8.48571e-05,-3.47476e-05,-0.0036423,26.6314,27.0054,0.083362,13.4897,27.0336,26.6322,0.0542817,26.7809,213,15.6184,7.44347,0.1625,14695
8.46481e-07,1.00379e-07,-1.55905e-06,-0.000251228,-3.98996e-05,-0.00356399,24.6507,26.2278,-0.0714206,13.7936,26.8712,24.652,-0.716071,26.5473,213,0.717496,6.87805,0.15625,14696
8.63964e-07,1.01408e-07,-1.60299e-06,-0.000257689,-3.94896e-05,-0.00356847,24.519,26.1474,-0.188261,13.9687,26.9475,24.5205,-0.989887,26.8064,213,0.717496,6.87805,0.16875,14697
-8.44501e-07,1.00207e-07,-1.55696e-06,-0.000250856,-4.01185e-05,-0.00357614,24.5584,26.131,-0.257184,13.8388,26.7751,24.5596,-0.902514,26.6391,213,19.3773,6.88311,0.15625,14698
-1.45197e-07,3.37873e-08,-1.62195e-06,-5.40764e-05,-2.63466e-05,-0.00366464,26.9947,27.2016,0.0501878,13.5864,27.2123,26.9948,0.0394257,27.0648,213,14.0722,8.98151,0.1625,14699
3.11197e-07,-5.92576e-08,-1.62232e-06,-0.000107581,-2.9369e-05,-0.00363637,26.3713,26.9549,0.0369925,13.5068,27.0023,26.3722,-0.011318,26.7041,213,3.85599,12.7447,0.1625,14700
-1.52714e-07,1.36289e-08,-1.62085e-06,-5.64858e-05,-2.31433e-05,-0.00366222,27.0022,27.251,0.0937294,13.5906,27.263,27.0022,0.081725,27.0518,213,14.1917,9.79064,0.1625,14701
2.58385e-07,-8.24753e-08,-1.62247e-06,-8.93751e-05,-3.54627e-05,-0.00365074,26.4892,26.8916,-0.0881324,13.5259,26.9267,26.491,-0.125041,26.8365,213,4.36839,13.4512,0.1625,14702
2.33116e-07,-5.86489e-08,-1.62318e-06,-8.11189e-05,-2.94935e-05,-0.00365499,26.63,27.0153,-0.0406534,13.5578,27.0448,26.6308,-0.0708933,26.9111,213,4.68514,12.7039,0.1625,14703
-8.61836e-07,1.01211e-07,-1.60105e-06,-0.000257266,-3.97539e-05,-0.00357362,24.4826,26.1058,-0.266262,13.9873,26.9063,24.4842,-1.06834,26.8457,213,19.3773,6.88311,0.16875,14704
-1.7649e-07,-1.28717e-07,-1.62386e-06,-6.42303e-05,-4.87721e-05,-0.00364745,26.7968,26.9122,0.056328,13.4513,26.9367,26.7944,0.0341846,26.8317,213,14.7344,14.5254,0.1625,14705
-3.09599e-07,1.00787e-07,-1.62146e-06,-0.000106903,-3.9852e-05,-0.0036387,26.2801,26.7805,-0.0765844,13.4806,26.832,26.2812,-0.129188,26.6901,213,16.2851,6.77763,0.1625,14706
-4.18184e-07,4.10742e-07,-1.62343e-06,-0.000140005,-0.000137962,-0.00356674,25.5633,25.5785,-0.00941955,13.0633,25.8853,25.4884,-0.241356,25.9305,213,17.4577,2.72753,0.1625,14707
-4.24045e-07,-2.72348e-07,-1.6397e-06,-0.000146106,-9.11323e-05,-0.0035709,25.8077,26.218,0.249565,13.1741,26.4039,25.8157,0.0557082,26.059,213,17.4577,16.7725,0.1625,14708
-1.14272e-07,-1.73387e-07,-1.62271e-06,-4.60585e-05,-6.19181e-05,-0.00364865,26.9627,26.8444,0.0776853,13.464,26.9866,26.8396,0.058617,26.8548,213,13.674,15.2776,0.1625,14709
6.75881e-08,8.19743e-07,-1.60964e-06,-3.23376e-05,-0.00024772,-0.00363502,25.8088,24.2015,-1.07684,14.1355,26.5006,24.2034,-1.77045,27.1953,213,7.6231,0.870879,0.1625,14710
8.40134e-08,8.0714e-07,-1.58866e-06,-3.65169e-05,-0.000244035,-0.00357123,26.2795,24.7308,-0.0989962,13.9246,27.0133,24.7338,-0.835812,26.7822,213,7.1231,0.870879,0.15625,14711
8.51703e-08,8.25431e-07,-1.63275e-06,-3.65746e-05,-0.000248784,-0.00355984,26.3312,24.7476,0.0381696,14.0083,27.1915,24.7506,-0.825104,26.8794,213,7.1231,0.870879,0.16875,14712
7.98666e-08,6.5466e-07,-1.66555e-06,-3.35229e-05,-0.000204179,-0.00366036,25.9348,24.6613,-1.13111,14.2159,26.6177,24.6613,-1.81399,27.5057,213,7.19619,1.59176,0.1625,14713
-3.82785e-07,-3.57387e-07,-1.65685e-06,-0.000137879,-0.00011161,-0.0035799,25.7006,25.8966,0.0138291,13.1946,26.1635,25.6732,-0.225658,26.1475,213,17.3156,17.5899,0.1625,14714
6.58177e-07,7.56966e-07,-1.58335e-06,-0.000194158,-0.000217692,-0.00366602,23.3104,23.1347,-2.59907,14.2431,24.5633,23.2056,-3.92295,27.8323,213,1.0459,0.634698,0.15625,14715
-5.87436e-07,6.76328e-07,-1.72055e-06,-0.000185426,-0.000203192,-0.00364675,23.7126,23.58,-2.11818,13.8355,24.6334,23.5787,-3.03767,27.1591,213,18.5929,1.10616,0.16875,14716
6.06661e-07,-5.18343e-07,-1.61114e-06,-0.000201161,-0.000121158,-0.0038318,22.6536,23.2506,-4.44074,15.5684,24.8973,22.8056,-6.23949,30.1454,213,1.0459,18.8653,0.15625,14717
-8.72324e-08,8.21826e-07,-1.57946e-06,-3.76967e-05,-0.000246978,-0.00357854,26.1801,24.6183,-0.244104,13.9447,26.9108,24.6221,-0.978602,26.8184,213,13.0553,0.809755,0.15625,14718
6.23757e-07,-5.41514e-07,-1.6568e-06,-0.000208368,-0.000142809,-0.00373645,23.127,23.6162,-3.20198,15.4648,25.5857,23.2995,-5.34395,29.8523,213,1.0459,18.8653,0.16875,14719
-5.50145e-07,-4.48535e-07,-1.66796e-06,-0.000187364,-0.00012167,-0.00370942,23.8322,24.3224,-2.45183,14.0906,25.0152,23.8537,-3.1661,27.6189,213,18.5929,18.3938,0.15625,14720
7.74635e-07,3.38878e-07,-1.55604e-06,-0.000233471,-0.000108728,-0.00359317,24.1469,25.0778,-0.92546,13.6007,25.6604,24.1798,-1.54098,26.4921,213,0.779009,3.30026,0.15625,14721
6.7464e-07,7.73847e-07,-1.62768e-06,-0.000200048,-0.000223045,-0.00360702,23.6451,23.4734,-1.78014,14.1748,25.0714,23.5452,-3.27825,27.6182,213,1.0459,0.634698,0.16875,14722
-2.91618e-07,-4.92948e-07,-1.6686e-06,-0.000101951,-0.00014554,-0.00360727,25.7675,25.4422,-0.391564,14.1166,26.8335,25.3843,-1.39967,27.5372,213,16.7727,18.5461,0.16875,14723
-5.62358e-07,-4.63169e-07,-1.71333e-06,-0.000194749,-0.000125716,-0.00373461,23.4867,24.0019,-2.93011,14.2572,24.763,23.5469,-3.75138,27.9262,213,18.5929,18.3938,0.16875,14724
-2.86519e-07,-4.72681e-07,-1.62438e-06,-0.000102493,-0.000132349,-0.00360242,25.9022,25.6794,-0.216623,14.0127,26.8896,25.6112,-1.13585,27.4086,213,16.7727,18.5461,0.15625,14725
-5.7542e-07,6.62853e-07,-1.67583e-06,-0.000179403,-0.000197939,-0.00363289,23.9568,23.8185,-1.81549,13.7402,24.8086,23.8232,-2.67193,27.0013,213,18.5929,1.10616,0.15625,14726
-8.84428e-08,8.40396e-07,-1.62345e-06,-3.73113e-05,-0.000252054,-0.00355555,26.328,24.7254,0.0724798,14.0004,27.1989,24.7288,-0.801888,26.8511,213,13.0553,0.809755,0.16875,14727
7.91145e-07,3.43136e-07,-1.59978e-06,-0.000239603,-0.000110599,-0.00355186,24.3653,25.328,-0.35306,13.5527,26.0262,24.3931,-1.07912,26.3268,213,0.779009,3.30026,0.16875,14728
7.7129e-07,3.97465e-07,-1.59192e-06,-0.00023112,-0.000125082,-0.00356819,24.2515,25.0429,-0.651945,13.6247,25.7951,24.3018,-1.45439,26.5343,213,0.779009,2.82026,0.1625,14729
-6.58507e-07,-4.7478e-07,-1.6591e-06,-0.00021253,-0.000112414,-0.00374557,23.2316,23.9787,-3.13437,14.4084,24.7697,23.3534,-4.04718,28.1355,213,19.0929,18.3938,0.1625,14730
-6.78746e-07,6.69571e-07,-1.66627e-06,-0.000202016,-0.000193483,-0.00359796,23.921,23.9847,-1.42182,13.7939,25.0785,23.9146,-2.5092,27.0245,213,19.0929,1.10616,0.1625,14731
-3.45191e-07,-4.80904e-07,-1.65238e-06,-0.000123995,-0.00014787,-0.00374918,24.2845,24.1063,-2.76914,14.1226,24.9184,24.03,-3.32676,27.8116,213,17.2727,18.5461,0.1625,14732
-2.83006e-07,-3.80169e-07,-1.64947e-06,-9.85204e-05,-0.000119799,-0.00360156,26.0697,25.9109,-0.0723873,13.3211,26.3509,25.8486,-0.291298,26.3946,213,16.4954,17.7422,0.1625,14733
-1.80437e-07,-4.63052e-07,-1.65487e-06,-6.51433e-05,-0.000154474,-0.0037528,25.1093,24.4427,-2.41053,14.0574,25.413,24.4302,-2.70171,27.6364,213,15.3755,18.2739,0.1625,14734
3.42048e-08,7.33877e-07,-1.65982e-06,-2.71791e-05,-0.000227459,-0.00365042,25.9267,24.4321,-1.11243,14.0239,26.4308,24.4326,-1.617,27.104,213,8.70211,1.2564,0.1625,14735
2.0877e-07,7.26504e-07,-1.64626e-06,-7.06678e-05,-0.000219734,-0.00365655,25.27,24.1576,-1.49031,13.9472,25.8329,24.1658,-2.06147,27.0993,213,4.65833,1.13364,0.1625,14736
7.22235e-07,-5.59037e-07,-1.56764e-06,-0.000224727,-0.000140045,-0.00393067,21.3571,21.989,-6.29924,15.5855,23.2781,21.6617,-7.89293,30.3951,213,0.545897,18.8653,0.1625,14737
7.70116e-07,7.70505e-07,-1.51941e-06,-0.000209926,-0.000204012,-0.00368811,23.001,23.0451,-2.9556,14.2091,24.2346,23.0394,-4.18355,27.8398,213,0.545897,0.634698,0.1625,14738
7.7685e-07,-1.58437e-07,-1.61958e-06,-0.000234581,-5.52821e-05,-0.00370943,23.6317,24.9698,-2.30002,14.2923,25.6259,23.6343,-2.95872,27.6427,213,0.982182,14.9592,0.1625,14739
-1.76163e-08,8.01239e-07,-1.62305e-06,-2.52778e-05,-0.000240907,-0.00363294,25.9879,24.3788,-0.934935,14.1163,26.6426,24.3793,-1.59011,27.1718,213,10.7482,0.972354,0.1625,14740
3.81101e-08,1.32288e-07,-1.62598e-06,-2.86307e-05,-5.11782e-05,-0.00366973,27.149,26.9808,-0.023314,13.5955,27.1582,26.9813,-0.0329324,27.1031,213,8.64985,6.29002,0.1625,14741
2.6107e-08,9.66095e-08,-1.62648e-06,-2.74604e-05,-3.96234e-05,-0.00367728,27.1988,27.1081,-0.0386119,13.6235,27.2036,27.1081,-0.0434782,27.1995,213,9.08488,7.0887,0.1625,14742
1.07475e-07,-3.25253e-08,-1.6268e-06,-4.48464e-05,-2.5862e-05,-0.00367728,27.0403,27.182,-0.0674095,13.6306,27.1879,27.0404,-0.0733987,27.1878,213,6.77401,11.7203,0.1625,14743
8.2707e-08,-5.03982e-08,-1.62704e-06,-3.76913e-05,-2.86001e-05,-0.00367497,27.147,27.2149,0.0031388,13.6112,27.22,27.1473,-0.00232349,27.1861,213,7.35995,12.358,0.1625,14744
5.7332e-07,7.71786e-07,-1.61736e-06,-0.000173153,-0.000223332,-0.0035409,24.581,24.2065,-0.551458,13.8832,25.8575,24.2875,-1.90898,27.0157,213,1.5459,0.634698,0.1625,14745
5.66976e-07,9.78125e-09,-1.66152e-06,-0.000178821,-2.31389e-05,-0.00365702,25.1604,26.3223,-0.796254,13.8929,26.6559,25.1605,-1.12994,27.0691,213,2.08761,9.89979,0.1625,14746
2.41579e-07,-1.94767e-07,-1.61161e-06,-8.78837e-05,-6.63089e-05,-0.00363432,26.3978,26.5588,-0.0681851,13.3629,26.6117,26.3908,-0.114067,26.616,213,4.40058,15.7241,0.1625,14747
-4.82835e-09,-6.51387e-09,-1.62685e-06,-2.71019e-05,-2.46655e-05,-0.00368473,27.2638,27.282,-0.0319411,13.657,27.282,27.2638,-0.0320153,27.305,213,10.2213,10.6512,0.1625,14748
1.16455e-07,3.29419e-07,-1.61819e-06,-4.66829e-05,-0.000112113,-0.00363048,26.6992,26.211,-0.0455041,13.4245,26.7502,26.2133,-0.0987865,26.5846,213,6.33038,3.6318,0.1625,14749
7.80014e-08,3.88697e-07,-1.62705e-06,-3.44195e-05,-0.000127571,-0.00364077,26.6838,25.9887,-0.229245,13.5395,26.7658,25.9906,-0.313147,26.6998,213,7.26006,3.17871,0.1625,14750
6.37985e-08,1.25651e-07,-1.62658e-06,-3.31349e-05,-4.92723e-05,-0.00367029,27.0903,26.9699,-0.05265,13.5812,27.0999,26.9702,-0.0624975,27.0978,213,7.82566,6.40337,0.1625,14751
3.87255e-07,5.38212e-07,-1.65622e-06,-0.000132189,-0.000171866,-0.00359249,25.2106,24.9145,-0.612583,13.3671,25.6784,24.8898,-1.05572,26.3487,213,2.80835,1.92186,0.1625,14752
-1.65371e-07,3.83784e-07,-1.61164e-06,-5.83637e-05,-0.000133089,-0.00361436,26.481,25.9233,-0.0563233,13.3588,26.5696,25.9264,-0.147998,26.4019,213,14.7333,3.13751,0.1625,14753
-1.14517e-07,3.31321e-07,-1.61721e-06,-4.55222e-05,-0.000112346,-0.00363035,26.7163,26.2176,-0.0361872,13.4289,26.7682,26.2191,-0.0895564,26.5874,213,13.7313,3.61931,0.1625,14754
-3.54722e-07,-7.83616e-08,-1.62461e-06,-0.000119984,-3.35848e-05,-0.00363872,26.1283,26.7731,-0.130891,13.511,26.8317,26.129,-0.190229,26.6775,213,16.6535,13.3415,0.1625,14755
-3.27176e-07,7.71436e-08,-1.62471e-06,-0.000109768,-3.41005e-05,-0.00365945,26.1171,26.6818,-0.373093,13.5843,26.7381,26.1183,-0.430566,26.8641,213,16.4241,7.41628,0.1625,14756
8.59429e-07,-7.93011e-08,-1.58935e-06,-0.000252905,-3.61199e-05,-0.00364788,23.9897,25.6075,-1.34587,14.2985,26.4287,23.9909,-2.16829,27.4594,213,0.72691,13.1293,0.1625,14757
-3.19119e-07,-1.53553e-07,-1.61654e-06,-0.000107301,-5.59305e-05,-0.00362774,26.2334,26.6168,-0.0385096,13.3836,26.6715,26.2358,-0.0956805,26.552,213,16.4385,15.0801,0.1625,14758
1.1292e-07,-2.98988e-07,-1.63229e-06,-4.61403e-05,-0.000102717,-0.00365199,26.6115,26.1893,-0.297766,13.53,26.6894,26.1842,-0.370549,26.8109,213,6.26341,16.8519,0.1625,14759
-1.07562e-07,8.27436e-07,-1.60374e-06,-4.168e-05,-0.000243755,-0.00360627,25.9244,24.4164,-0.676977,14.1275,26.7504,24.4179,-1.50454,27.1639,213,13.5553,0.809755,0.1625,14760
-8.49277e-08,-5.36555e-07,-1.64356e-06,-3.3004e-05,-0.000136745,-0.00377815,25.5436,24.7694,-2.40522,14.9834,26.5578,24.7588,-3.40887,29.1089,213,13.5231,18.6738,0.1625,14761
4.5459e-08,5.84005e-07,-1.66937e-06,-2.85025e-05,-0.000189065,-0.00362393,26.4208,25.2226,-0.410785,13.7266,26.7314,25.223,-0.721772,26.7309,213,8.27521,1.97728,0.1625,14762
1.84685e-07,-7.32784e-08,-1.62493e-06,-6.7171e-05,-3.30264e-05,-0.00365962,26.7799,27.0347,-0.0294702,13.5529,27.0549,26.7811,-0.05089,26.9699,213,5.3234,13.1496,0.1625,14763
5.36236e-08,-5.37549e-07,-1.64089e-06,-2.74992e-05,-0.000138559,-0.00384028,25.1213,24.2925,-3.33233,15.0131,25.9075,24.2928,-4.11877,29.2523,213,7.62606,18.6287,0.1625,14764
4.6445e-07,-4.53395e-07,-1.68118e-06,-0.000158221,-0.000141,-0.00364819,24.613,24.7415,-1.43161,13.8722,25.5884,24.4905,-2.15601,27.2121,213,2.03359,18.3712,0.1625,14765
4.84314e-07,1.34858e-07,-1.64207e-06,-0.000160936,-5.07678e-05,-0.00359307,25.7237,26.5459,0.110795,13.4178,26.7448,25.7263,-0.0907627,26.3411,213,2.45013,5.96705,0.1625,14766
5.38107e-07,9.382e-08,-1.65047e-06,-0.000176887,-3.72851e-05,-0.00361518,25.4098,26.4516,-0.249125,13.5294,26.6278,25.4155,-0.431025,26.4735,213,2.17591,6.87805,0.1625,14767
-2.41979e-07,-4.90536e-07,-1.6448e-06,-8.52735e-05,-0.000155793,-0.00371706,25.0724,24.5462,-2.03044,14.2264,25.7682,24.5044,-2.68449,27.8423,213,16.2727,18.5461,0.1625,14768
5.05768e-08,9.16053e-08,-1.62683e-06,-3.19551e-05,-3.77143e-05,-0.00367617,27.1536,27.1106,-0.0420609,13.6035,27.1595,27.1101,-0.0475243,27.1824,213,8.26069,7.20205,0.1625,14769
5.98107e-09,7.73472e-08,-1.62668e-06,-2.70186e-05,-3.51931e-05,-0.00367885,27.2283,27.1672,-0.0242488,13.6293,27.2313,27.1672,-0.0272988,27.2266,213,9.83106,7.6032,0.1625,14770
5.84401e-08,3.78633e-08,-1.62695e-06,-3.36267e-05,-2.63145e-05,-0.00368059,27.1831,27.2377,-0.0330118,13.6378,27.24,27.1834,-0.0356149,27.2474,213,8.05417,8.86814,0.1625,14771
1.30494e-07,4.54641e-08,-1.62574e-06,-5.20334e-05,-2.76706e-05,-0.00366975,26.9751,27.1569,-0.0227551,13.5994,27.1662,26.9757,-0.0326125,27.104,213,6.29409,8.54918,0.1625,14772
6.82699e-08,-7.71272e-08,-1.62658e-06,-3.44676e-05,-3.55404e-05,-0.00367633,27.1308,27.1228,-0.0472854,13.5973,27.1422,27.1165,-0.0523527,27.1817,213,7.72158,13.1853,0.1625,14773
-4.66093e-07,9.04928e-09,-1.63977e-06,-0.000153332,-2.32952e-05,-0.00368354,25.3413,26.3117,-1.00356,13.7771,26.4311,25.3413,-1.123,27.0257,213,17.4208,9.93361,0.1625,14774
-3.05667e-08,7.73173e-08,-1.62689e-06,-2.88159e-05,-3.5103e-05,-0.00367929,27.1979,27.1509,-0.0444592,13.6246,27.2012,27.151,-0.0478865,27.224,213,11.1673,7.60119,0.1625,14775
1.03959e-07,8.12857e-07,-1.61068e-06,-4.09258e-05,-0.000240279,-0.00361956,25.8582,24.3705,-0.84808,14.1073,26.6114,24.3725,-1.60322,27.1644,213,6.6231,0.870879,0.1625,14776
-4.96024e-07,6.78529e-07,-1.67569e-06,-0.000156787,-0.000207647,-0.00363817,24.1861,23.8065,-1.79441,13.7776,24.957,23.8394,-2.59826,27.0138,213,18.0929,1.10616,0.1625,14777
-7.00737e-08,-1.2865e-08,-1.62655e-06,-3.63556e-05,-2.35266e-05,-0.00367856,27.1794,27.2751,-0.00124352,13.6408,27.2778,27.1794,-0.0039276,27.2327,213,12.3735,10.92,0.1625,14778
-1.25551e-07,-3.37409e-10,-1.62365e-06,-4.98675e-05,-2.34194e-05,-0.00366838,27.053,27.2504,0.0491656,13.6083,27.258,27.053,0.0415265,27.1146,213,13.6822,10.3947,0.1625,14779
5.86921e-08,-5.05295e-08,-1.62704e-06,-3.38655e-05,-2.84692e-05,-0.00367996,27.1674,27.2077,-0.0422442,13.6278,27.2104,27.1678,-0.04531,27.2344,213,8.03162,12.348,0.1625,14780
-2.93867e-08,-3.12592e-07,-1.6345e-06,-2.3795e-05,-0.000107932,-0.00366354,26.8225,26.1946,-0.339805,13.6521,26.8936,26.1943,-0.410645,26.9614,213,11.307,16.8947,0.1625,14781
-1.22032e-07,-7.64556e-08,-1.6266e-06,-4.89211e-05,-3.46931e-05,-0.00366749,26.9852,27.0914,-0.0190258,13.565,27.1009,26.9858,-0.0291613,27.0727,213,13.6902,13.2026,0.1625,14782
-9.18644e-08,-2.13058e-07,-1.62197e-06,-3.99559e-05,-7.52417e-05,-0.00364726,26.9621,26.6987,0.0418868,13.4841,26.9865,26.6979,0.0183543,26.825,213,13.2118,15.8319,0.1625,14783
-8.36778e-08,-1.48216e-07,-1.62405e-06,-3.83795e-05,-5.4499e-05,-0.00365696,27.0739,26.9536,0.0695076,13.5146,27.0866,26.9531,0.0573395,26.9627,213,12.9013,14.8177,0.1625,14784
-4.67658e-07,-4.55376e-07,-1.68094e-06,-0.0001606,-0.00014272,-0.00369782,24.1692,24.3027,-2.22792,13.8807,24.9833,24.0389,-2.77817,27.3015,213,18.0929,18.3938,0.1625,14785
1.18113e-07,5.95064e-07,-1.6608e-06,-4.64932e-05,-0.000195151,-0.00361603,26.1583,25.0489,-0.480093,13.7072,26.5443,25.0531,-0.870234,26.7002,213,6.23143,1.85451,0.1625,14786
-1.42644e-07,-4.65828e-08,-1.62532e-06,-5.54551e-05,-2.76702e-05,-0.00366938,26.9253,27.1327,-0.0442571,13.5987,27.1427,26.9256,-0.0546163,27.0894,213,14.0491,12.2476,0.1625,14787
7.95664e-07,2.92754e-07,-1.57566e-06,-0.00024134,-9.19942e-05,-0.00372104,23.1445,24.2591,-2.8234,14.1831,24.8908,23.1648,-3.47537,27.5437,213,0.779009,3.78026,0.1625,14788
-6.56454e-08,-1.82791e-07,-1.6232e-06,-3.2377e-05,-6.69899e-05,-0.00366778,26.9814,26.7231,-0.148491,13.5854,27.002,26.7229,-0.168832,27.0323,213,12.4391,15.372,0.1625,14789
-2.26045e-07,5.5719e-07,-1.6638e-06,-7.75519e-05,-0.000182854,-0.00359843,25.9174,25.1315,-0.357827,13.564,26.3434,25.1323,-0.784604,26.5432,213,15.6878,1.95122,0.1625,14790
-5.50734e-09,-2.86411e-07,-1.62859e-06,-2.35862e-05,-9.72094e-05,-0.0036591,26.946,26.3965,-0.18475,13.615,26.9957,26.3964,-0.23437,26.9354,213,10.2837,16.6093,0.1625,14791
7.8385e-08,5.06238e-07,-1.64535e-06,-3.44019e-05,-0.000172203,-0.00362068,26.4895,25.4612,-0.27374,13.5166,26.6241,25.462,-0.409119,26.4713,213,7.22813,2.38524,0.1625,14792
-1.34132e-07,-2.40679e-07,-1.61968e-06,-5.1472e-05,-8.35737e-05,-0.00365036,26.6942,26.4546,-0.163224,13.4752,26.7443,26.4473,-0.206073,26.8031,213,14.1875,16.2377,0.1625,14793
-3.15927e-07,-2.88492e-07,-1.62497e-06,-0.000107085,-9.64809e-05,-0.00362567,25.9316,26.0107,-0.326541,13.3025,26.1769,25.8669,-0.428097,26.4514,213,16.6376,16.9247,0.1625,14794
-6.35374e-07,1.35609e-07,-1.65967e-06,-0.000206135,-5.00841e-05,-0.00349983,25.7728,26.9373,1.19301,13.2857,27.345,25.7846,0.773573,25.8266,213,18.4618,5.97375,0.1625,14795
-2.02273e-07,3.41536e-08,-1.61808e-06,-7.22034e-05,-2.62223e-05,-0.00364761,26.8516,27.1947,0.169438,13.5334,27.2154,26.8518,0.148527,26.8869,213,14.9746,8.93637,0.1625,14796
4.11469e-07,4.03378e-07,-1.62028e-06,-0.000138683,-0.000136588,-0.00356651,25.5963,25.6119,0.0154979,13.0394,25.8849,25.5327,-0.193861,25.9044,213,2.70213,2.78847,0.1625,14797
8.76551e-08,3.10413e-07,-1.62222e-06,-3.73667e-05,-0.000106202,-0.00364284,26.7915,26.2778,-0.115064,13.5097,26.847,26.2795,-0.172328,26.7401,213,7.03198,3.83997,0.1625,14798
1.5684e-07,-1.28483e-07,-1.62405e-06,-5.7839e-05,-4.93486e-05,-0.00365807,26.8064,26.8698,-0.0609956,13.4896,26.8983,26.7979,-0.0809558,26.9292,213,5.68786,14.5064,0.1625,14799
5.54971e-08,3.49918e-07,-1.62139e-06,-3.04309e-05,-0.000117357,-0.0036441,26.7998,26.1511,-0.167798,13.5504,26.8657,26.1524,-0.235018,26.7512,213,7.95921,3.51441,0.1625,14800
8.74715e-08,-2.00358e-07,-1.62222e-06,-3.74905e-05,-7.14606e-05,-0.00366622,26.8797,26.6262,-0.200325,13.5643,26.9045,26.6253,-0.22416,26.9901,213,7.03146,15.6591,0.1625,14801
-4.9745e-08,-4.29084e-07,-1.65362e-06,-2.71318e-05,-0.000131504,-0.00362934,26.8554,26.0766,-0.0267037,13.6577,27.0725,26.0758,-0.242991,26.831,213,12.2132,17.8506,0.1625,14802
-7.98375e-08,1.44863e-07,-1.62599e-06,-3.66666e-05,-5.4826e-05,-0.0036648,27.0355,26.9,-0.0400652,13.5506,27.048,26.9007,-0.0532375,27.0279,213,12.7525,6.01258,0.1625,14803
-1.92064e-07,5.67611e-08,-1.62086e-06,-6.9639e-05,-2.91747e-05,-0.00365818,26.7839,27.0858,0.0036877,13.5606,27.105,26.7845,-0.0161428,26.9623,213,14.855,8.12725,0.1625,14804
-1.08196e-07,-2.94395e-07,-1.62879e-06,-4.43288e-05,-0.000100238,-0.00364942,26.6795,26.2622,-0.224179,13.5258,26.7564,26.2563,-0.295164,26.805,213,13.7253,16.792,0.1625,14805
-7.01094e-08,8.34825e-07,-1.59854e-06,-3.34655e-05,-0.000250052,-0.0036347,25.7755,24.1592,-1.09937,14.1425,26.4791,24.1621,-1.80589,27.2006,213,12.5553,0.809755,0.1625,14806
-2.1229e-08,-1.95718e-08,-1.62684e-06,-2.83984e-05,-2.45227e-05,-0.00368351,27.2547,27.2836,-0.0222774,13.6534,27.284,27.2548,-0.0227983,27.2922,213,10.8135,11.1823,0.1625,14807
2.49192e-07,-3.9865e-08,-1.62206e-06,-8.52686e-05,-2.59442e-05,-0.00365169,26.6204,27.0631,0.00531701,13.558,27.0921,26.6208,-0.0240245,26.8835,213,4.52064,12.0311,0.1625,14808
1.20923e-07,-1.20054e-07,-1.62583e-06,-4.78161e-05,-4.72184e-05,-0.0036579,26.9789,26.9834,0.037981,13.4972,27.0174,26.9599,0.0229622,26.9657,213,6.38222,14.2962,0.1625,14809
-5.56354e-07,-5.77091e-08,-1.64614e-06,-0.000185405,-2.93812e-05,-0.00361546,25.3391,26.5035,-0.258275,13.6091,26.7313,25.34,-0.486947,26.5499,213,18.0032,12.6515,0.1625,14810
-5.28599e-07,-3.64491e-08,-1.64924e-06,-0.000174918,-2.5458e-05,-0.00367685,25.0449,26.1602,-1.08899,13.7902,26.3259,25.0448,-1.25457,26.9627,213,17.83,11.8774,0.1625,14811
3.30777e-07,-4.05644e-08,-1.62141e-06,-0.000112252,-2.56358e-05,-0.00364643,26.2493,26.8957,-0.125164,13.5637,26.9485,26.2502,-0.178883,26.7851,213,3.69149,12.072,0.1625,14812
-2.61327e-07,1.36139e-07,-1.61946e-06,-9.01523e-05,-5.06997e-05,-0.00364544,26.3985,26.6929,-0.133566,13.4484,26.7258,26.4029,-0.170876,26.7367,213,15.8268,6.02813,0.1625,14813
5.18516e-07,-5.18947e-07,-1.65977e-06,-0.000178461,-0.000137406,-0.00361846,24.5657,24.8721,-1.10595,14.7774,26.6457,24.5951,-2.909,28.5846,213,1.5459,18.8653,0.1625,14814
-2.05955e-07,1.36819e-08,-1.61681e-06,-7.38024e-05,-2.27229e-05,-0.00364295,26.8917,27.2729,0.256228,13.5307,27.2953,26.8917,0.233827,26.8619,213,15.0094,9.77032,0.1625,14815
6.34252e-08,2.78911e-07,-1.62134e-06,-3.31198e-05,-9.53748e-05,-0.00365887,26.8156,26.351,-0.242198,13.5732,26.8597,26.3514,-0.286669,26.8958,213,7.73113,4.17566,0.1625,14816
-6.84569e-07,-3.77302e-08,-1.66316e-06,-0.000217743,-2.65467e-05,-0.00359796,25.0026,26.4295,-0.222862,13.8485,26.9518,25.0026,-0.7452,26.7757,213,18.6233,11.8989,0.1625,14817
7.1607e-07,-2.29736e-08,-1.6001e-06,-0.000202157,-2.40533e-05,-0.000228478,2.15495,28.314,-1.71098,15.6959,28.9938,2.1623,-2.39808,29.3783,213,1.2309,11.2896,0.0748688,14818
-6.73066e-07,-1.49357e-07,-1.59272e-06,-0.000193677,-5.02431e-05,-0.000269309,-2.07098,18.9958,-13.1795,16.5328,19.4058,-2.00065,-13.6598,29.0474,213,18.7433,14.9215,0.0788581,14819
5.68681e-07,2.23758e-07,-1.60503e-06,-0.000173534,-7.2171e-05,-0.000233867,4.03323,18.9209,-4.82825,12.4716,19.517,4.03515,-5.42623,21.8102,213,1.83647,4.46379,0.075,14820
5.94052e-07,2.85385e-07,-1.60806e-06,-0.000181722,-9.27485e-05,-0.000192944,3.9669,17.0349,2.31863,8.98272,18.5304,4.22514,0.56492,16.4438,213,1.62376,3.717,0.075,14821
4.35616e-07,2.94457e-07,-1.57339e-06,-0.000144233,-9.76924e-05,-0.000215304,10.4251,17.2608,-0.0134781,9.16128,17.8968,10.2014,-0.42574,15.9354,213,2.56329,3.66642,0.075,14822
-1.416e-07,1.01792e-08,-1.55501e-06,-5.30576e-05,-2.2806e-05,-0.000279783,33.311,37.7542,0.0106281,18.8885,37.7712,33.3104,-0.00577296,35.7559,213,14.0434,9.93187,0.075,14823
-1.83625e-07,2.41951e-08,-1.55219e-06,-6.69677e-05,-2.42907e-05,-0.000273019,30.4613,36.7295,0.197433,18.2909,36.7558,30.4584,0.174012,33.875,213,14.7498,9.32274,0.075,14824
-1.94599e-07,5.87424e-09,-1.55137e-06,-7.06337e-05,-2.26066e-05,-0.000272059,29.8274,36.8814,0.243129,18.3518,36.9141,29.8274,0.210502,33.7234,213,14.9023,10.1046,0.075,14825
1.57109e-08,2.84892e-08,-1.55916e-06,-2.75477e-05,-2.55795e-05,-0.000288943,38.3267,38.6158,-0.0658131,19.3417,38.6164,38.3272,-0.0669542,38.5396,213,9.46933,9.21558,0.075,14826
2.05246e-08,5.50638e-08,-1.55932e-06,-2.73111e-05,-2.97546e-05,-0.000287421,38.1356,37.7768,-0.0679874,19.1072,38.144,37.7707,-0.0703317,38.0291,213,9.29266,8.25125,0.075,14827
3.52486e-08,3.89985e-08,-1.55931e-06,-2.87024e-05,-2.65316e-05,-0.000288028,38.0457,38.3646,-0.0427158,19.2081,38.3714,38.041,-0.0448209,38.2521,213,8.77293,8.81394,0.075,14828
4.27128e-07,-2.05961e-08,-1.56378e-06,-0.00014345,-2.30373e-05,-0.000235539,15.6998,33.3854,2.17421,15.7364,33.5172,15.6977,2.04444,27.3357,213,2.91075,11.265,0.075,14829
4.33292e-07,3.4201e-09,-1.5656e-06,-0.000145291,-2.1852e-05,-0.000237358,15.198,33.3281,1.67576,15.9373,33.4392,15.198,1.56463,27.7002,213,2.87729,10.1938,0.075,14830
5.90902e-07,-9.55087e-09,-1.60738e-06,-0.000174231,-2.16515e-05,-0.000242925,7.74106,30.1512,-2.34832,16.7975,30.6987,7.74137,-2.89618,29.739,213,1.90689,10.7725,0.075,14831
1.19321e-07,3.29306e-07,-1.55273e-06,-4.78081e-05,-0.000113734,-0.000244847,29.3394,19.6565,0.399357,14.6053,29.4923,19.6213,0.28172,25.7363,213,6.20626,3.57758,0.075,14832
1.20883e-07,4.5959e-07,-1.56745e-06,-4.76646e-05,-0.000154128,-0.000221486,27.7819,12.1451,2.25185,13.0488,28.0692,12.1381,1.97151,22.7843,213,6.13925,2.59377,0.075,14833
7.99204e-08,3.89668e-07,-1.56263e-06,-3.4028e-05,-0.000132425,-0.000248772,30.5374,16.0853,-1.00319,15.9333,30.7066,16.0729,-1.15998,27.6278,213,7.13594,3.12449,0.075,14834
1.75784e-07,4.00471e-08,-1.55599e-06,-6.22654e-05,-2.67986e-05,-0.000275651,31.111,36.3202,-0.230021,18.3033,36.3499,31.108,-0.256764,34.2876,213,5.45184,8.70218,0.075,14835
1.66358e-07,2.07767e-08,-1.55565e-06,-6.01229e-05,-2.36981e-05,-0.000275822,31.8998,37.2497,0.219086,18.5351,37.2703,31.8982,0.200063,34.6975,213,5.61409,9.46857,0.075,14836
2.24207e-07,1.92904e-08,-1.55146e-06,-7.9697e-05,-2.31011e-05,-0.000270552,27.7437,36.0562,-0.288197,18.2181,36.1032,27.7414,-0.332939,33.0582,213,4.7861,9.51274,0.075,14837
2.50496e-08,-4.23124e-08,-1.55944e-06,-2.77496e-05,-2.73048e-05,-0.000288055,38.1999,38.2652,-0.0325117,19.1574,38.2797,38.188,-0.0351051,38.269,213,9.11906,12.0751,0.075,14838
6.90831e-09,-3.14787e-08,-1.55932e-06,-2.65629e-05,-2.52503e-05,-0.0002893,38.5608,38.7536,-0.0287579,19.3915,38.7536,38.5615,-0.0294591,38.6874,213,9.79376,11.6677,0.075,14839
8.4357e-09,-5.68115e-08,-1.55937e-06,-2.60399e-05,-3.09777e-05,-0.00028759,38.311,37.5858,-0.104163,19.2106,38.3142,37.5855,-0.107006,38.0621,213,9.72893,12.5723,0.075,14840
4.6308e-08,-1.31305e-07,-1.55708e-06,-2.90285e-05,-5.01502e-05,-0.000276999,36.7907,33.6884,0.369984,18.229,36.8152,33.6767,0.357183,34.9945,213,8.31395,14.5079,0.075,14841
6.53322e-08,-1.56849e-07,-1.55684e-06,-3.37389e-05,-5.679e-05,-0.000273852,35.3321,31.9465,0.0655357,17.6703,35.3838,31.9171,0.0432422,33.741,213,7.67374,15.0001,0.075,14842
3.71112e-08,-1.7832e-07,-1.55423e-06,-2.68552e-05,-6.40629e-05,-0.000275628,36.1408,30.6759,-0.397614,18.3001,36.1748,30.6697,-0.425431,34.1818,213,8.59632,15.3275,0.075,14843
3.0477e-07,-6.07236e-09,-1.55049e-06,-0.000104661,-2.28481e-05,-0.000257579,22.9799,34.9962,0.520134,17.3094,35.0677,22.9795,0.448996,30.4319,213,3.90525,10.6184,0.075,14844
2.89216e-07,-2.56731e-08,-1.55305e-06,-9.85359e-05,-2.28561e-05,-0.000261034,24.1285,35.244,0.261631,17.5501,35.3031,24.128,0.203008,31.0589,213,4.04649,11.4612,0.075,14845
-1.00352e-07,1.76349e-07,-1.55917e-06,-4.26978e-05,-6.21763e-05,-0.00026939,33.0926,30.2317,-0.202771,16.705,33.1686,30.1944,-0.241503,32.0268,213,13.3393,5.40351,0.075,14846
-8.18652e-08,2.19459e-07,-1.55783e-06,-3.72841e-05,-7.57761e-05,-0.000265568,33.4798,27.8263,-0.0493066,16.8191,33.5443,27.8064,-0.0939174,31.1679,213,12.9106,4.79612,0.075,14847
-5.95332e-08,1.97558e-07,-1.55816e-06,-3.0672e-05,-6.76126e-05,-0.000270904,35.3332,29.9076,0.0491554,17.6801,35.3744,29.9012,0.0142907,32.9661,213,12.2355,5.11909,0.075,14848
5.31551e-08,-5.33563e-07,-1.56497e-06,-2.7007e-05,-0.000107222,-0.000272546,32.3585,20.5769,-3.70507,19.1802,33.5387,20.5134,-4.82175,33.7865,213,7.57561,18.7863,0.075,14849
5.14216e-08,-5.91124e-07,-1.52414e-06,-2.37555e-05,-3.84072e-05,-0.000249146,41.7589,39.6069,8.6547,17.8814,43.5527,38.6778,7.7899,33.5917,213,7.35947,19.5329,0.075,14850
3.48509e-08,-6.05621e-07,-1.51369e-06,-1.96895e-05,-4.22886e-05,-0.000259263,41.4278,38.1085,6.24044,18.4283,42.3816,37.8703,5.52491,34.8209,213,8.05158,19.632,0.075,14851
5.90295e-07,-2.59614e-07,-1.60441e-06,-0.000181406,-8.361e-05,-0.000223894,2.0044,16.3681,-4.23602,11.2674,17.3036,2.06407,-5.23123,19.9159,213,1.62637,16.5995,0.075,14852
5.2367e-07,-3.24636e-07,-1.61858e-06,-0.000166979,-0.000104964,-0.000200486,5.66373,14.7721,0.742279,8.61027,16.2792,5.84021,-0.941322,15.0251,213,1.88095,17.331,0.075,14853
7.04687e-07,-3.45536e-07,-1.56272e-06,-0.000206527,-0.000111707,-0.000181849,-2.72957,11.1972,0.895042,8.19638,12.3532,1.04897,-4.03953,14.5328,213,0.897357,17.3498,0.075,14854
-1.28608e-07,5.14261e-08,-1.55771e-06,-4.92712e-05,-2.79765e-05,-0.000279619,33.7531,36.8808,-0.079209,18.4997,36.9035,33.747,-0.0958359,35.5264,213,13.8247,8.32248,0.075,14855
-1.61183e-07,6.90399e-08,-1.55753e-06,-5.95471e-05,-3.18015e-05,-0.000272933,31.5508,35.6259,0.209734,17.7346,35.6592,31.5372,0.190015,33.5984,213,14.4429,7.71398,0.075,14856
-1.12202e-07,7.46363e-08,-1.55896e-06,-4.52658e-05,-3.40597e-05,-0.000278727,34.2306,35.8765,-0.0590398,17.9978,35.9211,34.2014,-0.0744609,35.1673,213,13.5111,7.57644,0.075,14857
-9.78764e-08,2.05337e-08,-1.55799e-06,-4.25718e-05,-2.39683e-05,-0.000283908,35.337,38.0694,-0.109253,19.0966,38.0774,35.3355,-0.115782,36.8987,213,13.1296,9.51352,0.075,14858
-1.15978e-07,-3.62067e-09,-1.55726e-06,-4.67503e-05,-2.31499e-05,-0.000282091,34.579,38.0453,0.0133108,19.0248,38.0541,34.579,0.00452498,36.4365,213,13.5338,10.5359,0.075,14859
5.62973e-08,-4.50573e-08,-1.55963e-06,-3.26793e-05,-2.7397e-05,-0.000286106,37.1887,37.9646,-0.0332751,19.0079,37.9785,37.1788,-0.0372931,37.6223,213,8.07916,12.1843,0.075,14860
6.17325e-08,-2.32259e-08,-1.55969e-06,-3.303e-05,-2.49347e-05,-0.000287369,37.2165,38.4055,-0.139523,19.275,38.4084,37.2156,-0.141604,37.9677,213,7.92502,11.3528,0.075,14861
2.98468e-08,-2.0722e-08,-1.55934e-06,-2.85064e-05,-2.46539e-05,-0.000288976,38.1798,38.7456,-0.076611,19.4132,38.7484,38.1783,-0.0779101,38.5444,213,8.96493,11.2437,0.075,14862
1.02071e-07,1.51594e-08,-1.55909e-06,-4.27108e-05,-2.40774e-05,-0.00028377,35.3063,38.0431,-0.0992854,19.0793,38.052,35.3047,-0.106587,36.8618,213,6.87143,9.73246,0.075,14863
7.76418e-08,-3.91851e-09,-1.55958e-06,-3.77595e-05,-2.30017e-05,-0.000285688,36.4176,38.5852,0.00316871,19.2954,38.5896,36.4176,-0.00123023,37.552,213,7.47742,10.5466,0.075,14864
4.92172e-08,-3.0956e-09,-1.5593e-06,-3.04155e-05,-2.32034e-05,-0.000288587,37.8928,38.9521,-0.0261924,19.491,38.954,37.8927,-0.0280173,38.4624,213,8.31641,10.5103,0.075,14865
6.92741e-08,1.62284e-08,-1.55942e-06,-3.5126e-05,-2.43079e-05,-0.000286665,36.8371,38.426,-0.107664,19.2705,38.4297,36.8371,-0.111359,37.7699,213,7.71042,9.69616,0.075,14866
-9.80108e-07,1.79225e-07,-1.3391e-06,-0.000237985,-6.39489e-05,-0.00015307,-3.13677,22.4249,9.33523,13.9973,24.8475,6.92307,-3.1472,24.5601,213,20.075,5.35273,0.1125,14867
-9.73334e-07,1.50138e-07,-1.34329e-06,-0.000239124,-4.91059e-05,-0.000156629,-2.35563,25.5532,9.76079,14.4844,26.4856,8.9558,-2.48309,25.2718,213,20.075,5.83227,0.075,14868
-5.70289e-07,-5.68964e-07,-1.45953e-06,-0.000193901,-3.1749e-05,-0.000186989,7.29785,31.1139,8.31305,15.823,33.5509,11.2689,1.90494,28.1571,213,19.497,19.63,0.075,14869
-4.24868e-07,-5.63609e-07,-1.52283e-06,-0.000147187,-8.04454e-05,-0.000216972,11.1711,20.9739,0.921499,11.8337,24.0278,8.67829,0.360438,20.7959,213,19.0311,20.0675,0.075,14870
-4.06473e-07,-5.23887e-07,-1.53352e-06,-0.000131873,-2.9778e-05,-0.000230718,18.3028,33.298,3.78498,17.3962,37.4991,15.18,2.70668,30.5306,213,18.497,19.63,0.075,14871
2.46766e-07,6.06528e-08,-1.55308e-06,-8.6824e-05,-2.94567e-05,-0.000265792,25.8816,34.3075,-0.404294,17.4245,34.3819,25.87,-0.467054,31.4686,213,4.47688,7.93071,0.075,14872
2.15803e-07,8.40528e-08,-1.55615e-06,-7.55287e-05,-3.61131e-05,-0.000267472,27.8172,33.6063,-0.374511,17.0481,33.6719,27.8013,-0.424262,31.5729,213,4.82934,7.22867,0.075,14873
1.86337e-07,6.32594e-08,-1.55729e-06,-6.54126e-05,-3.00139e-05,-0.000271043,30.4849,35.684,0.282958,17.7312,35.719,30.4762,0.256577,33.1534,213,5.26792,7.87693,0.075,14874
9.79444e-07,1.79065e-07,-1.33427e-06,-0.000237519,-6.44915e-05,-0.00015378,-3.14165,22.2717,9.15751,13.9499,24.7461,6.6953,-3.1538,24.5075,213,0.025,5.35273,0.1125,14875
9.7207e-07,1.49675e-07,-1.33801e-06,-0.000238681,-4.85432e-05,-0.000159017,-2.42001,25.5066,9.28074,14.4335,26.2392,8.75597,-2.62782,25.1849,213,0.025,5.83227,0.075,14876
2.09752e-07,-2.46366e-08,-1.55607e-06,-7.47128e-05,-2.29387e-05,-0.000274933,28.5473,36.1517,-0.859996,18.5604,36.2067,28.5464,-0.91406,33.9452,213,4.97331,11.4255,0.075,14877
2.7224e-07,-4.17292e-08,-1.55599e-06,-9.41476e-05,-2.56031e-05,-0.000261193,24.9116,34.979,0.376795,17.3486,35.027,24.9106,0.32982,30.9067,213,4.211,12.1339,0.075,14878
1.96428e-07,-4.11725e-08,-1.55763e-06,-7.05156e-05,-2.63466e-05,-0.000273308,29.3894,35.8767,-0.395781,18.1846,35.9275,29.3846,-0.441755,33.5793,213,5.13781,12.0983,0.075,14879
-2.77781e-07,1.50329e-07,-1.55326e-06,-9.53865e-05,-5.40726e-05,-0.000251123,22.894,28.962,0.020217,14.62,29.1388,22.8386,-0.101133,26.6542,213,16.0675,5.69029,0.075,14880
-2.49012e-07,1.13622e-07,-1.55511e-06,-8.6982e-05,-4.40182e-05,-0.000256115,25.3871,31.6974,0.545639,15.6492,31.7889,25.3507,0.490462,28.6276,213,15.72,6.46698,0.075,14881
-2.04961e-07,1.39846e-07,-1.55755e-06,-7.40522e-05,-5.08249e-05,-0.000260796,27.421,30.8326,-0.00688772,15.5058,30.9472,27.3638,-0.0643303,29.3842,213,15.1912,5.94844,0.075,14882
8.19297e-08,-5.24514e-07,-1.5675e-06,-3.20716e-05,-0.000103867,-0.000267529,31.9238,21.3789,-2.65898,18.0715,32.8034,21.1801,-3.33971,31.9581,213,6.57561,18.7863,0.075,14883
7.03502e-08,-4.41947e-07,-1.59055e-06,-2.98503e-05,-0.000131292,-0.000251571,31.3859,16.4867,-1.17933,16.5997,31.7249,16.4429,-1.47447,28.7816,213,7.15166,18.065,0.075,14884
1.02221e-07,-3.61034e-07,-1.58386e-06,-4.17459e-05,-0.000119187,-0.000244765,30.2944,18.9202,0.476004,15.0692,30.4968,18.8355,0.358308,26.3222,213,6.35585,17.4454,0.075,14885
1.52301e-07,-3.23455e-07,-1.57438e-06,-5.55818e-05,-0.00011505,-0.000241309,27.6787,18.9443,0.400093,13.8333,27.9505,18.7886,0.28396,24.4111,213,5.38814,17.1831,0.075,14886
1.07e-07,-2.7628e-07,-1.56298e-06,-4.42328e-05,-9.45144e-05,-0.00026058,30.5246,23.1395,-1.25136,16.0533,30.7445,23.0303,-1.36204,29.0286,213,6.38487,16.6523,0.075,14887
3.61584e-07,-4.28144e-08,-1.55829e-06,-0.000122984,-2.57166e-05,-0.000252112,18.8192,33.1053,-0.146567,16.7598,33.2374,18.8227,-0.282203,29.1234,213,3.38185,12.1748,0.075,14888
1.49917e-07,1.48401e-07,-1.55935e-06,-5.44534e-05,-5.31639e-05,-0.00026777,31.261,31.4504,-0.0698497,15.9634,31.8193,30.9297,-0.107446,31.4914,213,5.76176,5.82605,0.075,14889
1.1805e-07,1.16539e-07,-1.55973e-06,-4.69848e-05,-4.52438e-05,-0.000273986,33.2153,33.471,-0.125481,16.9243,33.6989,33.0116,-0.149686,33.5102,213,6.42409,6.50144,0.075,14890
1.11037e-07,1.51181e-07,-1.55974e-06,-4.50505e-05,-5.45368e-05,-0.000271405,33.0528,31.6595,-0.192952,16.693,33.1627,31.5799,-0.223254,32.6234,213,6.54865,5.81586,0.075,14891
1.73236e-07,9.5892e-07,-1.33177e-06,-5.91444e-05,-0.000222898,-0.000187518,21.7699,-2.28147,2.91496,12.4071,22.456,2.3055,-2.35812,22.8422,213,5.30909,0.075,0.1125,14892
1.88616e-07,7.25106e-07,-1.58302e-06,-6.52692e-05,-0.000209756,-0.000204988,19.8935,-1.32799,-0.627655,11.2485,20.4848,-0.53477,-2.01215,21.7958,213,4.91743,1.05864,0.1125,14893
1.47921e-07,9.49996e-07,-1.32786e-06,-4.99134e-05,-0.000233503,-0.000175477,24.1228,-2.84195,5.6806,13.9778,25.0697,4.77756,-2.88584,25.0201,213,5.76591,0.075,0.075,14894
1.60579e-07,7.24527e-07,-1.57557e-06,-5.59772e-05,-0.000202452,-0.000216046,21.7758,0.262354,-1.7343,12.4806,22.397,0.471036,-2.5642,23.5905,213,5.37424,1.05864,0.075,14895
5.98356e-08,1.03804e-07,-1.55987e-06,-3.26316e-05,-4.14668e-05,-0.000281041,36.3585,35.0608,-0.126627,18.2636,36.3901,35.0397,-0.137119,35.8711,213,7.93323,6.84612,0.075,14896
8.63192e-08,8.91846e-08,-1.55979e-06,-3.78806e-05,-3.70247e-05,-0.000280267,35.5845,35.7102,-0.0160054,17.951,35.8738,35.4331,-0.0282054,35.6837,213,7.20055,7.19728,0.075,14897
6.48816e-08,7.73648e-08,-1.55971e-06,-3.39563e-05,-3.46654e-05,-0.000282794,36.512,36.4079,-0.0359786,18.3248,36.6033,36.3269,-0.0463164,36.5122,213,7.8082,7.54272,0.075,14898
9.66136e-11,-4.83868e-07,-1.58662e-06,-2.01368e-05,-0.000117232,-0.000266701,33.6203,19.3594,-2.59378,18.528,34.0445,19.353,-3.01157,32.32,213,10.0554,18.3455,0.075,14899
9.21367e-09,-5.62194e-07,-1.5481e-06,-1.7719e-05,-0.000105494,-0.000264712,35.4844,22.5925,-0.792725,19.068,36.4192,22.5818,-1.71683,33.4384,213,9.5716,19.0436,0.075,14900
7.24206e-09,-3.49699e-07,-1.57675e-06,-2.1796e-05,-0.000118862,-0.000257227,33.9547,19.6981,-0.624314,17.4337,34.0988,19.6983,-0.768555,30.3479,213,9.72228,17.237,0.075,14901
1.69683e-08,-4.33233e-07,-1.59417e-06,-2.03899e-05,-0.000117255,-0.000252983,34.8396,20.6124,0.677501,17.4176,35.1767,20.6114,0.341447,30.3027,213,9.23847,17.935,0.075,14902
-1.72884e-07,9.58798e-07,-1.32875e-06,-5.93894e-05,-0.00022312,-0.000187898,21.6548,-2.39316,2.78012,12.4127,22.3527,2.16167,-2.47264,22.8632,213,14.7909,0.075,0.1125,14903
-1.90131e-07,7.21984e-07,-1.58675e-06,-6.58864e-05,-0.000209167,-0.000204145,19.8789,-1.16553,-0.427891,11.1015,20.4465,-0.404393,-1.7566,21.5588,213,15.206,1.07231,0.1125,14904
-1.61645e-07,7.21344e-07,-1.58098e-06,-5.6749e-05,-0.000201697,-0.000215216,21.7384,0.449211,-1.53642,12.3747,22.3865,0.627615,-2.36289,23.3979,213,14.7492,1.07231,0.075,14905
-1.47343e-07,9.49235e-07,-1.32528e-06,-4.95173e-05,-0.000232749,-0.000175689,24.2687,-2.64346,5.73728,13.9227,25.1472,4.91359,-2.69824,24.9269,213,14.3341,0.075,0.075,14906
9.59741e-08,8.05359e-07,-1.54386e-06,-3.94342e-05,-0.000226923,-0.000216697,23.4037,-4.13363,-2.63176,14.2294,24.0775,-3.05799,-4.38123,27.8207,213,6.79582,0.795879,0.1125,14907
1.26425e-07,9.72164e-07,-1.33523e-06,-4.64215e-05,-0.000229015,-0.000194902,23.5659,-3.25252,1.75789,13.5869,23.8603,1.52464,-3.31362,25.1068,213,6.22273,0.075,0.1125,14908
8.90632e-08,6.55089e-07,-1.60379e-06,-3.72654e-05,-0.000188552,-0.00022095,27.1138,4.89355,0.135153,14.3117,27.9272,4.91156,-0.696238,26.2723,213,6.92112,1.49046,0.075,14909
1.14321e-07,7.97706e-07,-1.53009e-06,-4.2706e-05,-0.000216518,-0.000194574,25.6576,0.129024,3.35205,13.3512,26.7858,2.26947,0.0833653,25.6793,213,6.34803,0.769585,0.075,14910
1.07046e-07,8.05068e-07,-1.50752e-06,-4.15866e-05,-0.000208987,-0.000203111,25.8327,1.24572,2.10882,13.0669,26.8086,1.70391,0.674779,25.6347,213,6.52075,0.694585,0.0375,14911
-4.09473e-08,9.30714e-08,-1.5598e-06,-2.92145e-05,-3.80685e-05,-0.000283264,37.2896,35.9892,-0.0238379,18.6696,37.3075,35.9793,-0.031812,36.6932,213,11.5612,7.13035,0.075,14912
-5.46194e-08,7.49688e-08,-1.55964e-06,-3.17814e-05,-3.45111e-05,-0.000283938,36.9422,36.5413,-0.093274,18.5447,36.9895,36.5005,-0.099823,36.8473,213,11.9881,7.61991,0.075,14913
-6.81648e-08,9.61077e-08,-1.55976e-06,-3.49911e-05,-3.83571e-05,-0.000281329,36.0552,35.5608,-0.125727,18.128,36.1197,35.5067,-0.136188,35.9533,213,12.4134,7.03259,0.075,14914
-4.16687e-08,2.68858e-07,-1.55589e-06,-2.75952e-05,-9.41892e-05,-0.000261586,34.4596,24.6786,0.0922865,17.2395,34.5166,24.6762,0.0376482,30.7627,213,11.659,4.2471,0.075,14915
-2.64323e-08,2.22486e-07,-1.5567e-06,-2.68397e-05,-7.63721e-05,-0.000269675,35.5505,28.2754,-0.115923,17.8735,35.5916,28.2739,-0.15547,32.708,213,11.0916,4.80276,0.075,14916
8.71313e-07,5.98499e-07,-1.36602e-06,-0.000209268,-0.00015749,-0.000143112,-4.047,3.55792,5.66972,6.3842,7.88661,2.17581,-4.88178,11.0782,213,0.025,1.51455,0.1125,14917
8.7169e-07,5.27409e-07,-1.34241e-06,-0.000215109,-0.000143623,-0.000149398,-4.7421,5.75739,4.90921,8.03008,9.72192,2.54083,-6.33825,13.9344,213,0.025,1.99409,0.075,14918
-5.97251e-08,-2.11557e-07,-1.5578e-06,-3.05953e-05,-7.48325e-05,-0.000270627,34.7027,28.2054,-0.552007,17.6834,34.7676,28.1876,-0.599133,32.579,213,12.3296,15.8232,0.075,14919
-5.33103e-08,-2.88729e-07,-1.56483e-06,-2.93506e-05,-9.83329e-05,-0.000269407,32.9194,22.7877,-2.33881,17.7327,33.027,22.7797,-2.43843,31.613,213,12.2114,16.7202,0.075,14920
-7.58261e-08,-2.61753e-07,-1.56019e-06,-3.39248e-05,-9.07196e-05,-0.00026214,33.2109,24.8691,-0.308229,16.8425,33.3082,24.8403,-0.376776,30.3503,213,12.8933,16.4457,0.075,14921
-5.36224e-08,-3.78396e-07,-1.58308e-06,-2.87955e-05,-0.000123609,-0.000245168,32.9558,19.0301,1.17611,16.0296,33.108,19.0054,1.04869,27.8309,213,12.3347,17.5258,0.075,14922
-3.38563e-08,-3.62178e-07,-1.58205e-06,-2.34254e-05,-0.000125646,-0.000246983,33.8865,18.8728,1.05143,16.5188,33.9913,18.8658,0.953693,28.6453,213,11.5518,17.3789,0.075,14923
7.95969e-08,-4.49055e-08,-1.55984e-06,-3.66397e-05,-2.73643e-05,-0.000284406,36.3988,37.7612,0.00821251,18.8878,37.7759,36.3921,0.000206675,37.1032,213,7.40748,12.1943,0.075,14924
3.82399e-07,-7.16453e-08,-1.56015e-06,-0.000129186,-3.14319e-05,-0.000250085,16.9838,31.3415,-0.773167,16.213,31.4992,16.9797,-0.926754,28.1327,213,3.1891,13.1845,0.075,14925
2.88326e-07,-7.05289e-08,-1.55749e-06,-0.000100417,-3.15026e-05,-0.000253852,23.5396,33.6613,1.00376,16.3866,33.7235,23.5308,0.950367,29.0504,213,4.01825,13.1436,0.075,14926
3.17609e-07,-9.60592e-08,-1.55636e-06,-0.00010926,-3.76154e-05,-0.000250764,21.1315,31.6543,0.348084,15.7468,31.7511,21.1253,0.257456,27.7509,213,3.7015,13.8909,0.075,14927
3.65856e-07,-1.40005e-07,-1.55783e-06,-0.000125059,-5.17044e-05,-0.000247167,16.3536,27.1276,-1.58097,14.4932,27.2819,16.323,-1.70458,25.3506,213,3.23723,14.8755,0.075,14928
2.65411e-07,-1.38026e-07,-1.55292e-06,-9.25948e-05,-5.13591e-05,-0.000253147,23.6295,29.6859,0.0483639,14.9353,29.8239,23.5865,-0.0466586,27.2918,213,4.16701,14.8242,0.075,14929
4.66464e-08,1.48118e-07,-1.55904e-06,-2.90046e-05,-5.47131e-05,-0.000276855,36.3834,32.6074,-0.0196711,18.231,36.4144,32.6042,-0.0475222,34.714,213,8.3224,5.93409,0.075,14930
2.30587e-08,1.57929e-07,-1.55811e-06,-2.71648e-05,-5.67332e-05,-0.000277446,36.5816,32.2387,-0.178442,18.406,36.6081,32.2377,-0.203931,34.8331,213,9.15866,5.76958,0.075,14931
4.80459e-08,2.02355e-07,-1.55654e-06,-2.87187e-05,-7.08503e-05,-0.000270179,35.5678,29.3798,0.10339,17.7585,35.5949,29.3782,0.0778356,32.8529,213,8.25012,5.06544,0.075,14932
8.08841e-08,5.07577e-07,-1.58272e-06,-3.50782e-05,-0.000164884,-0.000227945,29.1978,10.1325,0.870504,14.3748,29.4039,10.1426,0.654357,25.3728,213,7.10401,2.33101,0.075,14933
2.14013e-07,1.62279e-07,-1.55708e-06,-7.74274e-05,-5.69747e-05,-0.000257601,26.3336,29.3376,-0.12937,14.8472,29.4975,26.2412,-0.196867,28.2075,213,4.77061,5.52452,0.075,14934
1.61018e-07,2.0534e-07,-1.55871e-06,-5.77259e-05,-7.27641e-05,-0.000259843,29.3834,27.1747,-0.302447,14.9807,29.5911,27.0348,-0.370247,28.7685,213,5.52032,4.90663,0.075,14935
2.08868e-07,2.33236e-07,-1.55732e-06,-7.50445e-05,-8.03636e-05,-0.000248423,25.5781,24.7968,0.113045,13.0982,26.1956,24.2933,-0.000914275,25.299,213,4.76931,4.48827,0.075,14936
2.76458e-07,1.84702e-07,-1.55404e-06,-9.44485e-05,-6.39581e-05,-0.000248466,22.4439,26.9221,-0.177476,13.7319,27.168,22.3163,-0.295787,25.388,213,4.0196,5.10616,0.075,14937
-2.24475e-08,-1.68495e-07,-1.55661e-06,-2.61414e-05,-6.12765e-05,-0.000274348,36.6924,31.532,0.237097,18.2494,36.7154,31.5296,0.216517,34.2021,213,10.9532,15.159,0.075,14938
-3.09006e-09,-1.28847e-07,-1.55739e-06,-2.41523e-05,-4.97398e-05,-0.000282964,37.4434,33.6852,-0.569638,19.0242,37.4611,33.6852,-0.587247,36.3079,213,10.1749,14.4355,0.075,14939
-6.79498e-10,-1.84076e-07,-1.55479e-06,-2.3636e-05,-6.63587e-05,-0.000273071,36.9389,30.664,0.303066,18.339,36.96,30.6639,0.282018,33.9704,213,10.0716,15.394,0.075,14940
1.9389e-07,1.25848e-07,-1.55783e-06,-6.99232e-05,-4.74079e-05,-0.000263856,28.4467,31.7537,-0.0371648,15.975,31.8624,28.3884,-0.0875512,30.3624,213,5.08396,6.24174,0.075,14941
-1.66453e-07,-2.2413e-07,-1.5515e-06,-6.17258e-05,-7.89399e-05,-0.000257419,28.0714,25.543,-0.671097,14.617,28.4809,25.2155,-0.753088,27.7458,213,14.7932,16.1166,0.075,14942
-1.46246e-07,-3.12667e-07,-1.5681e-06,-5.39934e-05,-0.000112194,-0.000244462,28.0327,19.4846,0.0576293,14.1861,28.3032,19.3407,-0.0689572,25.1201,213,14.5954,17.0854,0.075,14943
-1.27122e-07,-2.28595e-07,-1.55399e-06,-4.88723e-05,-8.08175e-05,-0.000260967,30.6535,25.9615,-0.497962,15.7126,30.8652,25.8118,-0.560032,29.2281,213,14.0818,16.1254,0.075,14944
-4.0009e-08,6.22747e-07,-1.6071e-06,-2.64877e-05,-0.000183614,-0.000236745,28.6894,5.61152,-2.19214,16.0297,29.277,5.61401,-2.78226,28.7944,213,11.6767,1.71685,0.075,14945
-6.43291e-08,6.49259e-07,-1.60318e-06,-3.26785e-05,-0.000188356,-0.000224079,27.9421,5.07693,-0.169941,14.8394,28.7263,5.07537,-0.952563,27.1711,213,12.4838,1.55425,0.075,14946
-6.09476e-08,5.03408e-07,-1.57599e-06,-3.15822e-05,-0.000161755,-0.000241004,29.1099,9.99075,-1.64894,15.6254,29.3553,9.99202,-1.8956,27.321,213,12.3917,2.3736,0.075,14947
2.42826e-07,-4.55614e-07,-1.58329e-06,-8.5851e-05,-0.000104041,-0.000237788,21.7618,19.0902,-0.553938,13.1037,24.6908,17.1238,-1.51663,23.3619,213,3.80224,18.4431,0.075,14948
1.61079e-07,-5.33945e-07,-1.54214e-06,-5.91009e-05,-7.03159e-05,-0.000253567,29.8684,28.2211,1.30618,16.5484,33.2034,26.0857,0.106598,30.1743,213,4.66998,19.1059,0.075,14949
1.99371e-07,-5.47245e-07,-1.5113e-06,-6.49966e-05,-4.50702e-05,-0.000256999,30.4901,33.4168,2.28972,18.6817,38.5706,26.419,1.2071,33.0101,213,3.8567,19.4217,0.075,14950
4.59382e-07,-4.15815e-07,-1.6236e-06,-0.000150895,-0.000100794,-0.000213043,8.74533,16.104,-0.382587,9.60768,18.3107,7.06076,-0.904693,16.7218,213,2.08122,18.18,0.075,14951
3.81486e-07,-3.3722e-07,-1.59322e-06,-0.00013601,-0.000112266,-0.000208707,11.6558,15.1433,0.978494,7.93924,16.3251,11.006,0.446571,13.9986,213,2.78583,17.4643,0.075,14952
-7.75826e-08,1.40495e-07,-1.55962e-06,-3.57217e-05,-5.31987e-05,-0.000275103,35.0743,32.5073,-0.0849002,17.6104,35.1163,32.4849,-0.104492,33.9816,213,12.7272,6.04908,0.075,14953
-6.27137e-08,2.70644e-08,-1.55892e-06,-3.30495e-05,-2.46588e-05,-0.00028676,37.2945,38.5269,0.0308145,19.2536,38.5335,37.2924,0.0263427,37.9018,213,12.2019,9.26465,0.075,14954
-9.31279e-08,4.0914e-08,-1.55864e-06,-4.12598e-05,-2.66156e-05,-0.000283015,35.4884,37.6393,-0.0194111,18.8387,37.6506,35.4844,-0.0267433,36.6423,213,13.0305,8.71326,0.075,14955
-1.90426e-10,9.94093e-08,-1.55926e-06,-2.59506e-05,-4.12918e-05,-0.000283161,37.7825,35.5292,0.00468305,18.8972,37.7908,35.5293,-0.0036662,36.716,213,10.0592,6.98558,0.075,14956
-1.73594e-09,6.40884e-08,-1.55924e-06,-2.6568e-05,-3.1087e-05,-0.00028705,38.2244,37.5606,-0.033909,19.1319,38.2271,37.5606,-0.0366844,37.935,213,10.1186,7.96532,0.075,14957
1.80669e-08,8.13208e-08,-1.55929e-06,-2.6739e-05,-3.59638e-05,-0.000284997,37.9194,36.5645,-0.0121898,18.9735,37.9277,36.5633,-0.0193079,37.2835,213,9.37245,7.45082,0.075,14958
1.1856e-08,1.17432e-07,-1.55898e-06,-2.63422e-05,-4.54225e-05,-0.000281795,37.4299,34.6275,-0.0897782,18.77,37.4409,34.6259,-0.0991208,36.2146,213,9.59369,6.56826,0.075,14959
3.46801e-08,1.0944e-07,-1.55939e-06,-2.81049e-05,-4.32537e-05,-0.000281973,37.1924,34.9674,-0.0944204,18.6525,37.2037,34.963,-0.101331,36.2367,213,8.75743,6.73277,0.075,14960
4.99804e-08,-6.56989e-07,-1.50206e-06,-2.01803e-05,-0.000143576,-0.000248455,32.853,14.7293,-0.674754,16.958,33.0622,14.6993,-0.853909,29.4057,213,6.98901,20.4079,0.075,14961
3.65743e-08,-6.77469e-07,-1.50149e-06,-1.767e-05,-0.000151292,-0.000245428,33.0182,13.3925,-0.433717,17.0334,33.3421,13.3596,-0.724686,29.6497,213,7.68112,20.507,0.075,14962
-1.74513e-07,4.52766e-08,-1.55417e-06,-6.44639e-05,-2.73006e-05,-0.000272362,30.8431,36.3015,0.308011,18.0242,36.3314,30.8381,0.283058,33.6398,213,14.6303,8.51361,0.075,14963
-7.08883e-08,-4.5193e-07,-1.59107e-06,-3.07782e-05,-0.000131125,-0.000251247,31.2086,16.4702,-1.17273,16.5233,31.5641,16.4245,-1.48254,28.6527,213,12.9966,18.1412,0.075,14964
-7.61394e-08,-3.43262e-07,-1.57782e-06,-3.28995e-05,-0.000113136,-0.000253534,32.1665,20.3818,-0.239229,16.3104,32.2919,20.3461,-0.328895,28.5856,213,13.0166,17.2514,0.075,14965
-3.00253e-07,2.61259e-07,-1.55461e-06,-0.000102379,-9.07623e-05,-0.000233299,19.45,21.1563,0.221158,10.9293,21.8809,18.9243,0.0222777,20.5405,213,16.3964,4.0876,0.075,14966
-2.40288e-07,3.0243e-07,-1.54968e-06,-8.5822e-05,-0.000103799,-0.000234692,22.0808,19.4403,0.215544,11.2968,22.6199,19.0904,0.0263737,21.0519,213,15.7879,3.70378,0.075,14967
-1.63612e-07,2.72505e-07,-1.55368e-06,-5.83368e-05,-9.29047e-05,-0.000251943,28.0925,23.0153,-0.34343,14.3733,28.3056,22.8998,-0.440975,26.4611,213,14.6911,4.07261,0.075,14968
-2.06105e-07,2.36235e-07,-1.55611e-06,-7.45398e-05,-8.10911e-05,-0.000248888,25.5879,24.6257,-0.0194523,13.1531,26.1733,24.1536,-0.132807,25.3567,213,15.2997,4.45643,0.075,14969
6.11727e-08,3.00452e-07,-1.55623e-06,-3.05708e-05,-0.000103331,-0.000259359,33.0982,22.4116,-0.505101,16.8938,33.1926,22.4072,-0.595019,29.8917,213,7.77273,3.90913,0.075,14970
5.3717e-08,3.88394e-07,-1.56097e-06,-2.89842e-05,-0.000134965,-0.000241595,32.1831,16.6172,0.955937,15.7607,32.3289,16.6198,0.807543,27.2984,213,7.98885,3.16148,0.075,14971
3.61545e-10,-5.91511e-09,-1.55908e-06,-2.65863e-05,-2.42616e-05,-0.000289717,38.6086,38.95,-0.0388014,19.4946,38.9503,38.6083,-0.0388579,38.8193,213,10.033,10.6324,0.075,14972
2.31629e-08,4.16835e-09,-1.55916e-06,-2.8414e-05,-2.35552e-05,-0.00028939,38.266,38.9796,-0.064908,19.5227,38.9801,38.266,-0.0653717,38.6933,213,9.20419,10.2083,0.075,14973
-4.06938e-09,1.49949e-08,-1.55905e-06,-2.63976e-05,-2.38368e-05,-0.00028986,38.6804,39.0565,-0.015611,19.5362,39.0565,38.6805,-0.0157759,38.8857,213,10.2017,9.76041,0.075,14974
1.30766e-07,4.7514e-08,-1.55897e-06,-5.16615e-05,-2.76003e-05,-0.000279127,33.2598,36.7938,-0.149284,18.4896,36.8139,33.2557,-0.165233,35.3346,213,6.23886,8.44713,0.075,14975
8.51679e-08,5.91273e-08,-1.55982e-06,-3.74501e-05,-3.11564e-05,-0.000283067,35.9748,36.8992,-0.100132,18.517,36.9259,35.9559,-0.107956,36.5585,213,7.25454,8.07902,0.075,14976
9.08034e-08,3.46508e-08,-1.55949e-06,-3.93233e-05,-2.53009e-05,-0.000284501,35.9378,37.9974,-0.0725712,19.0436,38.008,35.9339,-0.0792297,37.0937,213,7.12781,8.94468,0.075,14977
-8.18781e-08,8.11867e-07,-1.52475e-06,-3.55719e-05,-0.000221726,-0.000211609,25.2933,-2.04799,-0.56211,14.3587,26.2942,-1.18782,-2.42316,28.12,213,12.9258,0.734755,0.075,14978
-9.18193e-08,6.66564e-07,-1.60481e-06,-3.76339e-05,-0.000192339,-0.000217451,26.9983,4.27601,0.587705,13.9977,27.783,4.29138,-0.212359,26.0373,213,13.2395,1.43821,0.075,14979
1.50084e-07,-2.12901e-08,-1.55822e-06,-5.5678e-05,-2.2897e-05,-0.000278496,32.793,37.6077,0.0665541,18.7846,37.6216,32.7933,0.0523516,35.4029,213,5.88928,11.2876,0.075,14980
2.45798e-07,-1.34718e-08,-1.55324e-06,-8.44643e-05,-2.31178e-05,-0.000269015,26.7401,35.7503,-0.365756,18.1179,35.8102,26.7401,-0.425642,32.6594,213,4.52892,10.9352,0.075,14981
1.77326e-07,-1.00388e-08,-1.55608e-06,-6.51567e-05,-2.30667e-05,-0.000273838,30.9344,37.1164,0.28441,18.4347,37.135,30.9345,0.265642,34.1934,213,5.44489,10.7973,0.075,14982
7.79099e-08,-5.82653e-07,-1.51784e-06,-2.95587e-05,-4.04025e-05,-0.000261732,39.0013,37.4086,4.90092,18.2987,40.7738,36.3607,4.17634,34.6026,213,6.35947,19.5329,0.075,14983
5.90742e-07,-3.84244e-07,-1.63153e-06,-0.000182175,-0.000106515,-0.000204216,1.51766,12.6302,-1.7196,8.41275,13.7468,1.76006,-3.07865,15.0032,213,1.39325,17.8251,0.075,14984
1.68269e-07,1.01494e-07,-1.55866e-06,-6.05879e-05,-4.14294e-05,-0.000269855,30.6885,33.5024,-0.0476496,16.8273,33.5738,30.6502,-0.0807685,32.2922,213,5.50714,6.81298,0.075,14985
4.15519e-08,5.54503e-08,-1.55953e-06,-2.97753e-05,-3.00821e-05,-0.000286453,37.6033,37.5582,-0.0962208,18.8727,37.6464,37.5177,-0.0988951,37.6811,213,8.5526,8.22979,0.075,14986
-3.12671e-07,6.32686e-08,-1.55849e-06,-0.000106265,-3.00263e-05,-0.000257523,21.9288,33.1263,-0.287251,16.7811,33.2063,21.9175,-0.355942,29.5801,213,16.3179,7.81904,0.075,14987
-2.95671e-07,8.42797e-08,-1.55719e-06,-0.000102404,-3.49704e-05,-0.0002548,22.6491,32.5535,0.266042,16.2196,32.636,22.6359,0.196809,28.7734,213,16.1788,7.1804,0.075,14988
-3.88093e-07,8.36174e-08,-1.56868e-06,-0.000128146,-3.42931e-05,-0.00025008,16.9668,30.7514,-0.942298,16.0333,30.9404,16.9616,-1.12614,27.8464,213,16.9846,7.15321,0.075,14989
4.12825e-08,2.6946e-07,-1.55109e-06,-2.72876e-05,-9.19858e-05,-0.00026804,34.1362,24.6337,-1.22427,17.7621,34.2182,24.6335,-1.306,31.8331,213,8.47188,4.24482,0.075,14990
2.14319e-08,2.42009e-07,-1.55233e-06,-2.66582e-05,-8.2963e-05,-0.000263152,35.5877,27.318,0.852762,17.4141,35.6344,27.3177,0.806294,31.5042,213,9.19119,4.56228,0.075,14991
-3.8905e-08,-2.81813e-08,-1.55929e-06,-2.90539e-05,-2.56735e-05,-0.0002882,38.0254,38.5219,-0.0367844,19.2836,38.5284,38.0209,-0.0387535,38.3159,213,11.4536,11.5476,0.075,14992
-1.7393e-08,-3.72497e-08,-1.5593e-06,-2.75548e-05,-2.65245e-05,-0.00028869,38.2603,38.4116,-0.0940003,19.2556,38.4163,38.2565,-0.0949516,38.4316,213,10.6928,11.8885,0.075,14993
-3.56166e-08,-5.11971e-08,-1.55944e-06,-2.85109e-05,-2.893e-05,-0.000287159,37.9488,37.8872,-0.0402035,19.0218,38.0003,37.8388,-0.0433131,37.9631,213,11.3556,12.3893,0.075,14994
-2.19475e-07,-8.03697e-08,-1.55896e-06,-7.85118e-05,-3.41527e-05,-0.00026873,27.1659,33.6811,-0.772382,17.289,33.7486,27.1554,-0.829349,31.7982,213,15.3312,13.4122,0.075,14995
-2.32729e-07,-1.07025e-07,-1.55742e-06,-8.32851e-05,-4.07489e-05,-0.000263004,25.9373,32.1848,-0.458909,16.4081,32.2829,25.9136,-0.53325,30.1405,213,15.5272,14.1352,0.075,14996
-3.16371e-07,-9.59409e-08,-1.55666e-06,-0.000108787,-3.72022e-05,-0.00025198,21.1701,31.6841,0.138492,15.869,31.7817,21.1673,0.043657,27.9837,213,16.3904,13.8893,0.075,14997
3.0563e-07,8.49298e-08,-1.55473e-06,-0.000106028,-3.52582e-05,-0.000253515,21.8714,32.2657,0.209325,16.1148,32.3578,21.8604,0.128234,28.4713,213,3.83439,7.14974,0.075,14998
3.48069e-07,6.18737e-08,-1.55758e-06,-0.000117345,-2.95663e-05,-0.000252803,19.7501,32.6425,-0.145453,16.4914,32.745,19.7398,-0.237706,28.7758,213,3.48193,7.85178,0.075,14999
-3.11392e-07,-7.05426e-09,-1.55504e-06,-0.00010674,-2.23689e-05,-0.000258482,22.4408,34.8328,0.153661,17.4324,34.9257,22.4407,0.0609302,30.5964,213,16.258,10.647,0.075,15000
-2.27242e-07,-1.85955e-08,-1.55295e-06,-7.84866e-05,-2.38184e-05,-0.000266322,28.363,36.3924,0.774684,17.8455,36.4301,28.3609,0.739072,32.4186,213,15.3515,11.1495,0.075,15001
-2.51233e-07,-3.61819e-08,-1.55731e-06,-8.74364e-05,-2.3804e-05,-0.00026503,26.334,35.68,0.249925,17.7501,35.7178,26.3284,0.21769,31.8606,213,15.6635,11.8856,0.075,15002
-3.44876e-07,-2.36578e-08,-1.56256e-06,-0.000115929,-2.26604e-05,-0.000258158,20.2354,33.9342,-0.654467,17.4332,34.0754,20.2307,-0.790969,30.4076,213,16.57,11.3831,0.075,15003
8.03624e-08,1.17682e-07,-1.56003e-06,-3.69284e-05,-4.59822e-05,-0.000277946,35.1931,33.8633,-0.206403,17.7366,35.2511,33.821,-0.222085,34.7802,213,7.32511,6.5117,0.075,15004
6.51258e-08,1.66416e-07,-1.55914e-06,-3.32791e-05,-5.93797e-05,-0.000273352,35.2474,31.4138,-0.0133013,17.6662,35.2905,31.3991,-0.0417717,33.5563,213,7.71428,5.59967,0.075,15005
-2.13964e-08,-7.62119e-08,-1.5593e-06,-2.70134e-05,-3.49304e-05,-0.000285467,37.906,36.7432,-0.0543113,18.9864,37.9137,36.7403,-0.0591386,37.4,213,10.8656,13.1689,0.075,15006
-3.10957e-08,-1.11915e-07,-1.55849e-06,-2.80392e-05,-4.35591e-05,-0.000282511,37.1293,34.8498,-0.246282,18.704,37.1473,34.8461,-0.260587,36.312,213,11.2407,14.0855,0.075,15007
-6.80455e-08,-1.04818e-07,-1.55903e-06,-3.33143e-05,-4.167e-05,-0.000281399,36.142,34.9148,-0.295378,18.2533,36.1947,34.8787,-0.311892,35.8667,213,12.4481,13.9467,0.075,15008
-5.70312e-08,-7.0733e-08,-1.55969e-06,-3.21558e-05,-3.34498e-05,-0.000284033,36.9425,36.7525,-0.0519893,18.5334,37.0104,36.6889,-0.0563109,36.907,213,12.073,13.0302,0.075,15009
-5.28284e-07,-3.27529e-07,-1.61976e-06,-0.000168356,-0.000106318,-0.000206617,4.63306,13.7449,-0.986448,8.68087,15.0524,4.64845,-2.30934,15.1341,213,18.2455,17.3536,0.075,15010
-5.92009e-07,-2.62587e-07,-1.60458e-06,-0.000180882,-8.46554e-05,-0.000222447,2.16789,16.3011,-3.93696,11.2304,17.3956,2.20162,-5.06515,19.8513,213,18.4864,16.6356,0.075,15011
-7.03742e-07,-3.44685e-07,-1.56719e-06,-0.000203879,-0.000113103,-0.000193942,-3.35392,9.97869,-1.8944,8.07488,11.193,-1.5058,-4.95679,14.7306,213,19.2026,17.3498,0.075,15012
-3.81753e-07,6.48736e-09,-1.56212e-06,-0.000128301,-2.28246e-05,-0.000251781,17.8423,33.3343,-0.293769,16.9352,33.4555,17.8421,-0.414768,29.3623,213,16.8561,10.0413,0.075,15013
-4.51635e-07,2.87599e-08,-1.5764e-06,-0.000150084,-2.34403e-05,-0.000232049,14.3938,32.9946,2.35511,15.4675,33.1397,14.3991,2.20472,26.9897,213,17.3739,9.09947,0.075,15014
-5.35835e-07,1.26044e-08,-1.59264e-06,-0.000167182,-2.34349e-05,-0.000232147,10.2757,31.3886,0.733962,15.7346,31.7946,10.2782,0.325434,27.8597,213,17.8927,9.77091,0.075,15015
-4.53591e-07,-8.64131e-09,-1.57593e-06,-0.000145952,-2.13782e-05,-0.000262271,12.7549,31.0517,-4.32943,17.7691,31.1309,12.7537,-4.4074,30.783,213,17.375,10.7127,0.075,15016
-3.84308e-07,-3.39269e-07,-1.59281e-06,-0.000136868,-0.000113234,-0.000209857,11.2518,14.7229,0.53143,7.92842,15.863,10.6369,0.0061823,13.9958,213,17.3406,17.487,0.075,15017
-4.63503e-07,-4.19336e-07,-1.62214e-06,-0.000152184,-0.000101133,-0.000205534,9.10573,16.6038,1.26997,9.58161,19.345,7.45273,0.181773,16.7559,213,18.0453,18.2027,0.075,15018
-2.09877e-07,9.18028e-08,-1.5566e-06,-7.3276e-05,-3.79787e-05,-0.000267033,28.2253,33.4095,-0.232837,16.8854,33.4854,28.2021,-0.285448,31.4636,213,15.2063,7.0302,0.075,15019
-2.22825e-07,6.93906e-08,-1.55479e-06,-7.71403e-05,-3.18031e-05,-0.000269757,27.6192,34.2781,-0.671317,17.5383,34.3527,27.5972,-0.723915,32.2342,213,15.3453,7.66884,0.075,15020
7.87192e-08,7.98718e-07,-1.53553e-06,-3.43793e-05,-0.000220637,-0.000211456,25.696,-1.66051,-0.312131,14.4065,26.79,-1.04363,-2.02301,28.336,213,7.25264,0.795879,0.075,15021
6.15e-08,6.39903e-07,-1.61272e-06,-3.12993e-05,-0.000185969,-0.000224992,28.4114,5.69424,-0.0372333,15.0002,29.1887,5.69148,-0.811772,27.3353,213,7.6936,1.59158,0.075,15022
7.86336e-09,-6.89869e-07,-1.50288e-06,-1.3612e-05,-0.000159621,-0.000236326,34.0656,12.6205,1.3545,16.607,34.3211,12.6124,1.10716,29.213,213,9.52276,20.5393,0.075,15023
2.16445e-08,-6.81879e-07,-1.50188e-06,-1.52151e-05,-0.0001537,-0.000246093,33.3209,12.9808,-0.589312,17.2133,33.5797,12.9797,-0.846923,30.006,213,8.59476,20.507,0.075,15024
1.76983e-08,-6.0521e-07,-1.51424e-06,-1.76795e-05,-4.00985e-05,-0.000253473,42.6567,39.3639,8.02461,17.9851,43.3614,39.2926,7.39121,34.1182,213,8.97958,19.6643,0.075,15025
-8.99413e-07,-3.79916e-07,-1.31879e-06,-0.000225705,-0.000123871,-0.000144436,-4.97903,9.97778,6.95731,8.90904,12.2862,5.20165,-5.53184,15.5384,213,20.075,17.3468,0.075,15026
-8.92864e-07,-4.44151e-07,-1.35655e-06,-0.000206773,-0.000131801,-0.000152225,-1.89808,9.11341,6.11369,7.91882,13.2881,2.59052,-2.54957,13.9944,213,20.075,17.8264,0.1125,15027
-1.33477e-07,-1.83654e-08,-1.55685e-06,-5.23168e-05,-2.37498e-05,-0.000279744,33.4045,37.6003,0.00116744,18.8144,37.6153,33.4042,-0.0134884,35.7099,213,13.8946,11.1588,0.075,15028
-1.62259e-07,-4.25283e-09,-1.55388e-06,-5.93095e-05,-2.33214e-05,-0.000276955,32.0246,37.3104,0.0580087,18.6459,37.3302,32.0245,0.0383107,34.9425,213,14.4042,10.5548,0.075,15029
8.9453e-07,-4.44202e-07,-1.35774e-06,-0.000199135,-0.000131826,-0.000150819,0.0666803,9.95273,7.16318,7.92122,14.9646,3.09574,-0.877792,14.2766,213,0.025,17.8264,0.1125,15030
9.01325e-07,-3.80283e-07,-1.32775e-06,-0.000226669,-0.000124174,-0.000144534,-5.24817,9.80584,6.81536,9.05245,12.3137,4.8506,-5.79124,15.7597,213,0.025,17.3468,0.075,15031
5.64165e-08,-6.36313e-08,-1.5595e-06,-3.25035e-05,-3.1748e-05,-0.000285005,36.9272,37.0382,-0.158959,18.6415,37.1197,36.8501,-0.163332,37.149,213,8.05748,12.8134,0.075,15032
4.4352e-08,-9.30066e-08,-1.55873e-06,-2.9339e-05,-3.87535e-05,-0.000282957,37.2244,35.8416,-0.0257499,18.6421,37.2476,35.8293,-0.0366494,36.5957,213,8.41911,13.6406,0.075,15033
3.58804e-08,-6.37583e-08,-1.55933e-06,-2.87679e-05,-3.18007e-05,-0.000285977,37.7292,37.2838,-0.0483923,18.8978,37.7443,37.2715,-0.0512023,37.5613,213,8.72916,12.8033,0.075,15034
-4.52693e-07,4.86574e-08,-1.58029e-06,-0.000148875,-2.61296e-05,-0.000230879,14.5425,32.5707,2.49819,15.177,32.7158,14.5339,2.36174,26.4585,213,17.4084,8.2739,0.075,15035
-5.81747e-07,3.53067e-08,-1.60526e-06,-0.000177517,-2.3284e-05,-0.000244302,6.67006,29.323,-3.13904,16.7024,29.7968,6.66518,-3.60795,29.6352,213,18.1692,8.82396,0.075,15036
2.56235e-07,1.13246e-07,-1.55376e-06,-8.949e-05,-4.40111e-05,-0.000253811,25.0004,31.6801,0.86566,15.4882,31.78,24.9625,0.803625,28.1928,213,4.30679,6.46616,0.075,15037
2.82363e-07,1.46872e-07,-1.55197e-06,-9.69527e-05,-5.30689e-05,-0.000251283,22.5965,29.0419,-0.0708412,14.7071,29.2229,22.5361,-0.191415,26.7063,213,3.99344,5.74894,0.075,15038
-1.51862e-08,-3.82652e-07,-1.58632e-06,-2.23832e-05,-0.000128813,-0.000251763,33.3942,17.7623,-0.295907,16.9807,33.5327,17.7566,-0.42869,29.4361,213,10.7455,17.5223,0.075,15039
-9.18494e-09,-5.77439e-07,-1.53753e-06,-1.85704e-05,-6.95845e-05,-0.000259287,39.1432,31.6505,3.788,19.1839,40.6788,31.5918,2.31107,34.7277,213,10.5607,19.1586,0.075,15040
-2.50886e-08,-4.83989e-07,-1.58639e-06,-2.07468e-05,-0.000122838,-0.000265137,33.096,18.1014,-2.79872,18.3132,33.4635,18.098,-3.16288,31.8561,213,11.2508,18.3355,0.075,15041
1.36661e-07,8.53498e-09,-1.55769e-06,-5.193e-05,-2.3327e-05,-0.000280601,33.4569,37.658,-0.129121,18.9096,37.674,33.4569,-0.145143,35.8969,213,6.14473,10.0013,0.075,15042
1.92799e-07,7.12094e-09,-1.55413e-06,-6.93535e-05,-2.29895e-05,-0.000272298,30.0769,36.8866,0.269477,18.3339,36.9123,30.0762,0.244448,33.7728,213,5.21567,10.0483,0.075,15043
-9.87999e-07,-9.39906e-08,-1.29886e-06,-0.000243624,-4.07839e-05,-0.000156823,-2.67769,27.1145,10.0713,15.3445,27.994,9.20909,-2.69503,26.7993,213,20.075,13.5086,0.075,15044
-1.00142e-06,-1.15765e-07,-1.30088e-06,-0.000232111,-4.50735e-05,-0.00017655,-2.15531,25.3159,6.0053,14.1047,26.0413,5.29261,-2.16806,25.3174,213,20.075,13.9882,0.1125,15045
-1.46862e-08,-2.20646e-07,-1.55657e-06,-2.40627e-05,-7.73788e-05,-0.000271164,35.9846,28.1537,-0.308497,18.1974,36.0369,28.1508,-0.357945,33.1627,213,10.6649,15.908,0.075,15046
6.3516e-09,-2.66094e-07,-1.55943e-06,-2.27932e-05,-9.2311e-05,-0.00026621,35.3571,25.1467,-0.394748,17.9451,35.4266,25.1462,-0.463687,32.013,213,9.76499,16.4315,0.075,15047
-1.32197e-08,-2.91988e-07,-1.56541e-06,-2.30917e-05,-9.9209e-05,-0.000265633,34.6946,23.5148,-0.928653,17.8878,34.7745,23.5073,-1.00109,31.6821,213,10.6222,16.7134,0.075,15048
1.0007e-06,-1.16604e-07,-1.29829e-06,-0.000231002,-4.52415e-05,-0.00017634,-1.88494,25.3987,6.14353,14.0724,26.2393,5.32349,-1.90547,25.3165,213,0.025,13.9882,0.1125,15049
9.8499e-07,-9.52373e-08,-1.28878e-06,-0.000243418,-4.06089e-05,-0.000160721,-2.97614,26.8115,9.17008,15.3413,27.6802,8.32773,-3.00245,26.873,213,0.025,13.5086,0.075,15050
-3.71494e-08,-1.01154e-08,-1.5591e-06,-2.90472e-05,-2.35763e-05,-0.000288891,38.1585,38.962,-0.00605682,19.4857,38.9639,38.1581,-0.00757161,38.5749,213,11.3873,10.8086,0.075,15051
-6.18362e-08,-1.79285e-08,-1.55922e-06,-3.39814e-05,-2.36854e-05,-0.000287407,37.101,38.6132,-0.120946,19.3698,38.6162,37.1004,-0.123344,38.0043,213,12.1737,11.1411,0.075,15052
3.55009e-08,3.48422e-07,-1.54715e-06,-2.6769e-05,-0.000118914,-0.000255692,32.8981,19.3644,-0.724918,16.9202,33.007,19.3641,-0.833493,29.4894,213,8.688,3.49717,0.075,15053
1.01308e-06,-4.82928e-08,-1.30222e-06,-0.000241122,-2.59986e-05,-0.000191871,-3.97016,27.6261,3.26366,16.1743,28.3763,2.51572,-3.97239,29.642,213,0.025,12.0691,0.1125,15054
9.99822e-07,-3.7698e-08,-1.29193e-06,-0.000248975,-2.56189e-05,-0.000168383,-3.62658,29.1788,8.21035,16.6501,29.6697,7.72343,-3.63053,29.3211,213,0.025,11.5895,0.075,15055
6.62277e-08,-9.9859e-08,-1.55895e-06,-3.36331e-05,-4.01965e-05,-0.000281053,36.2355,35.2715,-0.104273,18.1999,36.2844,35.2337,-0.115379,35.886,213,7.71254,13.8281,0.075,15056
8.89494e-08,-1.20328e-07,-1.55906e-06,-3.92331e-05,-4.70593e-05,-0.000275827,34.7365,33.587,-0.0132303,17.4248,34.821,33.5179,-0.0286261,34.2167,213,7.07232,14.3204,0.075,15057
1.88174e-07,-1.40375e-07,-1.55536e-06,-6.88763e-05,-5.1664e-05,-0.000264308,28.2583,30.7863,-0.445796,15.735,30.9828,28.1032,-0.48717,30.1335,213,5.12147,14.8248,0.075,15058
2.44339e-07,-1.10101e-07,-1.5563e-06,-8.57718e-05,-4.19441e-05,-0.000261719,25.3481,31.7853,-0.49409,16.2285,31.8885,25.3192,-0.56841,29.7218,213,4.44025,14.2153,0.075,15059
2.03658e-07,-1.73888e-07,-1.55019e-06,-7.5301e-05,-6.11217e-05,-0.000252136,26.9678,29.0504,0.995129,14.2209,29.3823,26.6905,0.940565,27.1959,213,4.84822,15.4337,0.075,15060
6.25689e-08,3.39274e-08,-1.55945e-06,-3.40472e-05,-2.54676e-05,-0.000286408,37.0121,38.2722,-0.0533883,19.1681,38.2791,37.009,-0.0571592,37.7172,213,7.9018,8.99253,0.075,15061
6.98745e-08,4.96128e-08,-1.5597e-06,-3.51297e-05,-2.89457e-05,-0.000284694,36.587,37.4953,-0.0677676,18.7928,37.5118,36.5764,-0.0737217,37.1267,213,7.68147,8.40838,0.075,15062
6.42341e-07,-1.51686e-07,-1.59903e-06,-0.000189149,-5.33773e-05,-0.000245874,0.914686,20.8561,-7.41681,14.7699,21.4913,0.911294,-8.04858,26.2337,213,1.50471,15.001,0.075,15063
6.13847e-07,-1.14143e-07,-1.60939e-06,-0.000181374,-4.06252e-05,-0.000224842,5.94106,26.6135,-0.443287,14.2337,27.2815,6.01578,-1.18597,25.6368,213,1.70788,14.2404,0.075,15064
5.22007e-07,-1.46739e-07,-1.5892e-06,-0.000170733,-5.31082e-05,-0.00021643,8.11786,25.394,1.40616,12.46,25.8609,8.11627,0.940864,22.219,213,2.16859,14.9804,0.075,15065
5.44535e-07,-1.93046e-07,-1.59701e-06,-0.000180323,-6.54881e-05,-0.00018216,7.85914,24.7254,7.58921,9.51171,25.5533,8.09063,6.52985,18.293,213,1.96542,15.741,0.075,15066
1.44226e-07,-1.6261e-07,-1.55567e-06,-5.42896e-05,-5.75861e-05,-0.000268309,30.8367,30.3525,-0.597378,16.0061,31.3654,29.8733,-0.64688,31.2929,213,5.79838,15.1872,0.075,15067
1.56913e-07,-2.31304e-07,-1.55389e-06,-5.73215e-05,-8.14479e-05,-0.000257166,28.9192,25.3756,-0.432913,14.8848,29.2442,25.1431,-0.525426,27.9457,213,5.46183,16.2005,0.075,15068
1.17375e-07,-2.12739e-07,-1.55544e-06,-4.73555e-05,-7.57531e-05,-0.000262785,31.3215,27.1506,-0.319756,15.935,31.4967,27.0289,-0.37326,29.8876,213,6.25348,15.9101,0.075,15069
-9.37109e-07,2.909e-07,-1.30248e-06,-0.000232317,-9.22414e-05,-0.000142536,-3.43412,17.1394,9.75242,11.1181,18.6832,8.32755,-3.55302,19.2722,213,20.075,3.91318,0.075,15070
-9.62537e-07,2.501e-07,-1.31878e-06,-0.000222065,-8.34377e-05,-0.000152634,-1.09131,19.2696,9.10647,11.1702,21.1375,7.35008,-1.20284,19.5235,213,20.075,4.39273,0.1125,15071
8.44939e-07,7.6604e-07,-1.20747e-06,-0.000189826,-0.000191435,-0.000147243,-2.93311,-3.16945,3.32135,5.26958,5.43461,-3.11127,-5.10455,9.6974,213,0.025,0.554545,0.1125,15072
8.16874e-07,8.41927e-07,-1.02657e-06,-0.000193128,-0.000193271,-0.000122502,-1.58598,-1.60695,8.78729,6.01781,9.35318,-1.0764,-2.68243,11.3184,213,0.025,0.075,0.075,15073
-3.61383e-07,1.65093e-07,-1.55544e-06,-0.00012256,-5.66863e-05,-0.000263011,15.0076,24.6829,-5.62112,15.2837,24.8183,15.0003,-5.74922,27.0306,213,16.8486,5.36852,0.075,15074
-3.9265e-07,2.27183e-07,-1.56539e-06,-0.000133174,-8.0672e-05,-0.000244862,11.9112,19.6224,-4.49304,12.2791,19.8624,11.874,-4.69588,21.6966,213,17.1513,4.43916,0.075,15075
-5.0762e-07,1.7095e-07,-1.58534e-06,-0.000168944,-5.86501e-05,-0.000199294,9.63165,25.831,5.17394,11.1041,26.541,9.76286,4.33278,20.0524,213,17.871,5.26844,0.075,15076
9.62314e-07,2.50219e-07,-1.31591e-06,-0.000222179,-8.34483e-05,-0.000151444,-1.0084,19.3676,9.38075,11.1263,21.122,7.74863,-1.13066,19.4019,213,0.025,4.39273,0.1125,15077
9.37262e-07,2.91096e-07,-1.30117e-06,-0.000231629,-9.21145e-05,-0.000143946,-3.38887,17.1024,9.4896,11.079,18.629,8.1032,-3.52908,19.1974,213,0.025,3.91318,0.075,15078
7.52573e-07,-6.04629e-07,-1.34357e-06,-0.000217183,-5.73508e-05,-0.000149649,2.79923,26.2746,12.7184,14.7037,28.9638,13.272,-0.443566,25.4867,213,0.025,19.2659,0.075,15079
6.84608e-07,-6.28898e-07,-1.38219e-06,-0.00023408,-4.41931e-05,-0.00017124,-2.05,25.8397,7.17967,15.6717,27.6749,6.96299,-3.66847,27.6081,213,0.025,19.7455,0.1125,15080
-3.18298e-08,1.65487e-07,-1.55928e-06,-2.77874e-05,-5.91447e-05,-0.000276286,36.3149,31.7093,-0.183287,18.2718,36.3384,31.7077,-0.205142,34.4623,213,11.2723,5.63937,0.075,15081
-5.10023e-08,1.38946e-07,-1.55976e-06,-3.0194e-05,-5.26421e-05,-0.000277729,36.2094,32.9123,-0.147322,18.2003,36.2348,32.9054,-0.165778,34.8553,213,11.9217,6.1026,0.075,15082
-1.01225e-06,-4.83304e-08,-1.34009e-06,-0.000232823,-2.56602e-05,-0.000187268,-1.51366,28.9133,5.17714,15.5684,29.6198,4.47405,-1.51703,28.6155,213,20.075,12.0691,0.1125,15083
-1.00144e-06,-3.84046e-08,-1.33703e-06,-0.000246987,-2.39631e-05,-0.000167255,-2.88872,29.8679,8.82188,16.7195,30.5495,8.14121,-2.8896,29.5125,213,20.075,11.5895,0.075,15084
1.01265e-06,5.85605e-08,-1.29231e-06,-0.000233677,-3.02885e-05,-0.000183533,-1.80236,28.0703,5.56246,15.2914,28.7454,4.9223,-1.83731,27.8257,213,0.025,8.23091,0.1125,15085
9.91057e-07,7.357e-08,-1.29825e-06,-0.000249322,-3.30191e-05,-0.000171267,-4.67147,27.0981,6.79286,16.1702,27.6292,6.30145,-4.71119,28.4786,213,0.025,7.75136,0.075,15086
2.3473e-07,4.02982e-07,-1.55535e-06,-8.28871e-05,-0.000137374,-0.000228133,20.261,12.2582,-1.07202,11.0101,20.6609,12.1455,-1.35925,19.2325,213,4.31181,2.87678,0.075,15087
1.65918e-07,3.71801e-07,-1.54678e-06,-5.81397e-05,-0.000129863,-0.000239023,25.893,15.3586,-0.674218,13.4176,26.046,15.3206,-0.789172,23.3953,213,5.31862,3.18454,0.075,15088
1.67138e-07,5.15741e-07,-1.58439e-06,-5.71019e-05,-0.000166765,-0.000222723,24.2169,8.11016,-0.108734,12.7673,24.8009,8.15113,-0.733711,22.4519,213,5.2516,2.20073,0.075,15089
1.02234e-06,3.53658e-09,-1.2763e-06,-0.000245444,-2.71683e-05,-0.000179053,-3.92007,28.1391,5.83103,16.4363,28.9438,5.0351,-3.92885,29.4329,213,0.025,10.15,0.1125,15090
1.0063e-06,1.62311e-08,-1.27337e-06,-0.000252419,-2.71162e-05,-0.000166841,-4.45035,28.641,8.11892,16.8592,29.2603,7.50753,-4.45823,29.6083,213,0.025,9.67045,0.075,15091
8.05984e-08,-6.92592e-08,-1.55969e-06,-3.69279e-05,-3.31383e-05,-0.000282584,35.9601,36.5167,-0.120664,18.3531,36.5776,35.9072,-0.128656,36.3757,213,7.35091,13.0008,0.075,15092
-9.47399e-08,5.62636e-08,-1.55908e-06,-4.15893e-05,-2.97308e-05,-0.00028179,35.2325,36.9742,-0.046967,18.5265,36.9963,35.2201,-0.0566399,36.1975,213,13.0857,8.16377,0.075,15093
-6.53495e-08,4.5572e-08,-1.55918e-06,-3.3454e-05,-2.78662e-05,-0.000285534,37.0121,37.8328,-0.0120843,18.9328,37.8491,37.0003,-0.0165269,37.4484,213,12.2915,8.55455,0.075,15094
1.29056e-07,5.99736e-07,-1.6059e-06,-4.82057e-05,-0.000176076,-0.000238537,24.0067,5.22571,-3.94823,14.6516,24.6625,5.26236,-4.64067,25.8177,213,5.95636,1.75322,0.075,15095
7.51725e-08,-3.32203e-07,-1.57771e-06,-3.15925e-05,-0.000110963,-0.000253967,32.6432,20.9857,-0.0180488,16.4158,32.7471,20.9481,-0.0843823,28.8053,213,7.14751,17.155,0.075,15096
7.76017e-08,-2.53676e-07,-1.56103e-06,-3.35972e-05,-8.75425e-05,-0.000265591,33.264,25.3407,-0.810178,17.1226,33.3679,25.304,-0.877367,31.0099,213,7.17653,16.3619,0.075,15097
-1.01464e-06,5.91988e-08,-1.31934e-06,-0.000234075,-3.03694e-05,-0.000185967,-2.13314,27.7861,4.93272,15.3742,28.5809,4.1723,-2.16756,28.1198,213,20.075,8.23091,0.1125,15098
-9.93803e-07,7.39066e-08,-1.32469e-06,-0.000250426,-3.18535e-05,-0.000173381,-5.02544,27.0775,6.29062,16.3676,27.6761,5.72561,-5.05907,28.894,213,20.075,7.75136,0.075,15099
-9.59351e-07,-2.01513e-07,-1.3262e-06,-0.000241434,-6.90984e-05,-0.000131175,-2.40049,22.9113,13.7937,13.626,24.7313,12.0938,-2.52058,23.6215,213,20.075,15.4277,0.075,15100
-9.64479e-07,-2.38276e-07,-1.3206e-06,-0.000218558,-8.25285e-05,-0.000173567,-2.12001,17.8594,4.48816,11.0107,19.8285,2.59201,-2.19298,20.0616,213,20.075,15.9073,0.1125,15101
1.06581e-07,-4.04243e-07,-1.59162e-06,-4.32982e-05,-0.000128702,-0.000246114,28.9059,16.3623,-0.882596,15.2417,29.2861,16.2967,-1.19723,26.4952,213,6.18395,17.8027,0.075,15102
1.47353e-07,-4.36526e-07,-1.5932e-06,-5.35362e-05,-0.000117222,-0.000243068,27.8029,18.449,-0.0346819,14.4427,28.4838,18.135,-0.401556,25.3482,213,5.27832,18.1222,0.075,15103
9.60573e-07,-2.0089e-07,-1.33021e-06,-0.000241561,-6.96037e-05,-0.00012635,-2.02718,23.229,14.8944,13.6132,25.0511,13.2204,-2.17528,23.646,213,0.025,15.4277,0.075,15104
9.63656e-07,-2.38196e-07,-1.32805e-06,-0.000218757,-8.32182e-05,-0.000165428,-1.47141,18.4358,6.36129,11.1749,20.7837,4.10797,-1.56602,20.122,213,0.025,15.9073,0.1125,15105
5.0498e-07,1.70839e-07,-1.58573e-06,-0.000167661,-5.82603e-05,-0.000201647,9.75635,25.8246,4.76479,11.3404,26.5651,9.89626,3.88439,20.352,213,2.24947,5.27402,0.075,15106
3.89777e-07,2.24307e-07,-1.56355e-06,-0.000132393,-7.9648e-05,-0.000243699,12.3034,20.0502,-4.0448,12.2745,20.2981,12.2616,-4.2509,21.6783,213,2.97629,4.47665,0.075,15107
3.64482e-07,1.63084e-07,-1.55318e-06,-0.000123978,-5.59408e-05,-0.000262053,14.8262,24.8191,-5.45364,15.2566,24.9451,14.8148,-5.56821,26.9179,213,3.23339,5.40231,0.075,15108
-7.72413e-08,2.27504e-09,-1.55882e-06,-3.69679e-05,-2.37178e-05,-0.000285481,36.5603,38.5064,0.0599552,19.229,38.5121,36.5603,0.0542192,37.5201,213,12.606,10.287,0.075,15109
5.92812e-07,3.56386e-08,-1.61129e-06,-0.000175151,-2.36498e-05,-0.000244655,7.17136,29.4231,-3.03704,16.7887,29.9818,7.17125,-3.59561,29.6959,213,1.88388,8.77906,0.075,15110
7.95568e-07,2.57543e-08,-1.53738e-06,-0.000224935,-2.61032e-05,-0.000199462,-0.799031,28.4044,2.94229,14.9951,29.1821,2.17366,-0.808066,28.616,213,0.863594,9.23725,0.075,15111
7.91963e-07,3.38884e-09,-1.54493e-06,-0.000223451,-2.38816e-05,-0.000198384,-0.133979,29.1778,3.54774,14.9922,29.8323,2.91124,-0.152006,28.5761,213,0.889564,10.1645,0.075,15112
5.90005e-07,1.41218e-08,-1.61093e-06,-0.000173403,-2.27991e-05,-0.000244007,7.73165,29.8516,-2.6383,16.801,30.4073,7.73229,-3.19464,29.6871,213,1.90985,9.70633,0.075,15113
-1.49028e-08,3.0877e-07,-1.55185e-06,-2.42921e-05,-0.000105929,-0.000260566,34.2515,22.261,-0.451272,17.4376,34.3377,22.261,-0.537457,30.6749,213,10.6409,3.85887,0.075,15114
-2.95744e-08,3.73223e-07,-1.55655e-06,-2.4754e-05,-0.000124916,-0.000251658,33.1985,18.4871,-0.128062,16.7886,33.3248,18.4851,-0.252425,29.144,213,11.256,3.29796,0.075,15115
2.56216e-08,4.48753e-07,-1.55839e-06,-2.5461e-05,-0.000153654,-0.000220936,33.214,14.3857,4.50358,14.5515,33.3998,14.4068,4.29675,25.5923,213,9.03593,2.75352,0.075,15116
8.85108e-09,5.37959e-07,-1.58885e-06,-2.34254e-05,-0.000163647,-0.000242694,30.7356,10.1405,-1.46943,16.4924,31.125,10.1415,-1.85985,28.9166,213,9.70211,2.21938,0.075,15117
7.95171e-09,3.67692e-07,-1.54662e-06,-2.47228e-05,-0.000127039,-0.000240829,34.0198,18.9921,2.2792,15.9643,34.1136,18.9925,2.18498,27.6638,213,9.70211,3.35343,0.075,15118
3.13568e-07,-2.72446e-07,-1.56069e-06,-0.000108987,-9.08611e-05,-0.000226009,18.5342,21.1964,1.34654,10.6603,22.4162,17.5654,1.09555,19.3566,213,3.47079,16.7834,0.075,15119
2.83449e-07,-3.62724e-07,-1.58553e-06,-0.000102067,-0.000120668,-0.000223778,17.62,14.8879,-0.256368,9.88102,19.1519,13.7097,-0.610103,17.6807,213,3.57701,17.65,0.075,15120
-1.02334e-06,2.66251e-09,-1.30765e-06,-0.000236077,-2.64137e-05,-0.000177053,-1.41142,29.3829,7.25771,15.8339,30.2418,6.41332,-1.42593,28.5666,213,20.075,10.15,0.1125,15121
-1.0097e-06,1.53618e-08,-1.29975e-06,-0.00025276,-2.82177e-05,-0.00016913,-4.84921,28.1305,7.43403,16.9385,29.0264,6.53942,-4.85053,29.8584,213,20.075,9.67045,0.075,15122
-5.4784e-07,-5.1751e-07,-1.54694e-06,-0.0001797,-6.62106e-05,-0.000207821,5.54284,22.2116,1.41249,13.8218,25.2544,6.30182,-2.38926,24.4837,213,19.0024,19.1588,0.075,15123
-3.94905e-07,-5.04968e-07,-1.55398e-06,-0.000134013,-5.1478e-05,-0.000231911,15.6488,27.7711,1.27003,16.9555,32.5695,13.4619,-1.34151,29.4466,213,18.0024,19.1588,0.075,15124
5.07198e-07,8.57963e-07,-1.36567e-06,-0.000135128,-0.000210272,-0.000164957,6.79686,-4.23996,2.41576,7.69169,9.56638,1.22329,-5.81701,13.3383,213,1.93864,0.075,0.075,15125
5.59391e-07,7.35695e-07,-1.55637e-06,-0.000145911,-0.000188128,-0.000198997,3.09327,-3.1073,-4.70373,8.86822,7.74768,-2.47667,-9.98877,15.42,213,1.54765,0.617257,0.075,15126
4.86997e-07,6.56238e-07,-1.60989e-06,-0.000148113,-0.000182288,-0.00018859,4.0825,-0.936953,-1.8625,6.05705,7.19572,-0.994301,-4.91838,10.7058,213,2.03169,1.07836,0.075,15127
-4.86437e-07,6.55643e-07,-1.61114e-06,-0.000149808,-0.000181468,-0.00019197,3.43605,-1.21407,-2.75658,6.78743,7.2242,-1.40814,-6.35067,11.9001,213,18.0683,1.07836,0.075,15128
-5.05575e-07,8.57209e-07,-1.35948e-06,-0.000134944,-0.000210187,-0.000160293,7.28485,-3.76651,3.56177,7.35102,9.6638,2.45457,-5.03825,12.7331,213,18.1614,0.075,0.075,15129
-5.56509e-07,7.33551e-07,-1.54674e-06,-0.000147504,-0.000193151,-0.000185701,3.48374,-3.22071,-2.12653,7.20882,7.14697,-1.73981,-7.27066,12.5983,213,18.5524,0.617257,0.075,15130
-9.93921e-07,1.29429e-07,-1.33921e-06,-0.000229393,-4.28808e-05,-0.000183437,-1.94092,25.4531,4.80885,14.2157,26.114,4.52453,-2.31746,25.7027,213,20.075,6.31182,0.1125,15131
2.39907e-07,2.97227e-07,-1.55149e-06,-8.53421e-05,-0.000101628,-0.000236575,22.223,19.831,0.0107674,11.463,22.7576,19.4756,-0.168417,21.4739,213,4.32413,3.75429,0.075,15132
1.68742e-07,2.72654e-07,-1.55451e-06,-6.02479e-05,-9.24738e-05,-0.000250676,27.7919,23.0587,-0.177213,14.1522,28.0242,22.9293,-0.280168,26.1321,213,5.33093,4.06206,0.075,15133
3.98115e-07,8.17804e-08,-1.56507e-06,-0.000131739,-3.38343e-05,-0.0002483,16.3125,30.6923,-0.807377,15.9451,30.8927,16.3021,-0.997444,27.6509,213,3.05382,7.20719,0.075,15134
9.93795e-07,1.29623e-07,-1.32659e-06,-0.000230156,-4.23457e-05,-0.000184946,-2.21533,25.3694,4.42489,14.3161,25.8946,4.42193,-2.73762,25.8084,213,0.025,6.31182,0.1125,15135
-9.03813e-07,4.55937e-07,-1.31439e-06,-0.000203632,-0.000136586,-0.000142981,-0.726394,9.12094,8.18165,7.35369,13.4892,4.30523,-1.2182,12.8678,213,20.075,2.47364,0.1125,15136
-8.69062e-07,5.25708e-07,-1.33525e-06,-0.000213409,-0.000146183,-0.000144774,-4.14081,5.73308,5.93998,7.72817,9.95822,3.07216,-5.49813,13.412,213,20.075,1.99409,0.075,15137
2.95196e-07,2.53509e-07,-1.55498e-06,-0.000100713,-8.83555e-05,-0.000235676,19.8534,21.6684,0.03074,11.2488,22.3395,19.371,-0.157996,21.1699,213,3.7625,4.1805,0.075,15138
-8.24884e-07,8.47572e-07,-1.11233e-06,-0.000196785,-0.000194038,-0.000124925,-2.76302,-2.35963,7.79135,6.19234,8.91372,-2.77406,-3.47096,12.0513,213,20.075,0.075,0.075,15139
-8.46163e-07,7.66972e-07,-1.24403e-06,-0.000182969,-0.000191508,-0.000144947,-1.07734,-2.33145,4.50709,5.19183,7.0384,-2.59485,-3.34525,10.0295,213,20.075,0.554545,0.1125,15140
9.05339e-07,4.56494e-07,-1.31958e-06,-0.000204735,-0.000137571,-0.000142787,-1.06538,8.79931,8.03328,7.57296,13.6246,3.66401,-1.52136,13.3323,213,0.025,2.47364,0.1125,15141
-6.88702e-07,-6.34836e-07,-1.37413e-06,-0.000231514,-4.39688e-05,-0.00017752,-1.99912,25.5465,5.93121,15.4968,27.3263,5.81957,-3.66725,27.5058,213,20.075,19.7455,0.1125,15142
-7.54692e-07,-6.08871e-07,-1.3462e-06,-0.000219687,-6.68207e-05,-0.000154167,0.890033,23.3423,10.5133,14.7285,26.4625,11.2774,-2.99436,25.5145,213,20.075,19.2659,0.075,15143
1.25062e-07,-8.8923e-09,-1.55867e-06,-4.81695e-05,-2.3009e-05,-0.000281838,34.2748,37.9702,-0.0453162,19.0212,37.9836,34.275,-0.0588506,36.3304,213,6.37395,10.7504,0.075,15144
1.03672e-07,-2.7956e-08,-1.55961e-06,-4.37042e-05,-2.45421e-05,-0.00028337,35.0615,37.876,-0.139376,19.0187,37.8882,35.0592,-0.149287,36.7049,213,6.82155,11.5566,0.075,15145
2.13251e-07,-3.48167e-07,-1.57918e-06,-7.88118e-05,-0.000119382,-0.000238252,21.9765,16.0178,-1.44124,12.234,22.734,15.5531,-1.73408,21.7842,213,4.41058,17.4595,0.075,15146
-6.86809e-07,-3.9183e-07,-1.57296e-06,-0.000190724,-0.000111156,-0.000196729,-0.270852,11.4157,-1.15284,8.3791,12.7043,1.34152,-4.05386,14.8166,213,19.2276,17.7461,0.0375,15147
-1.29227e-07,5.95579e-07,-1.60991e-06,-4.77735e-05,-0.000176731,-0.000236439,24.2454,5.3047,-3.46485,14.5412,24.9117,5.34429,-4.17075,25.6828,213,14.1493,1.77576,0.075,15148
-8.69836e-08,5.1851e-07,-1.579e-06,-3.64576e-05,-0.000163892,-0.000236579,28.1521,9.43522,-1.24079,15.0735,28.5142,9.46515,-1.63284,26.4091,213,13.1474,2.25756,0.075,15149
-1.52843e-07,2.05734e-07,-1.55908e-06,-5.45666e-05,-7.29474e-05,-0.000261598,29.9615,27.2618,-0.446291,15.3184,30.1253,27.1631,-0.511427,29.2683,213,14.4399,4.90988,0.075,15150
-1.28079e-07,2.56019e-07,-1.55615e-06,-4.98056e-05,-8.76508e-05,-0.000256966,30.1644,24.6059,-0.262294,15.3411,30.3268,24.5367,-0.355445,28.236,213,14.0113,4.3025,0.075,15151
-1.16354e-07,4.45246e-07,-1.56305e-06,-4.62156e-05,-0.000148186,-0.00023815,27.1279,12.1511,-1.06249,14.2994,27.3367,12.1419,-1.26204,24.7834,213,13.8574,2.69914,0.075,15152
-1.61602e-07,3.69483e-07,-1.54734e-06,-5.68603e-05,-0.00012875,-0.000239783,26.2336,15.6749,-0.633156,13.5663,26.3816,15.6448,-0.751003,23.6673,213,14.7123,3.21023,0.075,15153
-1.67877e-07,5.1263e-07,-1.58448e-06,-5.71379e-05,-0.000164106,-0.000222446,24.4827,8.77177,0.203116,12.7736,25.1075,8.78983,-0.439756,22.4066,213,14.8593,2.21734,0.075,15154
-7.36801e-07,3.74696e-09,-1.5672e-06,-0.000216586,-2.3705e-05,-0.000213826,0.0891759,28.4186,0.494561,14.7972,29.2538,0.0891807,-0.340626,29.3819,213,18.9484,10.15,0.075,15155
-5.78241e-07,-1.16304e-08,-1.60389e-06,-0.000180439,-2.14381e-05,-0.00023334,7.16487,30.5181,-0.605004,16.0821,31.0354,7.17134,-1.12881,28.9217,213,18.1485,10.8374,0.075,15156
7.89395e-07,4.13791e-08,-1.52546e-06,-0.000212926,-2.87865e-05,-0.000213923,0.484806,27.5303,0.338323,14.3967,28.306,0.534943,-0.487492,28.2961,213,0.838594,8.67816,0.0375,15157
7.92496e-07,5.2453e-08,-1.54324e-06,-0.000220272,-2.79408e-05,-0.00020174,-0.0629239,28.1857,2.65884,14.5741,28.9589,2.01192,-0.189206,28.1122,213,0.863594,8.27725,0.075,15158
-1.14123e-09,2.54841e-07,-1.55281e-06,-2.40536e-05,-8.64489e-05,-0.000264283,35.7822,26.6179,0.498516,17.6863,35.8267,26.6178,0.454087,31.785,213,10.0735,4.41453,0.075,15159
4.88835e-07,-2.44442e-07,-1.58959e-06,-0.000161384,-8.05324e-05,-0.000240621,5.54059,17.4157,-6.09724,12.0952,17.7424,5.56458,-6.44794,20.9496,213,2.22,16.4725,0.075,15160
3.99367e-07,-1.93739e-07,-1.56207e-06,-0.000131927,-6.48322e-05,-0.000274434,10.9275,20.782,-10.0032,15.5566,20.9793,10.8608,-10.1339,27.4881,213,2.90495,15.7916,0.075,15161
-7.90541e-07,4.2877e-08,-1.51853e-06,-0.000218696,-2.86847e-05,-0.000211121,-0.630405,27.2774,0.482165,14.3781,28.0558,-0.226161,-0.700463,28.5221,213,19.25,8.64396,0.0375,15162
-7.90972e-07,5.3635e-08,-1.53755e-06,-0.0002247,-2.7468e-05,-0.000204201,-1.31305,27.6554,1.69771,14.9478,28.4733,0.98921,-1.42241,28.7658,213,19.225,8.24305,0.075,15163
-2.09563e-07,-3.37682e-07,-1.57428e-06,-7.78526e-05,-0.000117034,-0.000237592,22.4882,16.7334,-0.973522,12.2278,23.2058,16.2921,-1.2498,21.8357,213,15.6233,17.367,0.075,15164
-1.92698e-07,-2.39759e-07,-1.55154e-06,-7.13956e-05,-8.42963e-05,-0.000246316,26.2845,24.3897,0.593058,13.1307,26.7759,23.9769,0.514515,24.9797,213,15.2201,16.3322,0.075,15165
1.72177e-08,2.83936e-07,-1.54696e-06,-2.63696e-05,-9.70168e-05,-0.000261996,34.4516,24.0753,-0.156068,17.3503,34.4974,24.0767,-0.203269,30.8403,213,9.35418,4.09708,0.075,15166
-1.43882e-09,1.89687e-07,-1.55806e-06,-2.41864e-05,-6.80114e-05,-0.000275716,36.405,29.9682,-0.538408,18.5007,36.4341,29.9681,-0.567405,34.2296,213,10.0997,5.26642,0.075,15167
1.1144e-07,-5.46208e-07,-1.54487e-06,-4.07464e-05,-6.9297e-05,-0.000257513,34.0061,29.8127,2.16842,18.0467,36.8868,28.3069,0.793495,32.6599,213,5.66998,19.1059,0.075,15168
-8.5177e-07,-5.91406e-08,-1.51966e-06,-0.00023926,-3.01672e-05,-0.000207465,-5.36982,25.3407,-0.699984,15.6834,25.9438,-1.24984,-5.42308,29.5025,213,19.4482,12.5706,0.1125,15169
-8.4393e-07,-4.62841e-08,-1.51248e-06,-0.000233793,-2.41981e-05,-0.000215827,-4.27952,26.5048,-1.64067,15.8087,27.2638,-2.32562,-4.35355,30.6537,213,19.4482,12.0911,0.075,15170
1.32104e-07,7.4411e-08,-1.55943e-06,-5.18341e-05,-3.34742e-05,-0.000276778,32.8889,35.5855,-0.149712,17.8971,35.6247,32.8695,-0.169522,34.4992,213,6.18487,7.56539,0.075,15171
6.93268e-08,2.38652e-07,-1.55734e-06,-3.39315e-05,-8.1758e-05,-0.000265024,33.7772,26.7527,-0.164522,17.0284,33.8401,26.7419,-0.216646,31.1208,213,7.54465,4.57038,0.075,15172
-3.60904e-07,-4.49169e-08,-1.56581e-06,-0.000121579,-2.57778e-05,-0.00025338,19.0325,33.1034,-0.325639,16.8605,33.2487,19.0338,-0.472209,29.3228,213,16.7234,12.2604,0.075,15173
-2.96447e-07,-6.52542e-08,-1.55967e-06,-0.000102134,-3.06481e-05,-0.000258098,22.8098,33.3093,-0.0973635,16.7686,33.3767,22.8054,-0.160425,29.6978,213,16.1671,12.9718,0.075,15174
-3.86142e-07,-7.13797e-08,-1.56317e-06,-0.000131255,-3.17844e-05,-0.000244336,16.9909,31.6007,0.382105,15.7832,31.776,16.9881,0.209609,27.3554,213,16.9467,13.1779,0.075,15175
7.85764e-07,-6.4794e-09,-1.52979e-06,-0.00021203,-2.52692e-05,-0.000221157,0.352778,27.7833,-0.987826,15.2787,28.6761,0.353346,-1.88122,29.5036,213,0.864564,10.5645,0.0375,15176
-6.54361e-09,3.6092e-08,-1.55911e-06,-2.65148e-05,-2.70462e-05,-0.000288686,38.4619,38.3838,-0.0445661,19.2546,38.4634,38.3835,-0.0457514,38.4693,213,10.2953,8.92965,0.075,15177
6.06013e-08,5.02236e-07,-1.58651e-06,-3.05828e-05,-0.000156913,-0.000252923,28.6887,10.134,-3.9675,16.5799,28.9485,10.118,-4.21128,28.8053,213,7.72553,2.38505,0.075,15178
-9.96773e-08,8.19213e-07,-1.53466e-06,-4.04308e-05,-0.000228395,-0.000210715,23.5858,-4.02143,-1.42468,14.2789,24.3083,-1.91909,-4.24951,27.4668,213,13.3826,0.734755,0.1125,15179
-1.06584e-07,8.0336e-07,-1.5128e-06,-4.07166e-05,-0.00020583,-0.000208048,25.8753,1.62426,1.29853,13.4052,26.9016,1.8053,0.0911923,25.9958,213,13.5615,0.703454,0.0375,15180
-1.13713e-07,7.96329e-07,-1.53602e-06,-4.15208e-05,-0.000214436,-0.000203524,25.3005,-0.096332,1.50627,13.2693,26.3507,0.547475,-0.187786,26.1787,213,13.7342,0.778454,0.075,15181
-1.26365e-07,9.71668e-07,-1.33249e-06,-4.55095e-05,-0.000229224,-0.000198663,23.414,-3.56899,0.919555,13.6583,23.6862,0.70868,-3.63036,25.4263,213,13.8773,0.075,0.1125,15182
1.74189e-07,-9.95795e-08,-1.55872e-06,-6.40705e-05,-3.94875e-05,-0.000269559,30.0606,33.6713,-0.120502,16.9445,33.7405,30.0195,-0.148561,32.1902,213,5.39526,13.9137,0.075,15183
1.34083e-07,-1.16362e-07,-1.55965e-06,-5.0475e-05,-4.54253e-05,-0.000270818,32.6556,33.3973,0.292766,16.692,33.6493,32.4311,0.265263,32.7919,213,6.07217,14.2761,0.075,15184
3.08177e-07,1.79122e-08,-1.54983e-06,-0.000105244,-2.22177e-05,-0.000259094,22.7572,34.9517,0.160478,17.4758,35.0321,22.7568,0.0804725,30.7125,213,3.87179,9.54718,0.075,15185
2.58358e-07,5.87448e-09,-1.55053e-06,-8.8999e-05,-2.25223e-05,-0.000267437,25.8533,35.6171,-0.35469,18.0488,35.6801,25.8532,-0.417582,32.3246,213,4.38768,10.0924,0.075,15186
-1.89745e-07,-2.93307e-08,-1.55533e-06,-6.63524e-05,-2.42404e-05,-0.000274289,30.4952,36.6804,-0.0456059,18.3983,36.7161,30.4944,-0.08054,34.114,213,14.8533,11.5997,0.075,15187
-3.29275e-07,3.25813e-07,-1.55185e-06,-0.000110748,-0.000110754,-0.000223144,16.5194,16.5186,0.0112114,9.29116,18.2861,15.0594,-0.296235,17.1975,213,16.7261,3.41766,0.075,15188
-3.16462e-07,-2.75604e-07,-1.56026e-06,-0.000109914,-9.16234e-05,-0.000223907,18.4366,21.123,1.69392,10.4822,22.3976,17.4227,1.43323,18.9726,213,16.6626,16.8217,0.075,15189
-2.83633e-07,-3.60825e-07,-1.58415e-06,-0.00010172,-0.000119952,-0.00022425,17.7259,15.0481,-0.270641,9.93236,19.2469,13.8743,-0.617833,17.7974,213,16.5205,17.6392,0.075,15190
-3.68332e-07,-1.36628e-07,-1.55857e-06,-0.000125913,-5.03456e-05,-0.000245514,16.4298,27.5288,-1.13656,14.485,27.6926,16.4068,-1.27743,25.292,213,16.8818,14.8146,0.075,15191
-5.2484e-07,-1.48489e-07,-1.58818e-06,-0.000172976,-5.19474e-05,-0.000208034,8.472,26.2481,3.32294,12.1158,26.8425,8.58968,2.61086,21.8642,213,17.9487,15.0064,0.075,15192
-4.55197e-07,-1.04514e-07,-1.5687e-06,-0.000153726,-3.98498e-05,-0.000223789,12.7569,29.4824,2.46631,13.7137,29.6696,12.7938,2.24223,23.9624,213,17.4574,14.0811,0.075,15193
1.30093e-07,2.53293e-07,-1.55647e-06,-5.04908e-05,-8.6208e-05,-0.000258258,30.0139,24.7679,-0.501968,15.3798,30.172,24.6953,-0.587544,28.4198,213,6.04898,4.33576,0.075,15194
-3.17077e-07,1.9519e-08,-1.55457e-06,-0.000107949,-2.31553e-05,-0.000258823,22.0449,34.4989,-0.114707,17.3963,34.5896,22.0426,-0.203079,30.5191,213,16.3181,9.47856,0.075,15195
-2.59412e-07,5.83513e-09,-1.55073e-06,-8.76375e-05,-2.24987e-05,-0.000265458,26.3677,35.935,0.250356,17.9043,35.997,26.3676,0.188479,32.0961,213,15.72,10.0843,0.075,15196
4.31568e-07,2.74202e-08,-1.56716e-06,-0.000145989,-2.30799e-05,-0.000226057,15.9718,34.024,4.21178,14.9856,34.1026,15.9735,4.13148,26.1455,213,2.88025,9.12761,0.075,15197
3.20416e-07,3.60081e-08,-1.5524e-06,-0.000108445,-2.58532e-05,-0.000257557,21.7917,33.9224,-0.109137,17.1167,34.0246,21.7893,-0.208888,30.0462,213,3.74649,8.7904,0.075,15198
4.6638e-07,5.06643e-08,-1.57707e-06,-0.000153412,-2.70172e-05,-0.000227778,13.659,32.2232,2.73649,14.8949,32.3788,13.651,2.58891,26.0819,213,2.61569,8.18899,0.075,15199
-7.95036e-07,-1.21489e-07,-1.51256e-06,-0.00021166,-4.54874e-05,-0.00022441,-1.75198,22.6546,-3.62471,13.9239,23.4394,-1.75309,-4.40843,26.6197,213,19.3417,14.246,0.0375,15200
-8.03155e-07,-1.05213e-07,-1.5305e-06,-0.000221964,-3.99033e-05,-0.000199642,-1.39166,25.3485,1.88681,13.7963,26.1422,1.15201,-1.45053,26.3879,213,19.3167,13.8479,0.075,15201
-4.47024e-08,4.03109e-08,-1.55913e-06,-3.07722e-05,-2.67333e-05,-0.000286983,37.6271,38.2204,-0.00379411,19.1187,38.2307,37.6199,-0.00682526,37.9358,213,11.6438,8.76262,0.075,15202
-2.79424e-08,-5.7142e-07,-1.54042e-06,-1.98778e-05,-5.85188e-05,-0.000270613,38.8046,33.1292,1.97781,19.4219,39.8176,33.1203,0.973739,35.966,213,11.5607,19.1586,0.075,15203
-5.34342e-08,-5.35654e-07,-1.56501e-06,-2.75133e-05,-9.84919e-05,-0.000273828,32.9329,22.5079,-3.24462,19.1647,34.0475,22.4306,-4.28197,34.0416,213,12.5235,18.8174,0.075,15204
-4.84748e-08,-4.38836e-07,-1.58979e-06,-2.68597e-05,-0.000133376,-0.000253954,31.687,16.0425,-1.6675,17.0664,32.0866,16.0217,-2.04632,29.5769,213,12.2136,17.9943,0.075,15205
7.96536e-07,-1.21269e-07,-1.51359e-06,-0.000212222,-4.54105e-05,-0.000226658,-2.09014,22.4103,-4.21042,13.9952,23.0947,-2.08924,-4.89572,26.698,213,0.750703,14.2294,0.0375,15206
8.03888e-07,-1.0477e-07,-1.53026e-06,-0.000221749,-3.98293e-05,-0.000198466,-1.22303,25.4964,2.19668,13.7806,26.2698,1.49156,-1.29133,26.2804,213,0.775703,13.8312,0.075,15207
8.33684e-07,1.03108e-07,-1.5226e-06,-0.000235045,-4.04708e-05,-0.000209041,-5.4672,23.1109,-1.64786,14.7395,24.0066,-2.53837,-5.47243,28.127,213,0.692496,6.79986,0.1125,15208
8.19016e-07,1.22781e-07,-1.5163e-06,-0.000223592,-4.19952e-05,-0.000226254,-4.46575,22.2062,-4.85681,14.4563,22.9551,-4.11402,-5.95747,28.0364,213,0.692496,6.32032,0.075,15209
-8.32646e-07,1.02731e-07,-1.52084e-06,-0.000235427,-4.04937e-05,-0.00021213,-5.84984,22.781,-2.4281,14.7337,23.6145,-3.25843,-5.85299,28.2597,213,19.4023,6.80493,0.1125,15210
-8.18716e-07,1.22685e-07,-1.51281e-06,-0.000225031,-4.27934e-05,-0.000224149,-4.6894,22.0767,-4.5598,14.3106,22.8466,-4.24459,-5.77455,27.8877,213,19.4023,6.32538,0.075,15211
-6.04068e-09,1.40042e-07,-1.55919e-06,-2.50296e-05,-5.09642e-05,-0.000279766,37.4171,33.6079,0.0026354,18.7216,37.4315,33.6079,-0.0117599,35.6854,213,10.2805,6.10302,0.075,15212
-1.13424e-07,3.25637e-07,-1.55297e-06,-4.52824e-05,-0.000112281,-0.000249136,29.6814,19.841,-0.259648,15.0976,29.8259,19.8061,-0.369258,26.6382,213,13.7618,3.61795,0.075,15213
3.81631e-07,5.3827e-07,-1.60004e-06,-0.000129647,-0.000162659,-0.000201392,9.15897,4.31038,-1.37854,6.97568,11.1054,3.83136,-2.84596,12.0859,213,2.80646,1.87143,0.075,15214
4.98285e-07,5.00334e-07,-1.60803e-06,-0.000157555,-0.000151974,-0.000194688,4.07663,4.89646,-1.3773,6.16505,8.72789,2.4701,-3.60221,10.6786,213,2.01528,2.05715,0.075,15215
-8.54626e-08,-7.18075e-08,-1.55971e-06,-3.78262e-05,-3.32411e-05,-0.000281874,35.801,36.4744,-0.0435808,18.2948,36.5356,35.7503,-0.0540602,36.2034,213,12.888,13.0752,0.075,15216
-6.08834e-08,-5.20966e-08,-1.55963e-06,-3.36383e-05,-2.90249e-05,-0.000284989,36.9105,37.5881,-0.00660734,18.8101,37.6081,36.896,-0.0120809,37.2692,213,12.1705,12.4342,0.075,15217
5.688e-07,5.7203e-07,-1.65104e-06,-0.000165161,-0.000158234,-0.000188715,2.2219,3.23935,-1.23764,5.49646,6.85611,1.5043,-4.1368,9.52124,213,1.52759,1.56306,0.075,15218
-7.96609e-07,2.69199e-08,-1.52663e-06,-0.000227299,-2.65818e-05,-0.000200724,-1.52999,27.9504,2.37321,15.1645,28.7636,1.59549,-1.56547,28.8786,213,19.225,9.20305,0.075,15219
-1.87033e-08,5.25007e-08,-1.55922e-06,-2.71539e-05,-2.91845e-05,-0.0002876,38.21,37.9117,-0.043053,19.1308,38.2157,37.9089,-0.0459312,38.1091,213,10.7503,8.3445,0.075,15220
2.22061e-07,5.38793e-07,-1.60088e-06,-7.61021e-05,-0.000171695,-0.000215034,19.9083,5.86809,-0.497349,10.838,20.56,5.83504,-1.11603,19.1702,213,4.41803,2.01017,0.075,15221
-2.25425e-08,1.12756e-07,-1.55969e-06,-2.67717e-05,-4.42393e-05,-0.000282283,37.3917,34.8261,-0.136484,18.7758,37.4045,34.8237,-0.146967,36.3299,213,10.9118,6.66712,0.075,15222
1.57301e-09,-6.10272e-07,-1.5079e-06,-1.55068e-05,-4.55995e-05,-0.000257029,42.3323,37.9125,6.85869,18.6442,43.2426,37.9067,5.95419,34.9275,213,9.97958,19.6643,0.075,15223
2.78383e-08,-5.60065e-07,-1.55111e-06,-2.03102e-05,-9.91432e-05,-0.000264566,35.4689,23.8903,-0.406173,19.3899,36.9251,23.8825,-1.85457,34.1787,213,8.5716,19.0436,0.075,15224
-2.63982e-07,-1.34707e-07,-1.55397e-06,-9.25618e-05,-5.02681e-05,-0.000254763,23.5883,29.8002,-0.235016,15.1354,29.9409,23.5425,-0.329961,27.633,213,15.9182,14.7598,0.075,15225
2.47992e-07,7.4072e-07,-1.52676e-06,-8.14056e-05,-0.000195847,-0.000202167,17.5789,0.770322,-0.157927,10.5942,19.0661,1.24756,-2.12235,19.7206,213,4.10575,0.832639,0.0375,15226
2.7013e-07,7.30895e-07,-1.54689e-06,-8.86518e-05,-0.000199704,-0.000199066,15.7666,-0.544169,-0.450529,10.0611,17.4901,-0.0860652,-2.63213,18.9777,213,3.84666,0.907639,0.075,15227
2.42232e-07,9.39961e-07,-1.32384e-06,-7.87033e-05,-0.000222588,-0.000179317,17.8647,-3.26833,3.08704,10.9147,18.3597,2.79345,-3.46969,19.4686,213,4.30909,0.075,0.1125,15228
2.19028e-07,5.59643e-07,-1.60925e-06,-7.4076e-05,-0.000165662,-0.000233707,19.2138,5.76201,-4.23204,12.3102,19.8255,5.71321,-4.79494,21.3979,213,4.455,1.89127,0.075,15229
-2.48325e-07,7.41078e-07,-1.52859e-06,-8.18014e-05,-0.000195741,-0.000200334,17.6649,0.92998,0.255363,10.4283,19.1524,1.40196,-1.70415,19.4901,213,15.9942,0.832639,0.0375,15230
-2.20174e-07,5.5731e-07,-1.60636e-06,-7.44826e-05,-0.000167287,-0.000230573,19.2572,5.62665,-3.66851,12.1414,19.9586,5.58098,-4.32424,21.1481,213,15.6685,1.90495,0.075,15231
-2.70318e-07,7.31283e-07,-1.54922e-06,-8.84042e-05,-0.00019993,-0.000199044,15.807,-0.573368,-0.443268,10.0284,17.4367,-0.0261963,-2.62013,18.8939,213,16.2533,0.907639,0.075,15232
-2.42209e-07,9.40192e-07,-1.32343e-06,-7.9134e-05,-0.000222095,-0.000179083,17.829,-3.16846,3.14893,10.8634,18.3483,2.83977,-3.37859,19.3809,213,15.7909,0.075,0.1125,15233
-7.88124e-07,-2.37724e-07,-1.52042e-06,-0.00022481,-8.00046e-05,-0.000180931,-4.07507,17.1933,2.36965,11.4332,18.3418,1.67068,-4.52462,20.4839,213,19.3587,16.1532,0.1125,15234
-7.88685e-07,-2.01573e-07,-1.51392e-06,-0.000217489,-6.66483e-05,-0.000228837,-5.54473,16.6101,-7.21146,12.978,17.5654,-5.321,-8.3905,24.5654,213,19.3587,15.6736,0.075,15235
8.88767e-08,-1.99871e-07,-1.55633e-06,-3.76206e-05,-7.22955e-05,-0.0002672,33.5717,28.4788,-0.147784,16.9342,33.6766,28.4179,-0.191815,31.5693,213,6.94784,15.6999,0.075,15236
-4.4042e-07,2.98321e-07,-1.57342e-06,-0.000145616,-9.80869e-05,-0.000216084,9.98301,16.9638,-0.367051,9.2297,17.6609,9.71731,-0.798472,16.038,213,17.5701,3.6281,0.075,15237
-4.09897e-07,4.09022e-07,-1.56277e-06,-0.000136736,-0.000138853,-0.000212772,8.61655,8.30561,-2.55117,6.72913,10.4502,6.92895,-3.00811,12.0886,213,17.4332,2.69972,0.075,15238
7.8554e-07,-2.35177e-07,-1.52168e-06,-0.000223326,-7.95243e-05,-0.00018626,-4.1713,16.9495,1.27275,11.2807,17.8705,0.871422,-4.69093,20.3583,213,0.754009,16.117,0.1125,15239
7.87159e-07,-1.9922e-07,-1.51285e-06,-0.000218292,-6.68124e-05,-0.000231414,-5.99384,16.2548,-7.92103,13.0055,17.0335,-5.71597,-8.97757,24.5433,213,0.754009,15.6375,0.075,15240
6.45821e-07,6.45995e-07,-1.62422e-06,-0.000169886,-0.000162383,-0.000184087,1.13103,2.23306,-0.954731,6.93581,7.66878,0.943404,-6.20283,12.015,213,1.04355,1.10195,0.075,15241
7.25999e-07,7.2923e-07,-1.45549e-06,-0.000185102,-0.000176821,-0.000165371,-2.126,-0.909741,0.771956,7.36896,7.55111,-2.62808,-7.18682,13.0691,213,0.54765,0.617257,0.075,15242
-1.04174e-07,-3.97831e-07,-1.59281e-06,-4.29931e-05,-0.000127873,-0.000244513,29.2063,16.7395,-0.391921,15.143,29.5712,16.6975,-0.714777,26.3264,213,13.849,17.7413,0.075,15243
-1.45075e-07,-4.26858e-07,-1.5968e-06,-5.2655e-05,-0.00011607,-0.000239975,28.4115,19.0974,0.898782,14.2668,29.0669,18.8076,0.533202,25.0337,213,14.7554,18.0334,0.075,15244
3.87119e-08,8.18383e-08,-1.55956e-06,-2.92628e-05,-3.59251e-05,-0.000284124,37.398,36.4194,-0.0348007,18.7279,37.4132,36.412,-0.0425573,36.9653,213,8.63239,7.42936,0.075,15245
4.02707e-07,3.99501e-07,-1.55996e-06,-0.000135503,-0.000135012,-0.000201679,10.3088,10.3809,0.589138,6.44668,12.727,8.71827,-0.1664,11.429,213,2.72235,2.77509,0.075,15246
5.36007e-07,3.65534e-07,-1.59163e-06,-0.000168812,-0.000123035,-0.00019861,3.70939,10.4328,-0.667196,7.06234,12.0594,3.48082,-2.06525,12.3259,213,1.87834,2.98553,0.075,15247
-2.77055e-07,1.90598e-07,-1.55444e-06,-9.47396e-05,-6.58023e-05,-0.000246977,22.3407,26.5909,-0.019054,13.5023,26.8586,22.2001,-0.146137,25.0031,213,16.0937,5.01695,0.075,15248
-6.90349e-08,9.69774e-07,-1.31813e-06,-3.28688e-05,-0.00023907,-0.000182222,27.0686,-3.21728,5.13232,15.4673,27.7022,4.51388,-3.2324,27.8805,213,12.4205,0.075,0.075,15249
-5.05015e-08,7.83151e-07,-1.55106e-06,-2.96089e-05,-0.00021213,-0.000211196,27.662,0.854241,0.991455,14.3585,28.6456,0.933459,-0.0713709,28.228,213,11.9785,0.894491,0.075,15250
-1.56687e-08,-1.84615e-08,-1.5591e-06,-2.75587e-05,-2.43442e-05,-0.00028947,38.3903,38.8624,-0.0779913,19.471,38.8635,38.3896,-0.0784488,38.7072,213,10.6265,11.1495,0.075,15251
6.64435e-07,-1.39059e-08,-1.60679e-06,-0.000178363,-2.28529e-05,-0.000230793,7.76963,30.6101,0.0689965,15.7527,31.0896,7.7748,-0.415719,28.313,213,1.48002,10.9343,0.0374344,15252
8.52052e-07,-1.6083e-08,-1.48036e-06,-0.000236564,-2.59551e-05,-0.000195616,-3.22071,27.7125,2.79351,15.8409,28.4367,2.09367,-3.24507,29.3785,213,0.615452,10.9198,0.0749344,15253
8.38648e-07,-2.92316e-08,-1.48167e-06,-0.000227124,-2.6433e-05,-0.000201617,-1.55723,27.9192,2.18909,15.2222,28.8043,1.38684,-1.6401,29.0495,213,0.615452,11.3993,0.0374344,15254
7.48124e-07,1.957e-07,-1.5598e-06,-0.000217275,-6.58917e-05,-0.000213289,-3.96913,18.2652,-3.38371,11.9544,18.8215,-2.82181,-5.0873,22.8604,213,0.966717,4.92978,0.1125,15255
7.47802e-07,1.65706e-07,-1.55236e-06,-0.000209616,-5.60523e-05,-0.000233545,-3.10195,19.4527,-6.61656,13.6951,20.0508,-2.9772,-7.33941,25.4906,213,0.966717,5.40932,0.075,15256
3.26019e-07,3.21739e-07,-1.55309e-06,-0.000109492,-0.000109066,-0.000224373,16.8641,16.9266,-0.0091427,9.46283,18.6008,15.5056,-0.324847,17.5836,213,3.40731,3.45598,0.075,15257
9.00044e-08,1.9653e-07,-1.55847e-06,-3.92335e-05,-6.98514e-05,-0.000265761,33.547,29.0499,0.27569,16.6854,33.6097,29.0238,0.239013,31.3305,213,7.00881,5.10461,0.075,15258
1.21491e-07,1.84285e-07,-1.55874e-06,-4.7418e-05,-6.63264e-05,-0.000265272,31.955,29.1779,-0.0423175,16.0745,32.0605,29.1185,-0.0884249,30.7836,213,6.29042,5.25517,0.075,15259
9.90302e-08,2.38323e-07,-1.55636e-06,-4.08129e-05,-8.19995e-05,-0.000261055,32.4718,26.4225,0.123782,16.2463,32.5584,26.3938,0.0658569,29.8909,213,6.75058,4.54392,0.075,15260
-7.8715e-08,3.92545e-07,-1.56006e-06,-3.40631e-05,-0.000132307,-0.000244933,30.8989,16.4693,-0.0725589,15.6302,31.046,16.464,-0.214375,27.0926,213,12.9069,3.10686,0.075,15261
8.11034e-07,7.81988e-08,-1.53444e-06,-0.000224575,-3.22787e-05,-0.000209237,-2.20328,26.0402,0.049535,15.0129,27.1045,-0.29671,-2.92129,28.8033,213,0.76335,7.43301,0.075,15262
-2.87787e-07,5.77068e-07,-1.60714e-06,-9.50984e-05,-0.000173645,-0.000207339,15.8796,4.34306,-0.605764,9.4635,17.1204,4.30312,-1.80662,16.7309,213,16.476,1.71155,0.075,15263
-4.82736e-08,7.89507e-07,-1.52887e-06,-2.94755e-05,-0.000206183,-0.000218143,27.6005,1.64654,-0.109974,14.6976,28.4404,1.65151,-0.954869,28.1826,213,11.8921,0.819491,0.0375,15264
-5.40922e-08,9.89758e-07,-1.32203e-06,-3.11526e-05,-0.000230944,-0.000195699,26.9809,-2.36335,2.81324,14.775,27.1748,2.63124,-2.37521,27.3921,213,11.9636,0.075,0.1125,15265
-4.03038e-08,9.75552e-07,-1.31572e-06,-2.92171e-05,-0.000240244,-0.000174969,28.5143,-2.48029,7.10704,15.8541,29.2269,6.39557,-2.48139,28.3327,213,11.5068,0.075,0.075,15266
-5.1594e-08,-5.88362e-07,-1.52086e-06,-2.49071e-05,-3.51076e-05,-0.000252603,41.4674,39.9692,8.02458,17.9709,43.1378,39.1274,7.19598,34.1139,213,12.7398,19.5181,0.075,15267
-3.68741e-08,-5.95695e-07,-1.5125e-06,-2.07819e-05,-4.14341e-05,-0.000261657,41.0213,37.988,5.64272,18.5611,42.1002,37.5739,4.97799,35.0787,213,12.1502,19.5888,0.075,15268
-5.01866e-07,5.023e-07,-1.61725e-06,-0.000157076,-0.000151633,-0.000188046,4.84455,5.64386,0.295748,6.16253,9.90611,3.29699,-2.41895,10.6832,213,18.1112,2.03452,0.075,15269
-3.80776e-07,5.37263e-07,-1.59585e-06,-0.000130015,-0.000162833,-0.000199988,9.18527,4.3652,-1.09201,6.82241,11.1528,3.79775,-2.49205,11.8287,213,17.291,1.88227,0.075,15270
-7.53841e-07,1.95831e-07,-1.55376e-06,-0.00021881,-6.5919e-05,-0.000212066,-4.22651,18.2294,-3.23591,12.0551,18.8401,-2.80287,-5.27021,22.9762,213,19.1595,4.92337,0.1125,15271
-7.53525e-07,1.65966e-07,-1.54517e-06,-0.00021155,-5.56639e-05,-0.000234321,-3.60307,19.2927,-6.94758,13.843,19.9345,-3.44094,-7.75152,25.8022,213,19.1595,5.40291,0.075,15272
-3.24231e-08,-2.75672e-07,-1.56334e-06,-2.47315e-05,-9.3419e-05,-0.000269668,34.4645,24.376,-1.51054,18.0566,34.5384,24.3664,-1.57487,32.2536,213,11.4284,16.57,0.075,15273
-3.76027e-08,-2.01909e-07,-1.55718e-06,-2.69804e-05,-7.11686e-05,-0.000273829,35.6147,29.1246,-0.641092,18.1735,35.6654,29.1143,-0.68153,33.5545,213,11.5466,15.673,0.075,15274
-1.86489e-07,-4.77616e-08,-1.5577e-06,-6.50409e-05,-2.69053e-05,-0.000275022,30.4928,36.094,-0.348089,18.2609,36.1379,30.4846,-0.383877,34.049,213,14.8275,12.3259,0.075,15275
2.88561e-07,5.78681e-07,-1.61045e-06,-9.52314e-05,-0.000171085,-0.000207765,16.0471,4.90606,-0.481208,9.40055,17.232,4.80899,-1.56906,16.5604,213,3.62142,1.70071,0.075,15276
7.8771e-07,-4.46838e-08,-1.56017e-06,-0.000220668,-2.61826e-05,-0.000210364,-0.8,27.7651,0.713428,15.1324,29.1844,-0.425455,-1.08043,29.9427,213,0.891429,12.0619,0.075,15277
8.57e-07,-3.00908e-08,-1.50471e-06,-0.000244613,-2.60936e-05,-0.00019737,-5.33202,26.763,1.60681,16.5257,27.6684,0.752484,-5.38307,30.4508,213,0.640452,11.4798,0.112434,15278
6.63135e-07,-3.63265e-08,-1.60453e-06,-0.000180155,-2.54303e-05,-0.00024355,5.90552,28.6307,-3.40565,16.8636,29.4777,5.90247,-4.24958,29.9698,213,1.48188,11.8717,0.0374344,15279
-1.4236e-08,4.53811e-07,-1.5709e-06,-2.39718e-05,-0.000149863,-0.000245087,31.669,13.1787,-0.807303,16.4879,31.9222,13.1719,-1.05369,28.6474,213,10.6409,2.72482,0.075,15280
-6.63866e-07,4.9807e-07,-1.61205e-06,-0.000188044,-0.000151523,-0.000189387,-2.71343,2.65056,-2.91064,6.47989,5.96064,-1.935,-6.99915,11.3124,213,19.0683,2.03836,0.075,15281
-7.442e-07,5.73406e-07,-1.53374e-06,-0.000195645,-0.000149981,-0.000184581,-3.947,2.76002,-2.32193,7.07541,6.19172,-1.74154,-7.95909,12.285,213,19.5524,1.57726,0.075,15282
7.93564e-07,-1.49892e-07,-1.52542e-06,-0.000220097,-5.41694e-05,-0.000190358,-1.40863,22.962,2.95926,12.756,24.0153,1.99394,-1.49663,23.9581,213,0.775703,14.7912,0.075,15283
-3.75559e-07,7.07896e-07,-1.55995e-06,-0.000120372,-0.0001928,-0.000186792,9.9355,-0.702292,0.180122,7.41676,11.9724,0.302082,-2.86113,13.5321,213,17.2533,0.907639,0.075,15284
3.06092e-07,4.34411e-07,-1.56459e-06,-0.000102624,-0.000146038,-0.000214816,15.9525,9.57602,-0.525705,8.96802,16.8491,9.24071,-1.08696,15.5925,213,3.51353,2.58937,0.075,15285
-2.17656e-09,-9.11827e-08,-1.55891e-06,-2.5029e-05,-3.79462e-05,-0.00028455,38.1868,36.2896,0.0695797,19.0638,38.192,36.2895,0.0644295,37.2128,213,10.138,13.5728,0.075,15286
-1.52048e-08,-6.36907e-08,-1.55936e-06,-2.68042e-05,-3.21517e-05,-0.00028663,38.1073,37.3219,-0.0546854,19.0863,38.1138,37.3197,-0.0589024,37.7819,213,10.6279,12.7931,0.075,15287
8.39344e-07,-5.95209e-08,-1.53185e-06,-0.000236427,-3.05283e-05,-0.000221757,-6.0583,24.183,-3.90366,15.3766,24.6548,-4.33542,-6.09837,29.9107,213,0.70191,12.5684,0.1125,15288
8.26253e-07,-7.51647e-08,-1.52274e-06,-0.000225572,-3.47401e-05,-0.000222031,-3.86874,24.1596,-3.34879,14.3633,24.7436,-3.8185,-3.98304,28.6447,213,0.70191,13.0479,0.075,15289
1.0061e-06,-7.78371e-08,-1.29998e-06,-0.000243283,-3.5265e-05,-0.000167766,-3.10263,27.45,7.98896,15.7474,28.3794,7.0723,-3.11536,27.8361,213,0.025,13.0291,0.1125,15290
-9.12783e-08,-1.96642e-08,-1.55878e-06,-3.95523e-05,-2.37193e-05,-0.000284521,36.0287,38.3541,0.0488505,19.161,38.3635,36.0266,0.0415658,37.2086,213,12.9729,11.2197,0.075,15291
-5.00666e-08,4.20049e-09,-1.55903e-06,-3.11119e-05,-2.39982e-05,-0.000288451,37.6639,38.7087,-0.132788,19.422,38.71,37.6639,-0.134037,38.3317,213,11.8069,10.2084,0.075,15292
-1.61531e-07,-7.70801e-08,-1.55991e-06,-5.79174e-05,-3.40553e-05,-0.000272797,31.7446,35.2493,0.184105,17.5635,35.2902,31.7246,0.163217,33.4869,213,14.4686,13.281,0.075,15293
-1.71027e-07,-1.03533e-07,-1.55952e-06,-6.11558e-05,-4.01443e-05,-0.000270004,30.6581,33.7442,-0.0164874,16.9297,33.8151,30.615,-0.0443173,32.3782,213,14.6647,14.004,0.075,15294
1.5699e-08,-2.04202e-07,-1.55351e-06,-2.50297e-05,-7.35102e-05,-0.000268314,36.3801,29.2596,0.647761,17.9013,36.4167,29.2567,0.614065,32.8138,213,9.3971,15.691,0.075,15295
1.93925e-08,-1.60762e-07,-1.55517e-06,-2.60494e-05,-5.83042e-05,-0.000277535,36.6944,31.957,-0.242536,18.4906,36.7172,31.9556,-0.263951,34.8452,213,9.27081,15.0305,0.075,15296
-2.92429e-08,7.84389e-07,-1.55018e-06,-2.59601e-05,-0.00021623,-0.000218206,27.5005,-0.445341,-0.735625,14.9472,28.3139,-0.413993,-1.58042,29.3286,213,11.2051,0.897354,0.075,15297
-1.6435e-08,5.85063e-07,-1.60639e-06,-2.45162e-05,-0.000176107,-0.000229306,30.5601,8.29524,0.481613,15.5109,31.0318,8.29505,0.010097,27.8204,213,10.7482,1.93533,0.075,15298
-1.24842e-08,9.79045e-07,-1.30962e-06,-2.5841e-05,-0.000241437,-0.000187022,28.0877,-3.57799,4.41433,16.2289,28.8744,3.63295,-3.58333,29.5187,213,10.5068,0.075,0.075,15299
-3.46613e-10,7.3943e-07,-1.57922e-06,-2.36498e-05,-0.000207639,-0.000223217,28.3904,1.36702,-0.921052,15.4235,29.156,1.3714,-1.691,29.4355,213,10.05,1.11298,0.075,15300
1.10985e-07,-1.5282e-07,-1.55845e-06,-4.40562e-05,-5.51102e-05,-0.000268322,33.5263,31.9028,0.587358,16.5724,33.703,31.7553,0.558206,32.2151,213,6.49273,14.977,0.075,15301
-2.8877e-07,-1.93951e-07,-1.54776e-06,-0.000101946,-6.8015e-05,-0.000240317,21.0243,26.008,0.701148,12.9076,26.3442,20.8603,0.529004,23.5569,213,16.2594,15.787,0.075,15302
3.757e-07,7.07846e-07,-1.55464e-06,-0.000120951,-0.000193793,-0.000182474,10.1071,-0.591583,1.07093,7.41658,12.441,0.537639,-2.39218,13.6069,213,2.84666,0.907639,0.075,15303
-1.01913e-06,-2.3636e-08,-1.32615e-06,-0.000247794,-2.84214e-05,-0.000171172,-3.86562,28.3548,7.38821,16.8951,29.908,5.85154,-3.88216,30.1267,213,20.075,11.11,0.1125,15304
-8.17791e-07,-1.31053e-08,-1.52775e-06,-0.000235723,-2.43217e-05,-0.000212471,-4.44118,26.6084,-1.026,15.784,27.1205,-1.53187,-4.44741,30.2158,213,19.2751,10.8374,0.1125,15305
-8.05851e-07,-2.5586e-08,-1.52993e-06,-0.000227688,-2.45535e-05,-0.000216508,-2.90921,26.9262,-1.26716,15.2993,27.532,-1.7157,-3.06652,29.946,213,19.2751,11.3169,0.075,15306
-5.72977e-07,5.67737e-07,-1.66896e-06,-0.000163318,-0.000153254,-0.000202324,1.85839,3.33645,-3.87061,6.71632,6.80327,1.15033,-6.62937,11.6815,213,18.5952,1.57342,0.075,15307
-5.28148e-08,-1.46765e-07,-1.55749e-06,-2.9694e-05,-5.46303e-05,-0.000274181,36.4753,32.8128,0.566269,17.9756,36.5042,32.7971,0.552989,34.2485,213,12.019,14.8089,0.075,15308
5.09443e-07,-5.8709e-07,-1.47539e-06,-0.0001879,-6.72652e-05,-0.000231228,1.28569,19.0039,-5.07819,12.4425,19.7273,0.641746,-5.15766,22.5517,213,0.578007,20.0255,0.0375,15309
5.66679e-07,-5.6355e-07,-1.46612e-06,-0.00019269,-2.54367e-05,-0.000217806,5.2986,29.8639,1.6097,16.3887,31.7953,5.95885,-0.981995,29.917,213,0.603007,19.63,0.075,15310
-1.00671e-06,-7.74524e-08,-1.32004e-06,-0.00024381,-3.45378e-05,-0.000167368,-3.12399,27.6128,8.1034,15.8773,28.6229,7.10104,-3.13173,28.0736,213,20.075,13.0291,0.1125,15311
-8.38831e-07,-7.43516e-08,-1.50684e-06,-0.000230417,-3.54432e-05,-0.000223914,-5.27503,23.3618,-4.31978,14.6569,23.9731,-4.86535,-5.34073,29.079,213,19.4482,13.0502,0.075,15312
2.4545e-08,-3.19957e-07,-1.56723e-06,-2.37043e-05,-0.000112935,-0.0002554,34.2208,21.1151,0.190546,17.1129,34.3252,21.1018,0.0993888,29.8946,213,8.96475,16.9897,0.075,15313
3.53444e-08,-2.47809e-07,-1.55582e-06,-2.6586e-05,-8.68579e-05,-0.000264834,35.0838,26.2314,0.0912155,17.5534,35.1464,26.2204,0.0395729,31.6038,213,8.59685,16.2492,0.075,15314
2.62834e-07,-5.71698e-07,-1.51038e-06,-9.19753e-05,-0.000106941,-0.000233201,20.4476,18.2495,-0.294896,12.2865,24.2556,14.4641,-0.317421,21.4266,213,2.39545,20.225,0.1125,15315
3.08354e-07,-5.71826e-07,-1.50176e-06,-0.000102341,-0.000108049,-0.000218127,19.2616,18.4232,2.25564,11.8442,25.5936,12.4415,1.90531,20.5563,213,1.93864,20.225,0.075,15316
-3.08917e-07,-5.72095e-07,-1.50585e-06,-0.000101587,-0.000109448,-0.000217422,19.3778,18.2232,2.36457,11.7896,25.5599,12.4248,1.98081,20.4644,213,18.1614,20.225,0.075,15317
-2.63151e-07,-5.71417e-07,-1.51315e-06,-9.23235e-05,-0.000107345,-0.000232929,20.3516,18.1452,-0.299865,12.2473,24.1681,14.3554,-0.326524,21.3522,213,17.7045,20.225,0.1125,15318
6.02203e-08,-6.548e-07,-1.49355e-06,-2.47993e-05,-0.000142867,-0.00024036,32.5657,15.2245,0.905251,16.1387,32.8883,15.1962,0.610932,27.9962,213,6.53219,20.4079,0.0375,15319
7.25206e-08,-6.53195e-07,-1.50387e-06,-2.90513e-05,-0.000133113,-0.000238743,32.6067,17.3227,1.80822,15.8395,33.0996,17.2174,1.42066,27.4348,213,6.07538,20.4079,0.075,15320
-6.58641e-08,2.79828e-07,-1.55718e-06,-3.17573e-05,-9.778e-05,-0.000260077,33.2647,23.5676,-0.269794,16.8429,33.3434,23.5615,-0.342444,30.0152,213,12.4813,4.11437,0.075,15321
3.43558e-07,-4.39583e-07,-1.59585e-06,-0.000122168,-0.000105063,-0.000225035,14.1298,16.6421,-0.978779,10.6892,19.6847,11.802,-1.69365,18.7257,213,2.87239,18.3658,0.075,15322
-3.21505e-08,1.71155e-08,-1.55904e-06,-2.93805e-05,-2.41361e-05,-0.00028877,38.0373,38.8076,-0.060577,19.4353,38.809,38.0369,-0.0615845,38.4903,213,11.2147,9.67729,0.075,15323
-2.03317e-08,2.61261e-09,-1.55903e-06,-2.77004e-05,-2.39545e-05,-0.000289576,38.3828,38.9329,-0.0802011,19.5069,38.9335,38.3824,-0.0803848,38.7413,213,10.7951,10.2775,0.075,15324
4.57911e-07,-1.00984e-07,-1.57113e-06,-0.000154207,-3.85295e-05,-0.000221936,12.9378,29.9279,2.99013,13.6268,30.0662,12.9772,2.8125,23.8549,213,2.63286,13.9959,0.075,15325
-9.35226e-08,9.87983e-08,-1.55947e-06,-3.96126e-05,-3.95842e-05,-0.000278757,35.0701,35.0743,-0.0542315,17.6912,35.3132,34.8461,-0.0691382,35.1511,213,13.0948,6.944,0.075,15326
-7.7866e-08,7.74448e-08,-1.55958e-06,-3.63899e-05,-3.53175e-05,-0.00028158,35.9796,36.1371,-0.0327249,18.1477,36.2522,35.8749,-0.0431508,36.1082,213,12.6694,7.53133,0.075,15327
6.48985e-07,-5.48558e-08,-1.60529e-06,-0.000192401,-2.91035e-05,-0.00021879,4.93331,28.9176,1.05741,14.8359,29.8102,4.95966,0.138467,27.579,213,1.56834,12.5612,0.075,15328
7.02575e-07,-4.03942e-08,-1.61575e-06,-0.000209826,-2.67343e-05,-0.000228244,0.0830283,26.9747,-2.62206,15.3472,27.5122,0.105759,-3.18225,29.1896,213,1.31736,11.9791,0.112434,15329
-1.35856e-07,2.95477e-08,-1.55561e-06,-5.12066e-05,-2.54602e-05,-0.000279476,33.5365,37.3181,0.00952589,18.6721,37.3379,33.5326,-0.00639507,35.5945,213,13.9443,9.1316,0.075,15330
-8.8711e-08,3.10223e-07,-1.55552e-06,-3.80949e-05,-0.000106881,-0.00025371,31.4859,21.3829,-0.182621,15.9338,31.5955,21.3627,-0.272065,28.1808,213,13.1564,3.79141,0.075,15331
5.06473e-07,-4.64954e-07,-1.6137e-06,-0.000164689,-9.56154e-05,-0.000219126,5.34559,15.4908,-2.64983,11.4483,18.2288,4.6255,-4.66775,19.9458,213,1.59353,18.6741,0.075,15332
-5.45432e-07,-1.96203e-07,-1.5977e-06,-0.00018178,-6.6552e-05,-0.000167354,8.79337,25.7175,10.9122,9.03459,26.691,10.1103,8.62179,17.3728,213,18.1419,15.789,0.075,15333
-4.91112e-07,-2.47121e-07,-1.58873e-06,-0.000162469,-8.17053e-05,-0.000243179,4.93112,16.7933,-6.92322,12.2268,17.1476,4.95953,-7.30593,21.1774,213,17.9011,16.5069,0.075,15334
-4.02369e-07,-1.9652e-07,-1.56274e-06,-0.000133121,-6.57169e-05,-0.000268446,11.1174,21.0174,-8.75836,15.0866,21.2468,11.0562,-8.92648,26.5855,213,17.223,15.8417,0.075,15335
-5.53452e-07,3.94449e-07,-1.60728e-06,-0.00017266,-0.000132614,-0.000194804,2.24504,8.12667,-1.00749,6.9624,10.7464,1.79625,-3.17841,12.2219,213,18.3521,2.75248,0.075,15336
-5.96132e-07,2.89221e-07,-1.60876e-06,-0.000180968,-9.35543e-05,-0.000193598,4.01171,16.8506,2.15673,9.05817,18.4157,4.30393,0.29938,16.483,213,18.489,3.68086,0.075,15337
-3.11158e-07,3.99979e-08,-1.55651e-06,-0.000106042,-2.62335e-05,-0.000256393,22.4426,34.1644,0.359717,16.9751,34.2385,22.4399,0.288287,29.854,213,16.2833,8.64461,0.075,15338
-2.45368e-07,2.4109e-08,-1.55087e-06,-8.3338e-05,-2.40147e-05,-0.000268452,26.9796,35.6927,-0.209007,18.0139,35.7584,26.9743,-0.269349,32.5375,213,15.5675,9.30242,0.075,15339
-2.4056e-07,4.56021e-08,-1.55257e-06,-8.18517e-05,-2.74271e-05,-0.000265834,27.2625,35.2561,0.240072,17.5729,35.3241,27.2562,0.178354,31.8867,213,15.5327,8.46848,0.075,15340
4.95112e-08,7.9337e-07,-1.52221e-06,-2.8291e-05,-0.000209905,-0.000223987,26.9911,0.316489,-1.75168,15.2032,27.7893,0.383769,-2.61716,29.0226,213,8.20686,0.795696,0.0375,15341
5.13954e-08,7.87482e-07,-1.54663e-06,-2.79377e-05,-0.000215491,-0.000207965,28.0514,0.504516,1.6099,14.4996,28.9589,1.24713,-0.0402623,28.3774,213,8.1205,0.870696,0.075,15342
4.10257e-08,9.76572e-07,-1.31156e-06,-2.99033e-05,-0.000243372,-0.000180465,27.5434,-3.80984,5.42955,16.0588,28.3013,4.67822,-3.81638,28.8249,213,8.59318,0.075,0.075,15343
5.4474e-08,9.90461e-07,-1.32367e-06,-3.02494e-05,-0.000230759,-0.000200735,26.7445,-2.70525,1.70441,14.8077,26.9062,1.54669,-2.70923,27.7335,213,8.13636,0.075,0.1125,15344
6.0638e-07,5.82318e-08,-1.60348e-06,-0.000183654,-2.8861e-05,-0.000241429,4.94217,27.6775,-3.54343,16.1083,28.1757,4.94155,-4.04098,28.796,213,1.78364,7.93482,0.075,15345
-1.49975e-07,-1.65575e-07,-1.55559e-06,-5.76642e-05,-5.88794e-05,-0.000265071,30.2073,30.0288,-0.255642,15.6002,30.8991,29.3827,-0.30138,30.4706,213,14.4131,15.2478,0.075,15346
-1.13612e-07,-1.68775e-07,-1.55703e-06,-4.51879e-05,-6.06341e-05,-0.000268755,32.6976,30.4289,-0.138812,16.5248,32.8796,30.2781,-0.17002,31.8287,213,13.7018,15.2565,0.075,15347
2.87184e-08,-6.79295e-07,-1.49146e-06,-1.68607e-05,-0.000153812,-0.000238682,33.6075,13.4928,1.02745,16.6645,33.9872,13.4824,0.658169,29.1181,213,8.13794,20.507,0.0375,15348
1.00511e-06,9.09508e-08,-1.30551e-06,-0.000243558,-3.78591e-05,-0.000166053,-3.25095,26.961,8.13256,15.6866,28.1194,6.9771,-3.25388,27.7124,213,0.025,7.27182,0.1125,15349
8.26174e-07,8.37789e-08,-1.51903e-06,-0.000227984,-3.84252e-05,-0.000206598,-3.35055,24.4909,-0.209518,14.4325,25.3314,-0.866872,-3.53365,27.6283,213,0.692496,7.27941,0.075,15350
-2.16894e-07,-1.6902e-07,-1.55152e-06,-7.82844e-05,-6.02227e-05,-0.00025117,26.4251,29.0779,1.03249,14.1977,29.3632,26.2045,0.967758,26.9553,213,15.4178,15.3634,0.075,15351
-1.62362e-08,2.96047e-08,-1.5591e-06,-2.716e-05,-2.59246e-05,-0.000289005,38.3819,38.5634,-0.0765277,19.3205,38.5638,38.3823,-0.0773259,38.5507,213,10.6566,9.17526,0.075,15352
7.50825e-07,6.6547e-07,-1.52524e-06,-0.00020505,-0.000176554,-0.000159571,-6.35352,-2.16822,0.326164,6.43354,3.99962,-3.32773,-8.86747,11.179,213,0.520897,1.03924,0.1125,15353
7.23553e-07,6.54086e-07,-1.51083e-06,-0.00017187,-0.000147774,-0.000188247,1.63073,5.16993,-0.77461,7.89129,9.44087,2.92689,-6.34171,13.7373,213,0.52265,1.0218,0.0375,15354
2.90459e-07,-1.90946e-07,-1.5477e-06,-0.000101873,-6.63685e-05,-0.000239538,21.2687,26.4834,1.0492,12.956,26.7892,21.135,0.877122,23.5986,213,3.83473,15.7403,0.075,15355
6.87532e-08,9.70459e-07,-1.32216e-06,-3.14011e-05,-0.000240593,-0.000187036,26.829,-3.89602,3.97012,15.7513,27.5877,3.23017,-3.91481,28.6073,213,7.67955,0.075,0.075,15356
-4.9841e-08,-6.53606e-07,-1.50057e-06,-2.00532e-05,-0.000142387,-0.000247725,33.063,15.0953,-0.376229,16.909,33.2643,15.0715,-0.553682,29.3153,213,13.1102,20.3931,0.075,15357
-5.99547e-08,-6.51751e-07,-1.49199e-06,-2.47431e-05,-0.000141035,-0.000241036,32.6872,15.6068,0.919189,16.197,33.016,15.5752,0.622,28.0816,213,13.5671,20.3931,0.0375,15358
1.86607e-08,-8.0946e-08,-1.55893e-06,-2.71066e-05,-3.55627e-05,-0.000285348,37.8357,36.5937,-0.0934384,18.971,37.8436,36.5909,-0.0984489,37.3314,213,9.33903,13.3006,0.075,15359
-6.74885e-07,-8.27703e-08,-1.59871e-06,-0.000195596,-3.62647e-05,-0.00022516,2.90067,26.3025,-1.44146,14.8051,27.1896,2.99269,-2.42058,27.3089,213,18.6899,13.3894,0.075,15360
-2.46336e-08,7.44965e-08,-1.55944e-06,-2.73821e-05,-3.39986e-05,-0.000285934,37.8608,36.889,-0.114027,18.9917,37.8656,36.8879,-0.117752,37.5041,213,10.9712,7.64686,0.075,15361
7.48527e-07,-4.74988e-07,-1.51664e-06,-0.000225061,-0.00011816,-0.000184308,-8.01709,7.68392,-2.03157,10.8163,10.5424,-1.81707,-11.0901,18.7977,213,0.520897,18.3017,0.1125,15362
8.18246e-07,-5.58771e-07,-1.36644e-06,-0.000209175,-0.000106321,-0.000159407,-0.765161,14.3417,6.54458,8.64073,15.0114,7.37982,-2.27008,15.0002,213,0.025,18.7864,0.1125,15363
6.99097e-07,-5.24994e-07,-1.50055e-06,-0.000212853,-9.65994e-05,-0.00020255,-4.77287,12.3019,-3.25954,10.9713,13.4006,-0.589071,-8.54201,19.241,213,0.520897,18.7812,0.075,15364
-1.00501e-06,9.09119e-08,-1.32916e-06,-0.000242554,-3.7274e-05,-0.000170491,-3.36983,26.7806,7.21445,15.6303,27.8881,6.10956,-3.37245,27.7618,213,20.075,7.27182,0.1125,15365
-8.25922e-07,8.36598e-08,-1.51769e-06,-0.000230403,-3.74727e-05,-0.000205388,-3.72977,24.6069,-0.0557061,14.6333,25.4231,-0.758144,-3.84351,27.8524,213,19.4023,7.28447,0.075,15366
6.66979e-07,-8.20027e-08,-1.60568e-06,-0.00019236,-3.56527e-05,-0.000224732,3.77577,26.7921,-0.978903,14.8188,27.6739,3.87891,-1.96381,27.1912,213,1.45261,13.3705,0.075,15367
4.31923e-07,1.23011e-07,-1.56634e-06,-0.000141659,-4.69699e-05,-0.000263952,11.2376,25.1451,-6.72411,16.0771,25.3016,11.2097,-6.85266,27.9171,213,2.76616,6.17697,0.075,15368
3.36529e-07,1.0828e-07,-1.55458e-06,-0.000114482,-4.24092e-05,-0.000246508,19.8261,30.4118,0.434823,15.1458,30.582,19.8003,0.290388,26.5939,213,3.52622,6.5236,0.075,15369
-5.12125e-07,-5.91379e-07,-1.46635e-06,-0.000190747,-6.90862e-05,-0.000215889,1.86481,19.7338,-1.82792,11.3667,20.446,1.61208,-2.28739,21.0562,213,19.522,20.0255,0.0375,15370
-1.25684e-07,-5.88759e-08,-1.55952e-06,-4.99999e-05,-2.98939e-05,-0.000278694,33.4852,36.4383,-0.104195,18.29,36.462,33.4753,-0.117984,35.1818,213,13.7867,12.693,0.075,15371
-1.13261e-07,-9.19559e-08,-1.55996e-06,-4.6653e-05,-3.75009e-05,-0.000276188,33.8129,35.1571,0.0999998,17.5706,35.2191,33.7731,0.0778282,34.441,213,13.5699,13.6632,0.075,15372
-3.43636e-07,-4.38257e-07,-1.59572e-06,-0.000122566,-0.000104003,-0.000224868,14.1489,16.8754,-0.876779,10.6241,19.7216,11.9527,-1.52669,18.6217,213,17.2251,18.3549,0.075,15373
-8.13994e-07,-1.75219e-07,-1.51586e-06,-0.000228007,-5.74169e-05,-0.000229429,-7.265,17.7904,-7.47381,13.662,18.4727,-6.56976,-8.85134,26.2577,213,19.3966,15.2157,0.114429,15374
-8.01493e-07,-1.69686e-07,-1.49418e-06,-0.000209267,-5.54354e-05,-0.000255887,-5.04883,17.5452,-11.8961,15.2759,17.9731,-4.79404,-12.5788,27.4987,213,19.4216,15.1335,0.039429,15375
-6.57607e-07,-1.79204e-07,-1.60449e-06,-0.000200718,-6.11881e-05,-0.000266788,-4.55073,15.9428,-14.2548,15.5202,16.3656,-4.55344,-14.6749,27.4186,213,18.6804,15.4616,0.114429,15376
6.70181e-07,9.05417e-08,-1.59106e-06,-0.000197941,-3.70899e-05,-0.000214985,3.21107,26.836,0.707704,14.0287,27.7718,3.26846,-0.285524,26.46,213,1.43085,6.96106,0.075,15377
5.58637e-07,1.21804e-07,-1.59801e-06,-0.000181058,-4.69261e-05,-0.000200279,7.72381,27.4244,4.90068,12.2233,28.2608,7.97391,3.81421,22.655,213,1.97524,6.18502,0.075,15378
5.21856e-07,8.88524e-08,-1.58775e-06,-0.000167977,-3.71586e-05,-0.000233508,8.67488,27.8888,-0.950084,14.6662,28.1296,8.68675,-1.20273,25.8477,213,2.22176,6.95301,0.075,15379
7.48005e-07,5.83581e-07,-1.54098e-06,-0.000199828,-0.000155208,-0.00017322,-4.37903,2.17453,-0.470981,6.8056,6.43151,-1.92731,-7.17968,11.8895,213,0.520897,1.51879,0.075,15380
-2.79609e-07,9.13557e-07,-1.31448e-06,-8.91777e-05,-0.000219855,-0.000169711,16.5005,-2.69272,4.67224,9.99874,17.0196,4.43835,-2.97791,17.5098,213,16.2477,0.075,0.075,15381
2.7928e-07,9.13697e-07,-1.31195e-06,-8.97286e-05,-0.000220824,-0.000166699,16.559,-2.69573,5.25388,10.0415,17.1786,4.84302,-2.90446,17.5431,213,3.85227,0.075,0.075,15382
8.42423e-08,-6.3123e-07,-1.5022e-06,-2.86801e-05,-0.000109077,-0.000249876,33.9019,22.0936,1.41383,16.4662,34.2335,21.8746,1.30119,28.8145,213,5.76591,20.225,0.075,15383
-3.83248e-08,-6.66648e-07,-1.50065e-06,-1.60203e-05,-0.000150655,-0.000246221,33.4,13.6256,-0.410626,17.1501,33.665,13.5853,-0.635295,29.849,213,12.5207,20.4638,0.075,15384
-3.10178e-08,-6.71616e-07,-1.49193e-06,-1.65411e-05,-0.000150043,-0.00023951,33.9593,14.3513,1.2108,16.7432,34.3464,14.3149,0.860077,29.1858,213,12.0639,20.4638,0.0375,15385
5.19003e-08,-3.60596e-07,-1.58411e-06,-2.90356e-05,-0.000118898,-0.000243726,33.4733,20.2747,1.94059,15.9081,33.6284,20.248,1.81216,27.6694,213,7.87394,17.3769,0.075,15386
5.40374e-08,-2.76137e-07,-1.56041e-06,-2.99252e-05,-9.37843e-05,-0.000271401,33.0201,23.6408,-2.44658,17.8297,33.1243,23.625,-2.535,31.9857,213,7.90295,16.5838,0.075,15387
4.23453e-07,-5.61665e-07,-1.52688e-06,-0.000143583,-8.27369e-05,-0.000217459,11.7778,20.7145,0.927174,11.8563,24.1504,8.83128,0.437794,20.8256,213,1.06892,20.0675,0.075,15388
5.14433e-07,-6.04907e-07,-1.48785e-06,-0.000200689,-9.10994e-05,-0.000208671,-1.9075,14.1885,-3.07988,9.19618,15.0354,-2.4774,-3.35692,17.9687,213,0.490909,20.183,0.1125,15389
-3.29646e-07,1.12023e-07,-1.55698e-06,-0.000112578,-4.33348e-05,-0.000247757,20.0804,30.2505,0.226073,15.1598,30.4113,20.0541,0.0916326,26.6932,213,16.5257,6.43979,0.075,15390
-4.26659e-07,1.25562e-07,-1.56773e-06,-0.000139879,-4.78025e-05,-0.000264762,11.5118,25.0356,-6.83027,16.0779,25.1934,11.486,-6.96227,27.9484,213,17.3069,6.11802,0.075,15391
1.08289e-07,-9.01996e-08,-1.5597e-06,-4.53019e-05,-3.71119e-05,-0.000277533,34.0482,35.2511,-0.0607956,17.6985,35.32,33.9955,-0.0770144,34.7537,213,6.65176,13.6195,0.075,15392
1.32955e-09,-6.91736e-07,-1.49477e-06,-1.52272e-05,-0.00015803,-0.000238038,33.6661,12.6919,0.940699,16.6776,33.9814,12.6911,0.626157,29.2525,213,9.97958,20.5393,0.0375,15393
-5.17307e-07,-6.09586e-07,-1.47797e-06,-0.000201904,-8.94567e-05,-0.000203952,-1.60484,14.9109,-1.90559,9.14472,15.7249,-1.75997,-2.56451,17.9007,213,19.6091,20.183,0.1125,15394
-1.91799e-07,-1.35919e-07,-1.55681e-06,-6.90977e-05,-5.0368e-05,-0.000263759,28.3775,31.1284,-0.213391,15.7801,31.2904,28.2719,-0.269802,30.1644,213,15.0269,14.7387,0.075,15395
4.41964e-07,8.87037e-07,-1.34146e-06,-0.000132912,-0.000202052,-0.000167519,7.8583,-2.29661,2.77545,6.06729,9.24218,1.98736,-2.8924,10.5757,213,2.39545,0.075,0.1125,15396
-4.41374e-07,8.85279e-07,-1.34253e-06,-0.00013265,-0.00019947,-0.000165116,8.38709,-1.42716,3.61867,5.94497,9.86694,2.73467,-2.02301,10.3652,213,17.7045,0.075,0.1125,15397
7.40439e-07,8.55492e-07,-1.21043e-06,-0.000198307,-0.000192617,-0.000138502,-4.26484,-3.42912,4.51901,5.64096,5.47534,-2.84371,-5.80658,10.1308,213,0.481818,0.075,0.1125,15398
-1.71675e-10,9.96719e-07,-1.31166e-06,-2.67253e-05,-0.000229582,-0.000195982,28.1458,-1.64879,3.28626,15.0224,28.3949,3.03843,-1.65001,27.9966,213,10.05,0.075,0.1125,15399
1.23144e-08,9.79653e-07,-1.30461e-06,-2.78213e-05,-0.000243045,-0.000179031,28.2084,-3.40254,5.99945,16.1557,28.9079,5.30083,-3.40341,28.9575,213,9.59318,0.075,0.075,15400
-7.42988e-07,8.55873e-07,-1.24566e-06,-0.000199651,-0.000187114,-0.000144582,-4.64186,-2.80043,3.44635,5.21987,4.94481,-3.44582,-5.49492,9.58096,213,19.6182,0.075,0.1125,15401
-8.72604e-08,-4.02857e-08,-1.55933e-06,-3.80888e-05,-2.72519e-05,-0.000284052,36.0941,37.6858,-0.0317656,18.8698,37.6997,36.0884,-0.0398916,36.9603,213,12.8907,12.0277,0.075,15402
-8.46501e-08,9.8277e-07,-1.3283e-06,-3.68873e-05,-0.000226901,-0.000189133,26.5942,-1.31397,4.23318,14.11,26.9021,3.92931,-1.31798,25.9967,213,12.8773,0.075,0.1125,15403
1.52088e-07,-3.90407e-08,-1.55893e-06,-5.58768e-05,-2.64209e-05,-0.00027701,32.5548,36.8811,0.0758745,18.4173,36.897,32.5523,0.0624157,34.8659,213,5.84356,12.0105,0.075,15404
1.97824e-07,-6.15643e-08,-1.55825e-06,-7.03673e-05,-2.99069e-05,-0.000271229,29.2866,35.2292,-0.215052,17.769,35.2807,29.2773,-0.25727,32.949,213,5.09209,12.8211,0.075,15405
-5.63618e-10,7.46662e-07,-1.55943e-06,-2.44032e-05,-0.000201794,-0.000231802,27.9532,1.89889,-2.50857,15.901,28.6235,1.89855,-3.17852,29.592,213,10.05,1.03798,0.0375,15406
-5.73304e-07,2.24455e-07,-1.60333e-06,-0.00017445,-7.28623e-05,-0.000234138,3.72312,18.6439,-5.04343,12.4469,19.2439,3.72961,-5.64992,21.7758,213,18.2898,4.45738,0.075,15407
-6.39707e-07,7.3225e-07,-1.48398e-06,-0.000162135,-0.000181235,-0.000172591,2.30629,-0.499022,0.77059,6.42837,7.46497,0.50466,-5.39177,11.147,213,19.1205,0.542257,0.0375,15408
-8.41579e-08,-6.3087e-07,-1.50115e-06,-2.89904e-05,-0.000108721,-0.00024933,33.9116,22.2011,1.54917,16.3998,34.2323,21.9969,1.43269,28.7089,213,14.3341,20.225,0.075,15409
-1.11586e-07,-5.45335e-07,-1.54562e-06,-4.01652e-05,-7.05298e-05,-0.000258969,33.8945,29.4347,1.75775,18.118,36.6608,28.0013,0.424847,32.7757,213,14.4299,19.1096,0.075,15410
-7.86602e-08,-5.81279e-07,-1.51641e-06,-2.96681e-05,-3.9073e-05,-0.000260869,39.1799,37.7986,5.22231,18.3312,41.1437,36.5758,4.48133,34.6053,213,13.7398,19.5181,0.075,15411
-8.23182e-08,-5.27853e-07,-1.56829e-06,-3.16086e-05,-0.000102911,-0.000269061,31.9812,21.5087,-2.89459,18.2422,32.9048,21.2701,-3.57959,32.2799,213,13.5235,18.8174,0.075,15412
1.56115e-07,-7.63623e-08,-1.55943e-06,-5.67805e-05,-3.33406e-05,-0.000273345,32.0334,35.4761,0.225519,17.6545,35.5143,32.0152,0.205434,33.6959,213,5.73035,13.2668,0.075,15413
8.4416e-08,9.83024e-07,-1.33222e-06,-3.69645e-05,-0.000227782,-0.000191434,26.2782,-1.74822,3.59046,14.215,26.6721,3.20629,-1.75791,26.3016,213,7.22273,0.075,0.1125,15414
-9.36919e-07,3.3959e-07,-1.29805e-06,-0.000226077,-0.000105909,-0.000143963,-3.34541,14.3044,8.71504,10.4253,17.4426,5.63939,-3.40799,18.1097,213,20.075,3.43364,0.1125,15415
-8.33526e-08,-1.44446e-07,-1.55788e-06,-3.78559e-05,-5.33252e-05,-0.000273062,34.7403,32.4682,0.194396,17.3231,34.8221,32.4049,0.17589,33.5031,213,12.9291,14.7966,0.075,15416
3.83302e-07,-6.08458e-07,-1.51432e-06,-0.000124106,-0.000136163,-0.000207476,12.3984,10.6275,0.153353,8.63114,16.2925,7.85646,-0.969744,14.9508,213,1.03483,20.505,0.0375,15417
3.94176e-07,-5.05394e-07,-1.55026e-06,-0.00013554,-5.39406e-05,-0.000229038,15.32,27.305,1.58755,16.5233,32.2218,12.8155,-0.824816,28.7641,213,2.09763,19.1588,0.075,15418
9.33888e-07,-3.27898e-07,-1.32658e-06,-0.000226912,-0.000103514,-0.000151879,-4.06208,14.0619,6.95832,10.0567,15.9904,5.09078,-4.12303,17.4391,213,0.025,16.8673,0.1125,15419
1.38622e-07,-6.07084e-07,-1.51152e-06,-4.60765e-05,-0.000107703,-0.000246115,30.2007,21.1493,0.820003,15.3526,31.4879,19.8994,0.782674,26.8566,213,4.30909,20.225,0.1125,15420
4.06179e-07,-5.23272e-07,-1.53261e-06,-0.000131354,-3.21125e-05,-0.000229706,18.3039,32.88,3.85848,17.4308,37.3493,15.2054,2.48767,30.5567,213,1.60301,19.63,0.075,15421
3.85855e-07,-6.36489e-07,-1.52661e-06,-0.000135368,-0.00015579,-0.000199928,8.56284,5.56327,-0.919462,5.65704,10.3033,3.91414,-1.01079,9.8256,213,0.947727,20.6625,0.1125,15422
-7.27698e-07,7.32655e-07,-1.4369e-06,-0.000189625,-0.000182301,-0.000157847,-3.02214,-1.94641,1.64529,7.46673,7.17101,-2.73182,-7.76245,13.1602,213,19.5524,0.617257,0.075,15423
6.39016e-07,7.29928e-07,-1.50768e-06,-0.000153452,-0.000172694,-0.000183486,4.17327,1.34712,-0.237949,6.76933,8.82322,1.17465,-4.71543,11.7577,213,0.979468,0.542257,0.0375,15424
9.37356e-07,3.3968e-07,-1.29934e-06,-0.000225534,-0.000106108,-0.00014809,-3.61901,13.9217,7.75554,10.2506,16.7949,4.96963,-3.70626,17.8242,213,0.025,3.43364,0.1125,15425
3.35925e-07,7.20848e-07,-1.52506e-06,-0.000111361,-0.000189081,-0.000199597,11.2519,-0.163096,-1.70768,8.50947,13.0764,0.247338,-3.94258,15.3588,213,3.19212,0.832639,0.0375,15426
3.10857e-08,5.76776e-07,-1.60954e-06,-2.45079e-05,-0.000168413,-0.000250352,29.3142,8.17811,-3.85671,17.0979,29.8264,8.17865,-4.36942,29.9619,213,8.77261,1.9771,0.075,15427
-9.34513e-07,-3.27499e-07,-1.31622e-06,-0.000226539,-0.000103177,-0.000152448,-3.99413,14.1247,6.88801,9.90302,15.7297,5.36517,-4.07631,17.1587,213,20.075,16.8673,0.1125,15428
-7.62466e-07,3.49398e-07,-1.52045e-06,-0.000217283,-0.000111956,-0.000193289,-6.40742,9.06249,-2.88328,8.79169,10.2383,-3.12151,-7.34504,15.8981,213,19.3587,3.18776,0.1125,15429
-6.16759e-07,-1.16327e-07,-1.60333e-06,-0.000182861,-4.20698e-05,-0.000220353,5.86826,26.5469,0.361582,13.7554,27.1844,5.91859,-0.326296,24.9808,213,18.4073,14.2711,0.075,15430
-3.8611e-07,-6.3806e-07,-1.52615e-06,-0.000135915,-0.000154948,-0.000200641,8.4432,5.64773,-1.06337,5.74277,10.3246,3.86399,-1.16099,9.97264,213,19.1523,20.6625,0.1125,15431
-5.12419e-07,-5.30379e-08,-1.57866e-06,-0.000162458,-2.78363e-05,-0.000259383,8.45429,28.2268,-5.78155,17.0799,28.3009,8.4575,-5.85887,29.712,213,17.7885,12.5419,0.075,15432
-3.83483e-07,-6.10593e-07,-1.51276e-06,-0.000125312,-0.000135927,-0.000209746,11.9185,10.3595,-0.482799,8.55966,15.612,7.69051,-1.50731,14.8395,213,19.0652,20.505,0.0375,15433
-1.38898e-07,-6.08398e-07,-1.51112e-06,-4.61933e-05,-0.000107416,-0.00024609,30.2018,21.2097,0.841953,15.3527,31.5074,19.944,0.802016,26.8603,213,15.7909,20.225,0.1125,15434
-6.56242e-07,-5.50406e-08,-1.5962e-06,-0.00019966,-2.93046e-05,-0.00021442,3.57822,28.5992,1.41031,14.5784,29.5681,3.60837,0.411254,27.697,213,18.5818,12.5634,0.075,15435
-1.61041e-07,-5.34012e-07,-1.54281e-06,-5.90419e-05,-7.24868e-05,-0.000254226,29.618,27.6433,0.950381,16.5525,32.8071,25.7026,-0.297981,30.1865,213,15.4299,19.1096,0.075,15436
-1.72103e-07,1.1442e-07,-1.55848e-06,-6.19766e-05,-4.45649e-05,-0.000267961,30.2386,32.796,-0.0153765,16.4723,32.8915,30.1808,-0.053098,31.6764,213,14.6775,6.51165,0.075,15437
-3.35864e-07,7.20815e-07,-1.53095e-06,-0.000110536,-0.000187286,-0.000198913,11.6821,0.409467,-1.29826,8.53116,13.51,0.835652,-3.55233,15.3463,213,16.9079,0.832639,0.0375,15438
-6.2456e-07,-3.40095e-08,-1.60068e-06,-0.000191763,-2.54381e-05,-0.000226886,4.67267,29.1016,-0.486027,15.5858,29.883,4.69394,-1.28868,28.6527,213,18.4086,11.7893,0.075,15439
-1.34226e-07,-1.27405e-07,-1.55891e-06,-5.11668e-05,-4.84487e-05,-0.000271091,32.1812,32.5804,-0.120085,16.5582,32.9623,31.8334,-0.154172,32.5667,213,14.0509,14.5131,0.075,15440
-7.25495e-07,6.55342e-07,-1.48709e-06,-0.000181026,-0.000157903,-0.000175428,-0.318303,3.0779,0.503929,6.58137,7.25748,1.91129,-5.90525,11.466,213,19.5774,1.0218,0.0375,15441
7.61085e-07,3.45473e-07,-1.52158e-06,-0.000217773,-0.000110558,-0.000193794,-6.44155,9.30557,-2.91961,8.90936,10.462,-3.16088,-7.35671,16.1353,213,0.754009,3.2239,0.1125,15442
-5.13881e-07,9.1296e-08,-1.58843e-06,-0.000166308,-3.75248e-05,-0.000233995,8.99623,27.9113,-0.945284,14.6474,28.1244,9.00823,-1.1704,25.7606,213,17.8455,6.88771,0.075,15443
6.36614e-07,-1.76935e-08,-1.6283e-06,-0.00019068,-2.32005e-05,-0.000253609,2.64421,27.2428,-6.59846,17.6035,27.9247,2.64624,-7.28236,31.4413,213,1.65778,11.1278,0.112434,15444
8.59581e-07,-5.55441e-09,-1.49209e-06,-0.000245636,-2.51155e-05,-0.000194173,-5.18768,27.2013,2.37097,16.6141,28.0248,1.56328,-5.20348,30.4148,213,0.640452,10.5198,0.112434,15445
-6.29124e-07,-1.35284e-07,-1.60981e-06,-0.000191668,-4.65738e-05,-0.000232698,2.17673,23.4874,-3.84953,14.189,23.987,2.21859,-4.39095,25.7182,213,18.4872,14.679,0.114429,15446
-5.65564e-07,-1.6141e-07,-1.59615e-06,-0.000176399,-5.56126e-05,-0.000184988,9.46077,27.2013,8.19926,11.0379,28.3822,10.1727,6.30647,20.419,213,18.2048,15.2488,0.039429,15447
-6.58356e-07,-1.28514e-07,-1.59063e-06,-0.000182589,-4.53262e-05,-0.000240306,3.76433,23.9247,-4.71294,14.9395,24.5485,3.75824,-5.3306,26.5292,213,18.6633,14.5136,0.039429,15448
-1.3485e-07,-3.05511e-08,-1.55779e-06,-5.2942e-05,-2.4846e-05,-0.000279846,33.1423,37.2689,-0.184188,18.7434,37.2866,33.1407,-0.200261,35.5954,213,13.9315,11.6606,0.075,15449
-4.72938e-07,-2.80926e-08,-1.58064e-06,-0.000151724,-2.37312e-05,-0.000263426,11.0398,29.8388,-5.36634,17.6807,29.9131,11.0474,-5.44832,30.6468,213,17.5283,11.59,0.075,15450
2.43706e-07,3.82387e-08,-1.55152e-06,-8.61423e-05,-2.61337e-05,-0.000263791,26.5431,35.3569,0.451027,17.4977,35.4038,26.5389,0.408348,31.5125,213,4.53753,8.73662,0.075,15451
-1.50587e-07,1.53727e-07,-1.55925e-06,-5.4699e-05,-5.47329e-05,-0.00026696,31.131,31.126,-0.0448905,15.8377,31.5894,30.7086,-0.085887,31.2442,213,14.3577,5.72855,0.075,15452
-5.95185e-07,5.64015e-08,-1.60064e-06,-0.000184311,-2.81071e-05,-0.000238986,5.08321,28.0256,-2.94728,15.8896,28.4298,5.08108,-3.34936,28.5145,213,18.2694,8.00841,0.075,15453
-6.64996e-07,9.06643e-08,-1.587e-06,-0.000200411,-3.69152e-05,-0.000212846,2.83349,26.847,1.00707,13.8461,27.7306,2.91847,0.0384508,26.3704,213,18.6525,6.9606,0.075,15454
-5.99534e-07,-8.30448e-08,-1.59077e-06,-0.000185112,-3.63997e-05,-0.000232696,4.70338,26.5456,-2.28539,14.7547,26.8666,4.73966,-2.64269,26.5979,213,18.2992,13.4452,0.075,15455
4.06346e-08,-3.99501e-07,-1.59136e-06,-2.62688e-05,-0.000126104,-0.00024938,32.9363,18.273,0.166883,16.5792,33.1443,18.2459,-0.0140711,28.7651,213,8.24248,17.6778,0.075,15456
2.77804e-07,-5.14204e-07,-1.5378e-06,-0.000100706,-8.22293e-05,-0.000252019,18.9,21.6139,-3.32404,14.8978,25.8948,15.1958,-3.90071,26.143,213,3.09763,19.1588,0.075,15457
2.81748e-07,-5.2572e-07,-1.51733e-06,-9.88005e-05,-1.81976e-05,-0.000231713,27.2408,39.0793,7.71918,19.0551,43.8739,24.4018,5.7636,33.0071,213,2.8567,19.4217,0.075,15458
1.26269e-07,2.78486e-08,-1.55838e-06,-5.01152e-05,-2.46457e-05,-0.00028002,33.8241,37.565,0.0568731,18.7685,37.5804,33.8222,0.0433313,35.8062,213,6.34079,9.19974,0.075,15459
4.11333e-08,2.08603e-08,-1.55927e-06,-2.95041e-05,-2.50735e-05,-0.00028832,37.9621,38.6128,-0.0514807,19.3344,38.6156,37.9612,-0.0532957,38.3458,213,8.58155,9.51757,0.075,15460
-8.09869e-07,-1.65448e-09,-1.51501e-06,-0.000230745,-2.49828e-05,-0.000214703,-3.51517,26.7061,-1.15898,15.4764,27.4342,-1.88368,-3.51856,30.1685,213,19.2751,10.3578,0.075,15461
-5.55708e-07,1.21158e-07,-1.59495e-06,-0.00018174,-4.68747e-05,-0.000200262,7.5663,27.3746,4.84578,12.2017,28.1844,7.82132,3.78097,22.6551,213,18.1138,6.19091,0.075,15462
7.82986e-07,-5.53119e-08,-1.54962e-06,-0.000207735,-2.80853e-05,-0.000209733,2.18953,28.5756,1.8962,14.6567,29.8163,2.34226,0.502811,28.4384,213,0.866429,12.461,0.0375,15463
8.78315e-08,3.00447e-07,-1.55719e-06,-3.7101e-05,-0.000103847,-0.000254745,31.9117,22.1083,-0.0547332,16.0817,32.0179,22.0929,-0.145484,28.5266,213,6.97866,3.88267,0.075,15464
-7.36995e-07,2.29154e-07,-1.54604e-06,-0.000211107,-7.61341e-05,-0.000210319,-3.16651,16.6576,-3.05078,11.0596,17.4744,-2.3894,-4.64471,21.0822,213,19.1595,4.44382,0.075,15465
5.64748e-08,-2.27727e-07,-1.55644e-06,-3.00253e-05,-8.08628e-05,-0.000265119,34.7908,27.3241,0.261394,17.3234,34.8561,27.3108,0.209376,31.558,213,7.87043,16.0273,0.075,15466
-2.06163e-07,1.65937e-07,-1.55737e-06,-7.49714e-05,-5.83202e-05,-0.000257042,26.8504,29.296,0.108775,14.7137,29.4709,26.7406,0.0435971,28.1616,213,15.234,5.4704,0.075,15467
7.31622e-07,2.28945e-07,-1.55125e-06,-0.000209644,-7.58208e-05,-0.000210831,-2.83346,16.8218,-3.00775,11.0332,17.6152,-2.18341,-4.4512,21.0244,213,0.966717,4.45023,0.075,15468
-2.35868e-07,4.07558e-07,-1.55563e-06,-8.31006e-05,-0.000139543,-0.000226107,20.1964,11.9064,-0.807723,10.841,20.5906,11.796,-1.09151,18.8884,213,15.809,2.8414,0.075,15469
1.07202e-07,-6.27077e-08,-1.55979e-06,-4.48566e-05,-3.11632e-05,-0.000280032,34.4777,36.4889,-0.0636225,18.2965,36.5156,34.4647,-0.0773623,35.6119,213,6.70834,12.813,0.075,15470
2.19441e-07,-8.55647e-08,-1.55784e-06,-7.77428e-05,-3.58226e-05,-0.000267706,27.2903,33.4474,-0.610515,17.1008,33.5241,27.2806,-0.677553,31.5468,213,4.77534,13.5684,0.075,15471
2.15744e-08,-1.04627e-07,-1.55809e-06,-2.71333e-05,-4.20112e-05,-0.000282116,37.5286,35.3434,0.0780436,18.7352,37.5403,35.3398,0.0699206,36.42,213,9.21807,13.9128,0.075,15472
1.18299e-07,-6.15414e-07,-1.50396e-06,-4.19312e-05,-0.00010865,-0.000242805,31.4178,21.6186,1.91446,15.4205,32.4975,20.7968,1.65653,26.9669,213,4.76591,20.225,0.075,15473
7.62029e-07,-2.75582e-07,-1.51995e-06,-0.000216161,-9.11842e-05,-0.000202802,-5.08532,13.2706,-3.12328,10.4335,14.4654,-3.00172,-6.40167,19.3919,213,0.754009,16.5966,0.075,15474
-1.99763e-07,-5.48285e-07,-1.51192e-06,-6.50234e-05,-4.65505e-05,-0.000256016,30.4373,33.1505,2.38525,18.6089,38.478,26.2348,1.26021,32.8542,213,16.2433,19.4217,0.075,15475
-1.18547e-07,-6.16527e-07,-1.50313e-06,-4.2113e-05,-0.000108581,-0.00024291,31.3709,21.6084,1.87883,15.4246,32.4548,20.7977,1.60565,26.9805,213,15.3341,20.225,0.075,15476
-8.18689e-07,-5.6145e-07,-1.37192e-06,-0.000214296,-0.000111811,-0.000165957,-3.12125,11.9311,3.97848,8.7217,12.7107,4.81033,-4.7327,15.1287,213,20.075,18.7864,0.1125,15477
-3.51537e-08,6.82979e-08,-1.55948e-06,-2.90526e-05,-3.30468e-05,-0.000285481,37.5907,37.0041,-0.0721172,18.8416,37.6064,36.993,-0.0767871,37.3803,213,11.3403,7.82799,0.075,15478
-2.42766e-07,-4.55015e-07,-1.58425e-06,-8.588e-05,-0.000105233,-0.000238106,21.6137,18.7712,-0.744532,13.0512,24.4459,16.851,-1.65648,23.2545,213,16.2978,18.4431,0.075,15479
3.29896e-07,-6.25015e-07,-1.5233e-06,-0.000107814,-0.000163474,-0.000202398,14.236,6.06098,0.344049,8.17398,16.3133,4.36239,-0.0346593,14.6529,213,1.40455,20.6625,0.075,15480
-3.29688e-07,-6.25826e-07,-1.52523e-06,-0.000108281,-0.000164269,-0.00020207,14.0803,5.85705,0.30502,8.12296,16.1643,4.1597,-0.0816249,14.595,213,18.6955,20.6625,0.075,15481
1.01885e-06,-2.30993e-08,-1.28537e-06,-0.00025098,-2.81858e-05,-0.000172875,-4.76833,27.9545,6.70329,16.9519,29.1076,5.57805,-4.79618,30.0893,213,0.025,11.11,0.1125,15482
-6.76978e-07,-3.98244e-07,-1.60653e-06,-0.000204951,-0.000115706,-0.000205924,-4.9748,8.13293,-5.11782,9.26314,10.052,-3.53745,-8.47425,16.6173,213,19.1179,17.8302,0.1125,15483
1.99878e-07,-2.46196e-07,-1.55297e-06,-7.39318e-05,-8.71645e-05,-0.000243688,25.6525,23.7089,0.719542,12.8033,26.2302,23.227,0.623667,24.2449,213,4.77453,16.4163,0.075,15484
-5.2071e-08,3.88133e-07,-1.56e-06,-3.00778e-05,-0.000129984,-0.00024596,31.9779,17.3042,0.27019,15.9689,32.0949,17.3002,0.157137,27.6838,213,12.0783,3.16523,0.075,15485
1.0203e-06,3.00316e-08,-1.27926e-06,-0.000251802,-2.88623e-05,-0.000172327,-4.97784,27.7664,6.69502,16.9164,28.8537,5.60902,-4.97909,29.9756,213,0.025,9.19091,0.1125,15486
9.87197e-07,-1.68435e-07,-1.31898e-06,-0.000237558,-6.35484e-05,-0.000161736,-3.80657,21.751,7.32969,13.8922,23.7121,5.63429,-4.07231,24.4234,213,0.025,14.9482,0.1125,15487
-3.08708e-07,4.42051e-07,-1.56335e-06,-0.000103282,-0.00014525,-0.00021714,15.6507,9.48664,-1.0721,9.16329,16.6457,9.10047,-1.68091,15.9536,213,16.6182,2.529,0.075,15488
-3.23971e-07,9.14542e-07,-1.31971e-06,-0.000102028,-0.00021277,-0.000173537,13.7166,-2.54864,3.21367,8.61318,14.5322,2.54368,-2.6942,15.2955,213,16.7045,0.075,0.1125,15489
3.24214e-07,9.15715e-07,-1.31453e-06,-0.000102601,-0.000214202,-0.000176115,13.2042,-3.18729,2.40686,8.568,13.8266,1.90659,-3.30941,15.2141,213,3.39545,0.075,0.1125,15490
-1.02241e-06,3.0003e-08,-1.30621e-06,-0.000249979,-3.01591e-05,-0.000173833,-4.80174,27.4843,6.3821,16.7247,28.647,5.21999,-4.80232,29.7332,213,20.075,9.19091,0.1125,15491
-9.86464e-07,-1.68043e-07,-1.31493e-06,-0.00023711,-6.48225e-05,-0.000163953,-4.02525,21.2795,6.71971,13.7496,23.2019,5.06943,-4.29738,24.215,213,20.075,14.9482,0.1125,15492
-1.20561e-07,1.22536e-07,-1.55932e-06,-4.77432e-05,-4.66518e-05,-0.000273049,32.989,33.1493,-0.102797,16.7757,33.4232,32.7404,-0.128143,33.2152,213,13.7457,6.37412,0.075,15493
4.49175e-07,-6.56753e-07,-1.49926e-06,-0.000172954,-0.000140166,-0.000180866,2.7713,7.58696,1.60916,5.29441,9.78269,2.99087,-0.806134,9.29164,213,0.490909,20.6625,0.075,15494
-4.49453e-07,-6.60867e-07,-1.49617e-06,-0.000174226,-0.000137562,-0.000182617,2.54536,7.93033,1.31294,5.5669,10.0142,2.89404,-1.11961,9.76646,213,19.6091,20.6625,0.075,15495
-7.22773e-08,-6.50448e-07,-1.50249e-06,-2.9367e-05,-0.000130905,-0.000240295,32.5921,17.6786,1.6121,15.9231,33.0791,17.5709,1.23281,27.5828,213,14.0239,20.3931,0.075,15496
1.60261e-07,-5.94983e-07,-1.50063e-06,-4.91367e-05,-0.000114367,-0.000249029,28.57,18.9893,-0.78919,15.4272,30.0109,17.6027,-0.843535,26.8908,213,3.85227,20.225,0.075,15497
-1.60629e-07,-5.9602e-07,-1.50062e-06,-4.91161e-05,-0.000113902,-0.000249523,28.5722,19.0567,-0.862582,15.4987,30.0827,17.5983,-0.914674,27.0132,213,16.2477,20.225,0.075,15498
5.4929e-07,-5.26521e-07,-1.52832e-06,-0.000178719,-4.90191e-05,-0.000196164,8.47486,27.5246,5.91266,14.4207,30.6444,9.46473,1.80298,25.8758,213,1.025,19.2659,0.075,15499
-9.13878e-08,-2.0788e-07,-1.55642e-06,-3.93907e-05,-7.43036e-05,-0.00026568,33.1006,27.9728,-0.135703,16.6937,33.2056,27.9139,-0.181771,31.0812,213,13.2396,15.8109,0.075,15500
-5.6873e-07,8.60731e-07,-1.37664e-06,-0.000150637,-0.000201949,-0.000172734,3.1204,-4.41602,-0.125074,5.07548,4.62701,-0.52376,-5.52395,8.79131,213,18.6182,0.075,0.1125,15501
5.6859e-07,8.61051e-07,-1.39055e-06,-0.000147901,-0.000202281,-0.00017958,3.10707,-4.87995,-1.54577,5.11834,4.14923,-1.38043,-6.08745,8.87476,213,1.48182,0.075,0.1125,15502
-8.69163e-07,5.98464e-07,-1.3559e-06,-0.000209018,-0.00016014,-0.000145643,-4.47129,2.70771,4.83699,6.6705,7.69821,1.01799,-5.64279,11.5537,213,20.075,1.51455,0.1125,15503
-2.35252e-08,-6.764e-07,-1.50269e-06,-1.70108e-05,-0.000137552,-0.000249789,34.0532,16.3487,-0.136171,17.3376,34.3166,16.3079,-0.358704,30.0372,213,11.6071,20.4638,0.075,15504
-8.09267e-07,7.83695e-08,-1.53239e-06,-0.000227049,-3.19735e-05,-0.000209482,-2.7922,25.8595,-0.212052,15.198,26.9583,-0.665363,-3.4377,29.109,213,19.3251,7.42749,0.075,15505
7.66092e-07,-4.16701e-07,-1.50478e-06,-0.000221425,-0.000121139,-0.000183791,-7.37326,7.35625,-1.84581,8.76975,9.03662,-2.39656,-8.50288,15.4214,213,0.520897,17.8221,0.075,15506
2.23504e-07,-5.74194e-07,-1.5011e-06,-7.93509e-05,-0.000113719,-0.000226614,23.464,18.4162,1.83475,12.4281,26.489,15.5932,1.63281,21.5805,213,2.85227,20.225,0.075,15507
7.38013e-07,4.02375e-07,-1.53081e-06,-0.000204963,-0.000127271,-0.000190584,-4.62484,6.78615,-2.51303,7.50731,8.43005,-2.1972,-6.58457,13.3721,213,0.754009,2.74435,0.075,15508
-7.38747e-07,4.06904e-07,-1.53144e-06,-0.000202737,-0.000127422,-0.000194483,-4.46835,6.5935,-3.25608,7.46988,8.0327,-2.25657,-6.90706,13.2418,213,19.3587,2.70821,0.075,15509
-2.82348e-07,-5.25177e-07,-1.51987e-06,-9.92836e-05,-1.83108e-05,-0.000230741,27.2049,39.0978,7.89706,19.1002,44.0114,24.3774,5.81093,33.0869,213,17.2433,19.4217,0.075,15510
-2.23786e-07,-5.73915e-07,-1.50274e-06,-7.95039e-05,-0.000113386,-0.000226369,23.4812,18.5047,1.91038,12.4706,26.6253,15.5869,1.6841,21.6471,213,17.2477,20.225,0.075,15511
-7.63403e-07,-2.784e-07,-1.51864e-06,-0.000217503,-9.21818e-05,-0.00019833,-5.08315,13.3234,-2.26704,10.3841,14.5315,-2.32148,-6.23679,19.1138,213,19.3587,16.6327,0.075,15512
-7.63815e-07,2.98536e-07,-1.50652e-06,-0.000215987,-9.72529e-05,-0.000201139,-5.45529,11.9838,-3.27447,9.69245,12.9974,-3.35584,-6.38752,18.0609,213,19.3587,3.6673,0.075,15513
-6.42759e-07,-4.48929e-07,-1.59709e-06,-0.000195449,-9.87393e-05,-0.000206501,-1.15934,13.045,-2.78257,9.92861,14.373,0.214251,-5.48419,17.7095,213,19.1179,18.3097,0.075,15514
-5.89267e-09,-6.92828e-07,-1.50575e-06,-1.62006e-05,-0.000145658,-0.000243285,34.0981,15.084,0.745142,16.871,34.2918,15.0856,0.549875,29.3145,213,10.4364,20.5393,0.075,15515
-1.01628e-07,-3.6648e-07,-1.58554e-06,-4.15759e-05,-0.000120135,-0.000244674,30.2551,18.7166,0.425039,15.091,30.4789,18.621,0.296877,26.3376,213,13.743,17.4853,0.075,15516
-1.02462e-07,-2.80028e-07,-1.56147e-06,-4.27245e-05,-9.57914e-05,-0.000258509,30.9613,23.1671,-0.732039,16.0003,31.169,23.059,-0.831604,28.8147,213,13.6197,16.6797,0.075,15517
1.99423e-08,7.23774e-07,-1.58777e-06,-2.68962e-05,-0.000204298,-0.000236085,26.7196,0.663743,-4.00506,16.1892,27.5459,0.664898,-4.8325,30.0097,213,9.24529,1.1814,0.075,15518
5.8842e-07,-3.17045e-08,-1.59962e-06,-0.000177414,-2.49935e-05,-0.000247419,6.24353,28.6303,-4.03839,16.7419,29.0383,6.24271,-4.44555,29.623,213,1.90876,11.7099,0.075,15519
-2.78131e-07,-5.13854e-07,-1.53951e-06,-0.000100831,-8.31394e-05,-0.000252875,18.7051,21.3035,-3.62641,14.8568,25.5703,14.9551,-4.14324,26.0799,213,17.0024,19.1588,0.075,15520
-7.91491e-07,-1.50532e-07,-1.52466e-06,-0.000219422,-5.60364e-05,-0.000182384,-0.675541,23.3217,4.76433,12.7654,24.7607,3.41999,-0.770172,23.715,213,19.3167,14.8079,0.075,15521
6.68774e-07,5.02471e-07,-1.60365e-06,-0.000186551,-0.000151656,-0.000183769,-1.84197,3.28333,-1.43339,5.92607,6.35345,-0.84679,-5.49869,10.343,213,1.00859,2.01288,0.075,15522
7.62288e-07,2.95321e-07,-1.50944e-06,-0.000216096,-9.55534e-05,-0.000200717,-5.28323,12.4215,-3.02447,9.79463,13.4275,-3.15185,-6.1618,18.2712,213,0.754009,3.70344,0.075,15523
-1.48911e-08,-6.29914e-07,-1.50275e-06,-1.52752e-05,-0.000113078,-0.000270109,34.8586,20.4939,-2.57006,18.7278,34.8812,20.4757,-2.57442,32.7242,213,11.0175,20.0336,0.075,15524
5.03804e-07,-5.48304e-08,-1.57579e-06,-0.000161589,-2.81256e-05,-0.000252143,9.31272,28.9151,-3.98745,16.5409,29.0024,9.31739,-4.07946,28.8218,213,2.37985,12.6197,0.075,15525
-3.18934e-08,4.85283e-07,-1.57676e-06,-2.49723e-05,-0.000159737,-0.000238507,31.1206,11.327,-0.242247,15.91,31.3492,11.327,-0.47086,27.8621,213,11.3634,2.50847,0.075,15526
5.96551e-07,-8.23705e-08,-1.59377e-06,-0.000183849,-3.61432e-05,-0.000223948,5.84851,27.5429,-0.0409741,14.1132,27.8325,5.91174,-0.393822,25.6613,213,1.82361,13.4311,0.075,15527
